V5 F9
1.0
   5.2924919128417969   -1.4181190729141235    0.0000000000000000
  -1.4181190729141235    5.2924919128417969    0.0000000000000000
   0.0000000000000000    0.0000000000000000    7.5632991790771484
V F V F V
2 6 2 3 1
direct
   0.6680981516838074    0.3216463327407837    0.6470628976821899 V
   0.3319018483161926    0.6783536672592163    0.3529371023178101 V
   0.2721281349658966    0.3333604037761688    0.1629299968481064 F
   0.6666395664215088    0.9387677311897278    0.1629299968481064 F
   0.0612322688102722    0.7278718948364258    0.1629299968481064 F
   0.7278718948364258    0.6666395664215088    0.8370699882507324 F
   0.9387677311897278    0.2721281349658966    0.8370699882507324 F
   0.3333604037761688    0.0612322688102722    0.8370699882507324 F
   0.0426275506615639    0.0862449482083321    0.2858602404594421 V
   0.9573724269866943    0.9137550592422485    0.7141397595405579 V
   0.6709363460540771    0.9754389524459839    0.5163206458091736 F
   0.0245610475540161    0.6954973936080933    0.5163206458091736 F
   0.3045026063919067    0.3290636539459229    0.5163206458091736 F
   0.3583773672580719    0.0918743461370468    0.0605865344405174 V
