Sm2 C6 N8
1.0
   5.9426598548889160    0.0000000000000000    0.0000000000000000
   0.0000000000000000    5.9426598548889160    0.0000000000000000
   0.0000000000000000    0.0000000000000000    5.9426598548889160
C N Sm
6 8 2
direct
   0.5077859163284302    0.2276018261909485    0.0026255925185978 C
   0.2276018261909485    0.4922140836715698    0.9973744153976440 C
   0.9973744153976440    0.2276018261909485    0.4922140836715698 C
   0.7276018261909485    0.9922140836715698    0.4973744153976440 C
   0.0077859163284302    0.7276018261909485    0.5026255846023560 C
   0.4973744153976440    0.7276018261909485    0.9922140836715698 C
   0.3051682114601135    0.3119844496250153    0.1330542862415314 N
   0.6948317885398865    0.6880155801773071    0.1330542862415314 N
   0.6880155801773071    0.3051682114601135    0.8669457435607910 N
   0.3119844496250153    0.6948317885398865    0.8669457435607910 N
   0.8051682114601135    0.8119844198226929    0.6330542564392090 N
   0.1948317885398865    0.1880155503749847    0.6330542564392090 N
   0.8119844198226929    0.1948317885398865    0.3669457137584686 N
   0.1880155503749847    0.8051682114601135    0.3669457137584686 N
   0.0104827601462603    0.9863837361335754    0.0194707438349724 Sm
   0.5104827880859375    0.4863836765289307    0.5194707512855530 Sm
