S8
1.0
   7.0345826783503771   -2.5285945493170070   -0.1852361719771391
  -2.7213724914933399    6.4176802324697189   -0.1642484087639271
  -0.2765228793415241   -0.2665666880846810    6.9430787455650789
S
8
direct
   0.3653392900361928    0.6637107999523031    0.8819528744803915 S
   0.6346607297924446    0.3362892063633766    0.1180470810532407 S
   0.8447673955103976    0.6359423073158716    0.3760590118327938 S
   0.2922966801934587    0.1422308285832553    0.1602511334698502 S
   0.1910992727646688    0.8352602364176086    0.3455015492739166 S
   0.1552325946114714    0.3640576801906656    0.6239409598533716 S
   0.7077033369735386    0.8577691691186817    0.8397488477400754 S
   0.8089007295064687    0.1647397801960578    0.6544984575678686 S
