Zn1 Cu2 Br5
1.0
   6.8354382514953613    0.0000000000000000    0.0000000000000000
   0.0000000000000000    6.8354382514953613    0.0000000000000000
   0.0000000000000000    0.0000000000000000    4.2932763099670410
Zn Br Cu Br
1 4 2 1
direct
   0.4168298542499542    0.8296030163764954    0.1240032315254211 Zn
   0.1491779834032059    0.6893011927604675    0.8699101209640503 Br
   0.8508220314979553    0.3106988072395325    0.8699101209640503 Br
   0.3106988072395325    0.1491779834032059    0.8699101209640503 Br
   0.6893011927604675    0.8508220314979553    0.8699101209640503 Br
   0.0985392928123474    0.3461551666259766    0.3593732416629791 Cu
   0.6538448333740234    0.0985392928123474    0.3593732416629791 Cu
   0.5719700455665588    0.4920384287834167    0.3751975595951080 Br
