Zr2 F8
1.0
   6.4700303077697754    0.0000000000000000    0.0000000000000000
   0.0000000000000000    9.0293970108032227    0.0000000000000000
   0.0000000000000000    0.0000000000000000    3.9132823944091797
F Zr
8 2
direct
   0.2487516403198242    0.1239688470959663    0.9091912508010864 F
   0.7512483596801758    0.8760311603546143    0.9091912508010864 F
   0.2487516403198242    0.8760311603546143    0.9091912508010864 F
   0.7512483596801758    0.1239688470959663    0.9091912508010864 F
   0.7487516403198242    0.6239688396453857    0.9091912508010864 F
   0.2512483596801758    0.3760311603546143    0.9091912508010864 F
   0.7487516403198242    0.3760311603546143    0.9091912508010864 F
   0.2512483596801758    0.6239688396453857    0.9091912508010864 F
   0.9868394136428833    0.3881522417068481    0.0092793460935354 Zr
   0.4868394136428833    0.8881522417068481    0.0092793460935354 Zr
