P1 S3 O12
1.0
   6.8526892662048340   -1.8361725807189941    0.0000000000000000
  -1.8361725807189941    6.8526892662048340    0.0000000000000000
   0.0000000000000000    0.0000000000000000    6.4286479949951172
O S P
12 3 1
direct
   0.1072222292423248    0.4375072121620178    0.5953267216682434 O
   0.5624927878379822    0.6697150468826294    0.5953267216682434 O
   0.3302849829196930    0.8927778005599976    0.4046732783317566 O
   0.8927778005599976    0.5624927878379822    0.4046732783317566 O
   0.4375072121620178    0.3302849829196930    0.4046732783317566 O
   0.6697150468826294    0.1072222292423248    0.5953267216682434 O
   0.9035869836807251    0.5153917074203491    0.8481613397598267 O
   0.4846082925796509    0.3881952762603760    0.8481613397598267 O
   0.6118047237396240    0.0964130163192749    0.1518386602401733 O
   0.0964130163192749    0.4846082925796509    0.1518386602401733 O
   0.5153917074203491    0.6118047237396240    0.1518386602401733 O
   0.3881952762603760    0.9035869836807251    0.8481613397598267 O
   0.4878782629966736    0.9650374054908752    0.5908847451210022 S
   0.0349625945091248    0.5228408575057983    0.5908847451210022 S
   0.5228408575057983    0.4878782629966736    0.5908847451210022 S
   0.4671561419963837    0.8730632662773132    0.0563633143901825 P
