Cl8
1.0
   7.3684616088867188    0.0000000000000000    0.0000000000000000
   0.0000000000000000    7.3684616088867188    0.0000000000000000
   0.0000000000000000    0.0000000000000000    6.6093301773071289
Cl
8
direct
   0.8879929780960083    0.3431046605110168    0.7666149139404297 Cl
   0.3431046605110168    0.1120070219039917    0.2333850860595703 Cl
   0.1120070219039917    0.6568953394889832    0.2333850860595703 Cl
   0.6568953394889832    0.8879929780960083    0.7666149139404297 Cl
   0.1120070219039917    0.1568953394889832    0.9833850860595703 Cl
   0.6568953394889832    0.3879929780960083    0.5166149139404297 Cl
   0.8879929780960083    0.8431046605110168    0.5166149139404297 Cl
   0.3431046605110168    0.6120070219039917    0.9833850860595703 Cl
