Zn1 H8 Pb1
1.0
   4.2896380424499512    0.0000000000000000    0.0000000000000000
   0.0000000000000000    4.2896380424499512    0.0000000000000000
   0.0000000000000000    0.0000000000000000    7.0287036895751953
H Zn H Pb
4 1 4 1
direct
   0.3472961187362671    0.0515424460172653    0.0678682848811150 H
   0.9484575390815735    0.3472961187362671    0.0678682848811150 H
   0.6527038812637329    0.9484575390815735    0.9321317076683044 H
   0.0515424460172653    0.6527038812637329    0.9321317076683044 H
   0.7253996133804321    0.3358226716518402    0.5851675271987915 Zn
   0.1819379329681396    0.3059235215187073    0.4405850172042847 H
   0.6940764784812927    0.1819379329681396    0.4405850172042847 H
   0.8180620670318604    0.6940764784812927    0.5594149827957153 H
   0.3059235215187073    0.8180620670318604    0.5594149827957153 H
   0.1348737627267838    0.7284758687019348    0.2263288199901581 Pb
