I2 Cl4
1.0
   6.3968973159790039    0.0000000000000000    0.0000000000000000
   0.0000000000000000    6.3968973159790039    0.0000000000000000
   0.0000000000000000    0.0000000000000000    6.5050716400146484
I Cl
2 4
direct
   0.2476590126752853    0.5822975039482117    0.5463662147521973 I
   0.7476590275764465    0.0822975635528564    0.0463662147521973 I
   0.5758678913116455    0.5998277664184570    0.0582095235586166 Cl
   0.0758678913116455    0.0998277664184570    0.5582095384597778 Cl
   0.4241321086883545    0.4001722335815430    0.9417904615402222 Cl
   0.9241321086883545    0.9001722335815430    0.4417904615402222 Cl
