Zn4 P16
1.0
   7.5881805419921875    0.0000000000000000    0.0000000000000000
   0.0000000000000000    7.5881805419921875    0.0000000000000000
   0.0000000000000000    0.0000000000000000    6.8125400543212891
P Zn
16 4
direct
   0.2204793542623520    0.0922935530543327    0.5792458057403564 P
   0.7795206308364868    0.9077064394950867    0.4207541942596436 P
   0.9077064394950867    0.2204793542623520    0.5792458057403564 P
   0.0922935530543327    0.7795206308364868    0.4207541942596436 P
   0.7795206308364868    0.0922935530543327    0.0792458057403564 P
   0.2204793542623520    0.9077064394950867    0.9207541942596436 P
   0.0922935530543327    0.2204793542623520    0.0792458057403564 P
   0.9077064394950867    0.7795206308364868    0.9207541942596436 P
   0.7204793691635132    0.5922935605049133    0.0792458057403564 P
   0.2795206308364868    0.4077064394950867    0.9207541942596436 P
   0.4077064394950867    0.7204793691635132    0.0792458057403564 P
   0.5922935605049133    0.2795206308364868    0.9207541942596436 P
   0.2795206308364868    0.5922935605049133    0.5792458057403564 P
   0.7204793691635132    0.4077064394950867    0.4207541942596436 P
   0.5922935605049133    0.7204793691635132    0.5792458057403564 P
   0.4077064394950867    0.2795206308364868    0.4207541942596436 P
   0.0984413921833038    0.5482585430145264    0.2018489688634872 Zn
   0.4517414569854736    0.0984413921833038    0.2018489688634872 Zn
   0.5482585430145264    0.9015586376190186    0.7981510162353516 Zn
   0.9015586376190186    0.4517414569854736    0.7981510162353516 Zn
