Al16
1.0
   5.6517972946166992    0.0000000000000000    0.0000000000000000
   0.0000000000000000    6.4991497993469238    0.0000000000000000
   0.0000000000000000    0.0000000000000000    7.3460340499877930
Al
16
direct
   0.8944078683853149    0.1233517527580261    0.1799084395170212 Al
   0.3944078683853149    0.1233517527580261    0.6799084544181824 Al
   0.8944078683853149    0.6233517527580261    0.6799084544181824 Al
   0.3944078683853149    0.6233517527580261    0.1799084395170212 Al
   0.3944078683853149    0.6233517527580261    0.6799084544181824 Al
   0.8944078683853149    0.6233517527580261    0.1799084395170212 Al
   0.3944078683853149    0.1233517527580261    0.1799084395170212 Al
   0.8944078683853149    0.1233517527580261    0.6799084544181824 Al
   0.1444078683853149    0.3733517527580261    0.4299084544181824 Al
   0.1444078683853149    0.8733517527580261    0.9299084544181824 Al
   0.6444078683853149    0.8733517527580261    0.4299084544181824 Al
   0.6444078683853149    0.3733517527580261    0.9299084544181824 Al
   0.6444078683853149    0.8733517527580261    0.9299084544181824 Al
   0.6444078683853149    0.3733517527580261    0.4299084544181824 Al
   0.1444078683853149    0.3733517527580261    0.9299084544181824 Al
   0.1444078683853149    0.8733517527580261    0.4299084544181824 Al
