Sr1 H1 N8 O2
1.0
   5.2400784492492676    0.0000000000000000    0.0000000000000000
   0.0000000000000000    6.5325646400451660    0.0000000000000000
   0.0000000000000000    0.0000000000000000    6.2794666290283203
N O Sr H
8 2 1 1
direct
   0.3766677081584930    0.2622511088848114    0.1112212613224983 N
   0.6233322620391846    0.7377488613128662    0.1112212613224983 N
   0.6233322620391846    0.2622511088848114    0.8887787461280823 N
   0.3766677081584930    0.7377488613128662    0.8887787461280823 N
   0.6233322620391846    0.7377488613128662    0.8887787461280823 N
   0.3766677081584930    0.2622511088848114    0.8887787461280823 N
   0.3766677081584930    0.7377488613128662    0.1112212613224983 N
   0.6233322620391846    0.2622511088848114    0.1112212613224983 N
   0.1772486120462418    0.4100815951824188    0.3033632040023804 O
   0.8227514028549194    0.5899183750152588    0.6966367959976196 O
   0.8745011091232300    0.0234753210097551    0.4147042632102966 Sr
   0.1379235237836838    0.4729893505573273    0.5105857253074646 H
