O8
1.0
   4.7116069793701172    0.0000000000000000    0.0000000000000000
   0.0000000000000000    5.2770290374755859    0.0000000000000000
   0.0000000000000000    0.0000000000000000    6.4738073348999023
O
8
direct
   0.1646116673946381    0.9118947982788086    0.1565968841314316 O
   0.8353883028030396    0.0881052017211914    0.6565968990325928 O
   0.8353883028030396    0.4118947982788086    0.3434031009674072 O
   0.1646116673946381    0.5881052017211914    0.8434031009674072 O
   0.8353883028030396    0.0881052017211914    0.8434031009674072 O
   0.1646116673946381    0.9118947982788086    0.3434031009674072 O
   0.1646116673946381    0.5881052017211914    0.6565968990325928 O
   0.8353883028030396    0.4118947982788086    0.1565968841314316 O
