P12 S8
1.0
   7.0934200286865234    0.0000000000000000    0.0000000000000000
   0.0000000000000000    7.6031455993652344    0.0000000000000000
   0.0000000000000000    0.0000000000000000   11.0078678131103516
P S P
4 8 8
direct
   0.6243093609809875    0.6690110564231873    0.2873727679252625 P
   0.8756906390190125    0.3309889435768127    0.7873727679252625 P
   0.1243093013763428    0.6690110564231873    0.2126272320747375 P
   0.3756906390190125    0.3309889435768127    0.7126272320747375 P
   0.2605654895305634    0.8366184830665588    0.5271347761154175 S
   0.2394345104694366    0.1633815169334412    0.0271347761154175 S
   0.7605655193328857    0.8366184830665588    0.9728652238845825 S
   0.7394344806671143    0.1633815169334412    0.4728652238845825 S
   0.1299058645963669    0.4215916693210602    0.6593315005302429 S
   0.3700941205024719    0.5784083604812622    0.1593315601348877 S
   0.8700941205024719    0.5784083604812622    0.3406684994697571 S
   0.6299058794975281    0.4215916693210602    0.8406684994697571 S
   0.5280362367630005    0.0750451460480690    0.6021556258201599 P
   0.9719637632369995    0.9249548316001892    0.1021556854248047 P
   0.4719637632369995    0.9249548316001892    0.3978443741798401 P
   0.0280362367630005    0.0750451460480690    0.8978443741798401 P
   0.0292204469442368    0.6472738981246948    0.5383581519126892 P
   0.4707795381546021    0.3527261018753052    0.0383582115173340 P
   0.9707795381546021    0.3527261018753052    0.4616418480873108 P
   0.5292204618453979    0.6472738981246948    0.9616418480873108 P
