V2 F10
1.0
  11.0634389691514841   -0.1431327116133542    0.2539590723772416
  -0.0771180538946078    6.0049933145201511    0.0960299149471094
   0.1461892098396598    0.1062056272499275    6.0403655091798818
V F
2 10
direct
   0.4593658096603819    0.9599766967001300    0.0453285050229972 V
   0.9593687545358682    0.4599650393256410    0.0453281801616312 V
   0.4007396274342548    0.8551680772048532    0.8043456308667717 F
   0.5793474470160050    0.0964511889750963    0.8811294690661688 F
   0.5649697593801385    0.8078070150843359    0.1894910341122186 F
   0.4132487753004572    0.2185653940795264    0.1393848098988614 F
   0.9007397493239714    0.3551692996628913    0.8043455558134047 F
   0.0793469867755079    0.5964523831315904    0.8811299975618272 F
   0.0649675332419752    0.3078110303543206    0.1894884606001203 F
   0.9132468672042300    0.7185719351554521    0.1393868943060042 F
   0.3386660796073797    0.8251745826116146    0.2075435419569627 F
   0.8386657591230753    0.3251732507907562    0.2075426685508945 F
