Cd2 I2 O2
1.0
   4.4448428153991699    0.0000000000000000    0.0000000000000000
   0.0000000000000000    5.4153399467468262    0.0000000000000000
   0.0000000000000000    0.0000000000000000    6.7927169799804688
I O Cd
2 2 2
direct
   0.0970403775572777    0.3370935022830963    0.2631000876426697 I
   0.9029596447944641    0.6629065275192261    0.7368999123573303 I
   0.6110728979110718    0.8297225236892700    0.2562695741653442 O
   0.3889271020889282    0.1702774763107300    0.7437304258346558 O
   0.5027973055839539    0.1176976561546326    0.5008285641670227 Cd
   0.5027973055839539    0.1176976561546326    0.0008285045623779 Cd
