C4 O16
1.0
   7.6729764938354492    0.0000000000000000    0.0000000000000000
   0.0000000000000000    7.6729764938354492    0.0000000000000000
   0.0000000000000000    0.0000000000000000    4.7226676940917969
O C
16 4
direct
   0.2912111878395081    0.5046039819717407    0.7499733567237854 O
   0.7087888121604919    0.4953960180282593    0.2500266432762146 O
   0.4953960180282593    0.2912111878395081    0.7499733567237854 O
   0.5046039819717407    0.7087888121604919    0.2500266432762146 O
   0.7912111878395081    0.0046039819717407    0.2499732971191406 O
   0.2087888121604919    0.9953960180282593    0.7500266432762146 O
   0.9953960180282593    0.7912111878395081    0.2499732971191406 O
   0.0046039819717407    0.2087888121604919    0.7500266432762146 O
   0.2469004243612289    0.2247621715068817    0.7364759445190430 O
   0.7530995607376099    0.7752377986907959    0.7364759445190430 O
   0.7752377986907959    0.2469004243612289    0.7364759445190430 O
   0.2247621715068817    0.7530995607376099    0.7364759445190430 O
   0.7530995607376099    0.7752377986907959    0.2635240554809570 O
   0.2469004243612289    0.2247621715068817    0.2635240554809570 O
   0.2247621715068817    0.7530995607376099    0.2635240554809570 O
   0.7752377986907959    0.2469004243612289    0.2635240554809570 O
   0.3798436820507050    0.3698493838310242    0.7206503152847290 C
   0.6201562881469727    0.6301506161689758    0.2793496847152710 C
   0.8798437118530273    0.8698493838310242    0.2206503152847290 C
   0.1201563179492950    0.1301506161689758    0.7793496847152710 C
