S8
1.0
   3.9495589733123779    0.0000000000000000    0.0000000000000000
   0.0000000000000000    3.9495589733123779    0.0000000000000000
   0.0000000000000000    0.0000000000000000   11.3543491363525391
S
8
direct
   0.0222672969102859    0.4974173009395599    0.0630267560482025 S
   0.0222672969102859    0.9974173307418823    0.3130267560482025 S
   0.0222672969102859    0.4974173009395599    0.5630267858505249 S
   0.0222672969102859    0.9974173307418823    0.8130267858505249 S
   0.5222672820091248    0.9974173307418823    0.5630267858505249 S
   0.5222672820091248    0.4974173009395599    0.8130267858505249 S
   0.5222672820091248    0.9974173307418823    0.0630267560482025 S
   0.5222672820091248    0.4974173009395599    0.3130267560482025 S
