H16
1.0
   6.8705568313598633    0.0000000000000000    0.0000000000000000
   0.0000000000000000    6.3191442489624023    0.0000000000000000
   0.0000000000000000    0.0000000000000000    4.5242347717285156
H
16
direct
   0.3167678117752075    0.1891190111637115    0.9004427194595337 H
   0.6832321882247925    0.8108810186386108    0.9004427194595337 H
   0.6832321882247925    0.1891190111637115    0.5995572805404663 H
   0.3167678117752075    0.8108810186386108    0.5995572805404663 H
   0.6832321882247925    0.8108810186386108    0.0995572805404663 H
   0.3167678117752075    0.1891190111637115    0.0995572805404663 H
   0.3167678117752075    0.8108810186386108    0.4004427194595337 H
   0.6832321882247925    0.1891190111637115    0.4004427194595337 H
   0.8167678117752075    0.6891189813613892    0.9004427194595337 H
   0.1832321882247925    0.3108809888362885    0.9004427194595337 H
   0.1832321882247925    0.6891189813613892    0.5995572805404663 H
   0.8167678117752075    0.3108809888362885    0.5995572805404663 H
   0.1832321882247925    0.3108809888362885    0.0995572805404663 H
   0.8167678117752075    0.6891189813613892    0.0995572805404663 H
   0.8167678117752075    0.3108809888362885    0.4004427194595337 H
   0.1832321882247925    0.6891189813613892    0.4004427194595337 H
