H8 O8
1.0
   6.8574285507202148    0.0000000000000000    0.0000000000000000
   0.0000000000000000    6.2533302307128906    0.0000000000000000
   0.0000000000000000    0.0000000000000000    6.0236248970031738
O H
8 8
direct
   0.7428786158561707    0.7355456352233887    0.7690029144287109 O
   0.2571213841438293    0.2644543647766113    0.7690029144287109 O
   0.2571213841438293    0.7355456352233887    0.2309970855712891 O
   0.7428786158561707    0.2644543647766113    0.2309970855712891 O
   0.2571213841438293    0.2644543647766113    0.2309970855712891 O
   0.7428786158561707    0.7355456352233887    0.2309970855712891 O
   0.7428786158561707    0.2644543647766113    0.7690029144287109 O
   0.2571213841438293    0.7355456352233887    0.7690029144287109 O
   0.2873974144458771    0.2778551578521729    0.1548157930374146 H
   0.7126026153564453    0.7221448421478271    0.1548157930374146 H
   0.7126026153564453    0.2778551578521729    0.8451842069625854 H
   0.2873974144458771    0.7221448421478271    0.8451842069625854 H
   0.7126026153564453    0.7221448421478271    0.8451842069625854 H
   0.2873974144458771    0.2778551578521729    0.8451842069625854 H
   0.2873974144458771    0.7221448421478271    0.1548157930374146 H
   0.7126026153564453    0.2778551578521729    0.1548157930374146 H
