V2 As2 F12
1.0
   8.7153453826904297   -2.3352699279785156    0.0000000000000000
  -2.3352699279785156    8.7153453826904297    0.0000000000000000
   0.0000000000000000    0.0000000000000000    4.0230636596679688
F V As
12 2 2
direct
   0.1029514521360397    0.7215937376022339    0.3848627507686615 F
   0.2784062623977661    0.3813577294349670    0.3848627507686615 F
   0.6186422705650330    0.8970485329627991    0.3848627507686615 F
   0.8970485329627991    0.2784062623977661    0.3848627507686615 F
   0.7215937376022339    0.6186422705650330    0.3848627507686615 F
   0.3813577294349670    0.1029514521360397    0.3848627507686615 F
   0.6571891903877258    0.1427960246801376    0.8761559128761292 F
   0.8572039604187012    0.5143931508064270    0.8761559128761292 F
   0.4856068491935730    0.3428108096122742    0.8761559128761292 F
   0.3428108096122742    0.8572039604187012    0.8761559128761292 F
   0.1427960246801376    0.4856068491935730    0.8761559128761292 F
   0.5143931508064270    0.6571891903877258    0.8761559128761292 F
   0.3084435164928436    0.8855083584785461    0.4460453093051910 V
   0.4229351282119751    0.3084435164928436    0.4460453093051910 V
   0.3452112972736359    0.5485355854034424    0.8992575407028198 As
   0.7966756820678711    0.3452112972736359    0.8992575407028198 As
