P4 O16
1.0
   5.9991197586059570    0.0000000000000000    0.0000000000000000
   0.0000000000000000    7.4088921546936035    0.0000000000000000
   0.0000000000000000    0.0000000000000000    7.5773200988769531
O P O
12 4 4
direct
   0.4944355785846710    0.1409076750278473    0.6644933819770813 O
   0.0055644214153290    0.8590923547744751    0.6644933819770813 O
   0.5055644512176514    0.8590923547744751    0.3355066180229187 O
   0.9944355487823486    0.1409076750278473    0.3355066180229187 O
   0.9359390735626221    0.6250159740447998    0.4181081652641296 O
   0.5640609264373779    0.3749840259552002    0.4181081652641296 O
   0.5640609264373779    0.1250159740447998    0.0818918347358704 O
   0.9359390735626221    0.8749840259552002    0.0818918347358704 O
   0.0640609264373779    0.3749840259552002    0.5818918347358704 O
   0.4359390735626221    0.6250159740447998    0.5818918347358704 O
   0.4359390735626221    0.8749840259552002    0.9181081652641296 O
   0.0640609264373779    0.1250159740447998    0.9181081652641296 O
   0.5340600609779358    0.6164895296096802    0.3977412283420563 P
   0.9659399390220642    0.3835104703903198    0.3977412283420563 P
   0.9659399390220642    0.1164895296096802    0.1022587716579437 P
   0.5340600609779358    0.8835104703903198    0.1022587716579437 P
   0.4916611015796661    0.6494792103767395    0.1648657470941544 O
   0.0083388984203339    0.3505207896232605    0.1648657470941544 O
   0.5083389282226562    0.3505207896232605    0.8351342678070068 O
   0.9916610717773438    0.6494792103767395    0.8351342678070068 O
