O8
1.0
   3.6284780798869343    0.0000000287696174    0.0000000099782572
   0.0000000287696190    3.6284780859618451    0.0000000298299504
   0.0000000188834132    0.0000000558857150    6.9124680472091615
O
8
direct
   0.7456678218349458    0.7497777800453899    0.8593055777273305 O
   0.2543321373735404    0.2502223266153607    0.8593055928009247 O
   0.7497777788391511    0.2543321647845609    0.1406944280501759 O
   0.2502223109838511    0.7456678305204025    0.1406944504088915 O
   0.2525038348500069    0.2503057778287242    0.3638047170504048 O
   0.7474960437204695    0.7496942943049038    0.3638047045063906 O
   0.2503057916572877    0.7474960443287277    0.6361952962911682 O
   0.7496942815473747    0.2525037797898144    0.6361952944075816 O
