Al3 I9
1.0
   8.6410989761352539   -2.3153750896453857    0.0000000000000000
  -2.3153750896453857    8.6410989761352539    0.0000000000000000
   0.0000000000000000    0.0000000000000000    5.3570871353149414
I Al I Al
6 1 3 2
direct
   0.7297884821891785    0.1161164864897728    0.0801753178238869 I
   0.8838835358619690    0.6136720180511475    0.0801753178238869 I
   0.3863279819488525    0.2702115178108215    0.0801753178238869 I
   0.2702115178108215    0.8838835358619690    0.0801753178238869 I
   0.1161164864897728    0.3863279819488525    0.0801753178238869 I
   0.6136720180511475    0.7297884821891785    0.0801753178238869 I
   0.7341523766517639    0.2573697865009308    0.5858948230743408 Al
   0.9390749931335449    0.5843877196311951    0.5673374533653259 I
   0.4156122803688049    0.3546872735023499    0.5673374533653259 I
   0.3546872735023499    0.9390749931335449    0.5673374533653259 I
   0.7430905103683472    0.5803594589233398    0.2134902477264404 Al
   0.1627310514450073    0.7430905103683472    0.2134902477264404 Al
