Al2 B2 P3 S1 N1 O11
1.0
   5.6302819252014160    0.0000000000000000    0.0000000000000000
   0.0000000000000000    6.7112741470336914    0.0000000000000000
   0.0000000000000000    0.0000000000000000    7.4338436126708984
B Al O P O N O S
2 2 4 3 6 1 1 1
direct
   0.4895066916942596    0.7896925210952759    0.6288835406303406 B
   0.5104932785034180    0.2103074789047241    0.6288835406303406 B
   0.5068845152854919    0.8007972240447998    0.3350989520549774 Al
   0.4931154847145081    0.1992027759552002    0.3350989520549774 Al
   0.6935315132141113    0.3146840631961823    0.5313440561294556 O
   0.3064684867858887    0.6853159666061401    0.5313440561294556 O
   0.6935315132141113    0.6853159666061401    0.5313440561294556 O
   0.3064684867858887    0.3146840631961823    0.5313440561294556 O
   0.2412665784358978    0.5375059247016907    0.6716471314430237 P
   0.7587333917617798    0.4624940752983093    0.6716471314430237 P
   0.9948617219924927    0.0133863929659128    0.1184222698211670 P
   0.5916466116905212    0.2987700104713440    0.7846270203590393 O
   0.4083533883094788    0.7012299895286560    0.7846270203590393 O
   0.7809095978736877    0.1813281625509262    0.1737292110919952 O
   0.2190904021263123    0.8186718225479126    0.1737292110919952 O
   0.7809095978736877    0.8186718225479126    0.1737292110919952 O
   0.2190904021263123    0.1813281625509262    0.1737292110919952 O
   0.4984672963619232    0.0097286254167557    0.5344376564025879 N
   0.0243071764707565    0.4700067937374115    0.7873575687408447 O
   0.9732030034065247    0.9853587150573730    0.8528630733489990 S
