Hf1 Zr2 Nb1 O8
1.0
   5.2278504371643066    0.0000000000000000    0.0000000000000000
   0.0000000000000000    5.2278504371643066    0.0000000000000000
   0.0000000000000000    0.0000000000000000    5.4105701446533203
Hf Zr Nb O
1 2 1 8
direct
   0.5033417344093323    0.4951307177543640    0.0050612539052963 Hf
   0.0022590733133256    0.4979728460311890    0.5045259594917297 Zr
   0.5020271539688110    0.0022590733133256    0.5045259594917297 Zr
   0.0161274727433920    0.9817481040954590    0.0030751002486795 Nb
   0.2348224222660065    0.7353188991546631    0.7473230957984924 O
   0.7651776075363159    0.2646811008453369    0.7473230957984924 O
   0.2646811008453369    0.2348224222660065    0.7473230957984924 O
   0.7353188991546631    0.7651776075363159    0.7473230957984924 O
   0.7651776075363159    0.2646811008453369    0.2526769042015076 O
   0.2348224222660065    0.7353188991546631    0.2526769042015076 O
   0.7353188991546631    0.7651776075363159    0.2526769042015076 O
   0.2646811008453369    0.2348224222660065    0.2526769042015076 O
