B4 P2 S10
1.0
   6.5503559619119134   -0.0000004345965132    0.0000059874141795
  -0.0000006223537098    6.7857871426824001    0.3254376555077590
   0.0000050668075320    0.4364633277073634   11.6777343832669285
B P S
4 2 10
direct
   0.7253858097824277    0.5539033564648385    0.3283790220236642 B
   0.4607204199086907    0.7111194982732015    0.3908301138985883 B
   0.2746164935831398    0.5539017159120564    0.8283872744233749 B
   0.5392807072862893    0.7111185814610148    0.8908365440959181 B
   0.9438004553973925    0.2536224696140335    0.9077646787892462 P
   0.0561979411600616    0.2536215854490513    0.4077640142396775 P
   0.4123774120079874    0.4933873443903533   -0.0369175075338589 S
   0.5876195785732286    0.4933837351050764    0.4630884109388560 S
   0.8340645032618214    0.0325557018436814    0.8069887350862863 S
   0.3941737813078647    0.7792722237595450    0.7603819880143752 S
   0.7738051647917396    0.8129572950521963    0.9389675176429330 S
   0.0674241321569518    0.4272634086333709    0.7650437417766907 S
   0.6058277473355025    0.7792715091892146    0.2603873261168236 S
   0.1659373748340379    0.0325563702397596    0.3069884523439514 S
   0.9325756823208430    0.4272634845111951    0.2650462869603428 S
   0.2261926504395405    0.8129569571567017    0.4389686858795251 S
