Nb2 O8
1.0
   5.0704774856567383    0.0000000000000000    0.0000000000000000
   0.0000000000000000    5.0704774856567383    0.0000000000000000
   0.0000000000000000    0.0000000000000000    5.0704774856567383
O Nb
8 2
direct
   0.7286374568939209    0.2253578454256058    0.2446189820766449 O
   0.2713625431060791    0.7746421694755554    0.2446189820766449 O
   0.7746421694755554    0.7286374568939209    0.7553809881210327 O
   0.2253578454256058    0.2713625431060791    0.7553809881210327 O
   0.2713625431060791    0.7746421694755554    0.7553809881210327 O
   0.7286374568939209    0.2253578454256058    0.7553809881210327 O
   0.2253578454256058    0.2713625431060791    0.2446189820766449 O
   0.7746421694755554    0.7286374568939209    0.2446189820766449 O
   0.0031264345161617    0.0040295757353306    0.4989015758037567 Nb
   0.5031264424324036    0.5040295720100403    0.9989016056060791 Nb
