Cl8
1.0
   6.4408016204833984    0.0000000000000000    0.0000000000000000
   0.0000000000000000    6.8166570663452148    0.0000000000000000
   0.0000000000000000    0.0000000000000000    7.2580204010009766
Cl
8
direct
   0.2213548868894577    0.3140800595283508    0.7493861317634583 Cl
   0.2213548868894577    0.6859199404716492    0.2506138682365417 Cl
   0.7786450982093811    0.3140800595283508    0.2506138682365417 Cl
   0.7786450982093811    0.6859199404716492    0.7493861317634583 Cl
   0.9713549017906189    0.9359199404716492    0.9993861317634583 Cl
   0.9713549017906189    0.5640800595283508    0.5006138682365417 Cl
   0.5286450982093811    0.9359199404716492    0.5006138682365417 Cl
   0.5286450982093811    0.5640800595283508    0.9993861317634583 Cl
