Nb2 Hg1 O8
1.0
   5.5160365104675293    0.0000000000000000    0.0000000000000000
   0.0000000000000000    5.5160365104675293    0.0000000000000000
   0.0000000000000000    0.0000000000000000    5.7262673377990723
O Nb Hg
8 2 1
direct
   0.3376190066337585    0.8268321156501770    0.2940474450588226 O
   0.6623809933662415    0.1731678843498230    0.2940474450588226 O
   0.1731678843498230    0.3376190066337585    0.2940474450588226 O
   0.8268321156501770    0.6623809933662415    0.2940474450588226 O
   0.6623809933662415    0.1731678843498230    0.7059525251388550 O
   0.3376190066337585    0.8268321156501770    0.7059525251388550 O
   0.8268321156501770    0.6623809933662415    0.7059525251388550 O
   0.1731678843498230    0.3376190066337585    0.7059525251388550 O
   0.8888766169548035    0.3886758685112000    0.5118072032928467 Nb
   0.6113241314888000    0.8888766169548035    0.5118072032928467 Nb
   0.0221885312348604    0.1337776184082031    0.9954348206520081 Hg
