Fe6 P2 O10
1.0
   5.7084960937500000   -1.5295870304107666    0.0000000000000000
  -1.5295870304107666    5.7084960937500000    0.0000000000000000
   0.0000000000000000    0.0000000000000000    7.2519378662109375
O P Fe O
2 2 6 8
direct
   0.6754583120346069    0.3609723746776581    0.1139924526214600 O
   0.3144859373569489    0.6754583120346069    0.6139924526214600 O
   0.6713387370109558    0.3972953259944916    0.3229943513870239 P
   0.2740434110164642    0.6713387370109558    0.8229943513870239 P
   0.6579874753952026    0.9886282086372375    0.5103816986083984 Fe
   0.0113717913627625    0.6693592667579651    0.5103816986083984 Fe
   0.3306407332420349    0.3420125246047974    0.5103816986083984 Fe
   0.3420125246047974    0.0113717913627625    0.0103816986083984 Fe
   0.9886282086372375    0.3306407332420349    0.0103816986083984 Fe
   0.6693592667579651    0.6579874753952026    0.0103816986083984 Fe
   0.6763300299644470    0.6478937864303589    0.3529042899608612 O
   0.3521062135696411    0.0284362435340881    0.3529042899608612 O
   0.9715637564659119    0.3236699700355530    0.3529042899608612 O
   0.3236699700355530    0.3521062135696411    0.8529043197631836 O
   0.6478937864303589    0.9715637564659119    0.8529043197631836 O
   0.0284362435340881    0.6763300299644470    0.8529043197631836 O
   0.6904843449592590    0.3516532182693481    0.5429832339286804 O
   0.3388311266899109    0.6904843449592590    0.0429832935333252 O
