Ga2 F6
1.0
   6.4071054458618164    0.0000000000000000   -1.1013097763061523
   0.0000000000000000    3.3314325809478760    0.0000000000000000
  -1.1013097763061523    0.0000000000000000    5.9573521614074707
F Ga
6 2
direct
   0.6541999578475952    0.2803015112876892    0.1597916930913925 F
   0.3458000421524048    0.7196984887123108    0.8402082920074463 F
   0.1541999578475952    0.7803015112876892    0.1597916930913925 F
   0.8458000421524048    0.2196984887123108    0.8402082920074463 F
   0.0789263471961021    0.2628867030143738    0.5728694796562195 F
   0.5789263248443604    0.7628867030143738    0.5728694796562195 F
   0.4688732624053955    0.2667061090469360    0.7018370628356934 Ga
   0.9688732624053955    0.7667061090469360    0.7018370628356934 Ga
