W2 O6
1.0
   5.0508975982666016   -1.3533840179443359    0.0000000000000000
  -1.3533840179443359    5.0508975982666016    0.0000000000000000
   0.0000000000000000    0.0000000000000000    5.2403640747070312
W O
2 6
direct
   0.2346144914627075    0.6283340454101562    0.3878779709339142 W
   0.2346144914627075    0.6283340454101562    0.8878779411315918 W
   0.6306008696556091    0.9623208642005920    0.0888190940022469 O
   0.0376791357994080    0.6682800054550171    0.0888190940022469 O
   0.3317199945449829    0.3693991303443909    0.0888190940022469 O
   0.0376791357994080    0.3693991303443909    0.5888190865516663 O
   0.3317199945449829    0.9623208642005920    0.5888190865516663 O
   0.6306008696556091    0.6682800054550171    0.5888190865516663 O
