Ta4 S8 Cl4
1.0
  11.4100160598754883    0.0000000000000000    0.0000000000000000
   0.0000000000000000    4.3008365631103516    0.0000000000000000
   0.0000000000000000    0.0000000000000000    6.3109369277954102
Ta S Cl
4 8 4
direct
   0.9823315143585205    0.0206337962299585    0.5042769908905029 Ta
   0.4823315143585205    0.5206338167190552    0.5042769908905029 Ta
   0.4823315143585205    0.5206338167190552    0.0042769908905029 Ta
   0.9823315143585205    0.0206337962299585    0.0042769908905029 Ta
   0.3349561095237732    0.5163642764091492    0.7515237331390381 S
   0.6650438904762268    0.4836357235908508    0.7515237331390381 S
   0.6650438904762268    0.4836357235908508    0.2484762668609619 S
   0.3349561095237732    0.5163642764091492    0.2484762668609619 S
   0.8349561095237732    0.0163643360137939    0.2484762668609619 S
   0.1650438904762268    0.9836357235908508    0.2484762668609619 S
   0.1650438904762268    0.9836357235908508    0.7515237331390381 S
   0.8349561095237732    0.0163643360137939    0.7515237331390381 S
   0.4985224306583405    0.9899141192436218    0.2451798170804977 Cl
   0.5014775991439819    0.0100858807563782    0.7548201680183411 Cl
   0.0014775693416595    0.5100858807563782    0.7548201680183411 Cl
   0.9985224008560181    0.4899141788482666    0.2451798170804977 Cl
