Fe1 Te5 Br2 Cl8
1.0
   7.3993492126464844    0.0000000000000000    0.0000000000000000
   0.0000000000000000    7.3993492126464844    0.0000000000000000
   0.0000000000000000    0.0000000000000000    9.9775733947753906
Br Cl Te Cl Te Cl Fe
2 4 4 2 1 2 1
direct
   0.5692569017410278    0.5938411355018616    0.6547169089317322 Br
   0.5938411355018616    0.4307430982589722    0.3452830910682678 Br
   0.1703496426343918    0.7101738452911377    0.9446558952331543 Cl
   0.8296503424644470    0.2898261547088623    0.9446558952331543 Cl
   0.7101738452911377    0.8296503424644470    0.0553441047668457 Cl
   0.2898261547088623    0.1703496426343918    0.0553441047668457 Cl
   0.9508047699928284    0.3176538050174713    0.6178605556488037 Te
   0.0491952300071716    0.6823462247848511    0.6178605556488037 Te
   0.3176538050174713    0.0491952300071716    0.3821394443511963 Te
   0.6823462247848511    0.9508047699928284    0.3821394443511963 Te
   0.8119317293167114    0.9963417053222656    0.7282630205154419 Cl
   0.9963417053222656    0.1880682706832886    0.2717369794845581 Cl
   0.9922208786010742    0.0057641309686005    0.9584072232246399 Te
   0.3526464104652405    0.1440255194902420    0.6637057662010193 Cl
   0.1440255194902420    0.6473535895347595    0.3362942337989807 Cl
   0.8352348804473877    0.6766785979270935    0.2254949808120728 Fe
