O16
1.0
   8.5675907135009766    0.0000000000000000    0.0000000000000000
   0.0000000000000000    6.2293748855590820    0.0000000000000000
   0.0000000000000000    0.0000000000000000    4.9863443374633789
O
16
direct
   0.3538129627704620    0.9008787870407104    0.9113419055938721 O
   0.6461870670318604    0.5991212129592896    0.9113419055938721 O
   0.6461870670318604    0.4008787870407104    0.0886580944061279 O
   0.3538129627704620    0.0991212129592896    0.0886580944061279 O
   0.6461870670318604    0.0991212129592896    0.0886580944061279 O
   0.3538129627704620    0.4008787870407104    0.0886580944061279 O
   0.3538129627704620    0.5991212129592896    0.9113419055938721 O
   0.6461870670318604    0.9008787870407104    0.9113419055938721 O
   0.8538129329681396    0.4008787870407104    0.4113419055938721 O
   0.1461870372295380    0.0991212129592896    0.4113419055938721 O
   0.1461870372295380    0.9008787870407104    0.5886580944061279 O
   0.8538129329681396    0.5991212129592896    0.5886580944061279 O
   0.1461870372295380    0.5991212129592896    0.5886580944061279 O
   0.8538129329681396    0.9008787870407104    0.5886580944061279 O
   0.8538129329681396    0.0991212129592896    0.4113419055938721 O
   0.1461870372295380    0.4008787870407104    0.4113419055938721 O
