B4 N1 O7
1.0
   4.6795434951782227   -1.2538799047470093    0.0000000000000000
  -1.2538799047470093    4.6795434951782227    0.0000000000000000
   0.0000000000000000    0.0000000000000000    6.7772541046142578
O N O B O
3 1 2 4 2
direct
   0.5214614868164062    0.0722750276327133    0.2883978188037872 O
   0.9277249574661255    0.4491864442825317    0.2883978188037872 O
   0.4491864442825317    0.5214614868164062    0.2883978188037872 O
   0.4222339987754822    0.7908126711845398    0.6787965893745422 N
   0.7401061058044434    0.8631905913352966    0.0120764356106520 O
   0.2598938941955566    0.1368094086647034    0.9879235625267029 O
   0.8281291127204895    0.5059072375297546    0.8713099360466003 B
   0.3222218751907349    0.8281291127204895    0.8713099360466003 B
   0.1718708872795105    0.4940927624702454    0.1286900639533997 B
   0.6777781248092651    0.1718708872795105    0.1286900639533997 B
   0.2016102522611618    0.5876668095588684    0.9827218055725098 O
   0.7983897328376770    0.4123331904411316    0.0172781944274902 O
