Cu8 Cl8
1.0
   6.6774201393127441    0.0000000000000000    0.0000000000000000
   0.0000000000000000    5.7241988182067871    0.0000000000000000
   0.0000000000000000    0.0000000000000000   10.3756952285766602
Cl Cu
8 8
direct
   0.7534524798393250    0.7486405968666077    0.7129744291305542 Cl
   0.2465475201606750    0.2513594031333923    0.7129744291305542 Cl
   0.2465475201606750    0.7486405968666077    0.2870255708694458 Cl
   0.7534524798393250    0.2513594031333923    0.2870255708694458 Cl
   0.2465475201606750    0.2513594031333923    0.2870255708694458 Cl
   0.7534524798393250    0.7486405968666077    0.2870255708694458 Cl
   0.7534524798393250    0.2513594031333923    0.7129744291305542 Cl
   0.2465475201606750    0.7486405968666077    0.7129744291305542 Cl
   0.2487569898366928    0.7461368441581726    0.8761256337165833 Cu
   0.7512429952621460    0.2538631558418274    0.8761256337165833 Cu
   0.7512429952621460    0.7461368441581726    0.1238743662834167 Cu
   0.2487569898366928    0.2538631558418274    0.1238743662834167 Cu
   0.7512429952621460    0.2538631558418274    0.1238743662834167 Cu
   0.2487569898366928    0.7461368441581726    0.1238743662834167 Cu
   0.2487569898366928    0.2538631558418274    0.8761256337165833 Cu
   0.7512429952621460    0.7461368441581726    0.8761256337165833 Cu
