O1 F7
1.0
   5.3725891113281250   -1.4395806789398193    0.0000000000000000
  -1.4395806789398193    5.3725891113281250    0.0000000000000000
   0.0000000000000000    0.0000000000000000    5.3607139587402344
F O F
3 1 4
direct
   0.7071217894554138    0.0647513866424561    0.4164525270462036 F
   0.9352486133575439    0.6423704028129578    0.4164525270462036 F
   0.3576295971870422    0.2928782105445862    0.5835474729537964 F
   0.7405905723571777    0.2051019370555878    0.1123670563101768 O
   0.0748331695795059    0.6184989213943481    0.0535895265638828 F
   0.3815010786056519    0.4563342332839966    0.0535895265638828 F
   0.5436657667160034    0.9251668453216553    0.9464104771614075 F
   0.5315367579460144    0.6927528977394104    0.4684460461139679 F
