Ag6 H12
1.0
   5.6079821586608887   -1.5026540756225586    0.0000000000000000
  -1.5026540756225586    5.6079821586608887    0.0000000000000000
   0.0000000000000000    0.0000000000000000    7.9402208328247070
H Ag
12 6
direct
   0.3028341531753540    0.3793177306652069    0.5368030071258545 H
   0.6206822395324707    0.9235163927078247    0.2034697532653809 H
   0.0764835774898529    0.6971658468246460    0.8701363801956177 H
   0.6971658468246460    0.6206822395324707    0.0368030071258545 H
   0.3793177306652069    0.0764835774898529    0.7034696936607361 H
   0.9235163927078247    0.3028341531753540    0.3701362609863281 H
   0.3793177306652069    0.3028341531753540    0.1298636794090271 H
   0.9235163927078247    0.6206822395324707    0.4631969928741455 H
   0.6971658468246460    0.0764835774898529    0.7965303659439087 H
   0.6206822395324707    0.6971658468246460    0.6298636794090271 H
   0.0764835774898529    0.3793177306652069    0.9631969928741455 H
   0.3028341531753540    0.9235163927078247    0.2965303063392639 H
   0.4580971002578735    0.7182306051254272    0.9377291202545166 Ag
   0.2817693948745728    0.7398664951324463    0.6043958663940430 Ag
   0.2601335048675537    0.5419028997421265    0.2710624933242798 Ag
   0.5419028997421265    0.2817693948745728    0.4377291202545166 Ag
   0.7182306051254272    0.2601335048675537    0.1043957471847534 Ag
   0.7398664951324463    0.4580971002578735    0.7710623741149902 Ag
