Te20
1.0
   9.4837598800659180    0.0000000000000000    0.0000000000000000
   0.0000000000000000    9.4837598800659180    0.0000000000000000
   0.0000000000000000    0.0000000000000000    9.4837598800659180
Te
20
direct
   0.2501677274703979    0.0022404347546399    0.7113446593284607 Te
   0.2498322725296021    0.9977595806121826    0.2113447189331055 Te
   0.7113446593284607    0.2501677274703979    0.0022404347546399 Te
   0.2113447189331055    0.2498322725296021    0.9977595806121826 Te
   0.0022404347546399    0.7113446593284607    0.2501677274703979 Te
   0.9977595806121826    0.2113447189331055    0.2498322725296021 Te
   0.7501677274703979    0.5022404193878174    0.2113447189331055 Te
   0.7498322725296021    0.4977595508098602    0.7113446593284607 Te
   0.2113447189331055    0.7501677274703979    0.5022404193878174 Te
   0.7113446593284607    0.7498322725296021    0.4977595508098602 Te
   0.5022404193878174    0.2113447189331055    0.7501677274703979 Te
   0.4977595508098602    0.7113446593284607    0.7498322725296021 Te
   0.3836006224155426    0.4134072661399841    0.4027729332447052 Te
   0.0972270667552948    0.6163994073867798    0.9134072661399841 Te
   0.6163994073867798    0.9134072661399841    0.0972270667552948 Te
   0.9134072661399841    0.0972270667552948    0.6163994073867798 Te
   0.8836005926132202    0.9134072661399841    0.9027729034423828 Te
   0.6163994073867798    0.0865927338600159    0.4027729332447052 Te
   0.0972270667552948    0.3836006224155426    0.5865927338600159 Te
   0.3836006224155426    0.5865927338600159    0.0972270667552948 Te
