B4 O8
1.0
   5.0014600753784180   -1.3401370048522949    0.0000000000000000
  -1.3401370048522949    5.0014600753784180    0.0000000000000000
   0.0000000000000000    0.0000000000000000    5.7186484336853027
O B
8 4
direct
   0.0495304614305496    0.7027810215950012    0.3278850913047791 O
   0.2972189784049988    0.3467494249343872    0.3278850913047791 O
   0.6532505750656128    0.9504695534706116    0.3278850913047791 O
   0.9504695534706116    0.2972189784049988    0.6721149086952209 O
   0.7027810215950012    0.6532505750656128    0.6721149086952209 O
   0.3467494249343872    0.0495304614305496    0.6721149086952209 O
   0.2191073596477509    0.6395388841629028    0.9495680332183838 O
   0.7808926105499268    0.3604611158370972    0.0504319667816162 O
   0.9608153700828552    0.6279445886611938    0.5815327167510986 B
   0.3720554113388062    0.3328707814216614    0.5815327167510986 B
   0.6671292185783386    0.0391846299171448    0.5815327167510986 B
   0.0766909793019295    0.5147039294242859    0.1414561867713928 B
