S8
1.0
   6.5278000831604004   -1.7491188049316406    0.0000000000000000
  -1.7491188049316406    6.5278000831604004    0.0000000000000000
   0.0000000000000000    0.0000000000000000    4.9873156547546387
S
8
direct
   0.6912066340446472    0.7538672089576721    0.7229833006858826 S
   0.2461327910423279    0.9373394250869751    0.7229833006858826 S
   0.9373394250869751    0.6912066340446472    0.7229833006858826 S
   0.3909573853015900    0.0930301770567894    0.2433853745460510 S
   0.9069698452949524    0.2979272007942200    0.2433853745460510 S
   0.2979272007942200    0.3909573853015900    0.2433853745460510 S
   0.5263397693634033    0.9030104279518127    0.9446626901626587 S
   0.6233293414115906    0.5263397693634033    0.9446626901626587 S
