Pb4 S12
1.0
   8.8717784881591797    0.0000000000000000    0.0000000000000000
   0.0000000000000000    8.3188428878784180    0.0000000000000000
   0.0000000000000000    0.0000000000000000    6.2806148529052734
Pb S
4 12
direct
   0.5176988840103149    0.3119654953479767    0.2880867719650269 Pb
   0.4823011159896851    0.6880345344543457    0.7880867719650269 Pb
   0.0176988840103149    0.8119654655456543    0.2880867719650269 Pb
   0.9823011159896851    0.1880345046520233    0.7880867719650269 Pb
   0.1040638685226440    0.3305223584175110    0.3477100431919098 S
   0.8959361314773560    0.6694776415824890    0.8477100133895874 S
   0.8959361314773560    0.3305223584175110    0.1522899568080902 S
   0.1040638685226440    0.6694776415824890    0.6522899866104126 S
   0.6040638685226440    0.8305223584175110    0.3477100431919098 S
   0.3959361314773560    0.1694776415824890    0.8477100133895874 S
   0.3959361314773560    0.8305223584175110    0.1522899568080902 S
   0.6040638685226440    0.1694776415824890    0.6522899866104126 S
   0.7830809950828552    0.0657055601477623    0.1437652856111526 S
   0.2169190049171448    0.9342944622039795    0.6437652707099915 S
   0.2830810546875000    0.5657055377960205    0.1437652856111526 S
   0.7169190049171448    0.4342944324016571    0.6437652707099915 S
