N6 O7
1.0
   6.4342088699340820    0.0000000000000000    0.0000000000000000
   0.0000000000000000    6.4342088699340820    0.0000000000000000
   0.0000000000000000    0.0000000000000000    6.4342088699340820
O N O
6 6 1
direct
   0.7446978688240051    0.6712886691093445    0.0334095396101475 O
   0.2553021311759949    0.3287113308906555    0.9665904641151428 O
   0.0334095396101475    0.7446978688240051    0.6712886691093445 O
   0.9665904641151428    0.2553021311759949    0.3287113308906555 O
   0.6712886691093445    0.0334095396101475    0.7446978688240051 O
   0.3287113308906555    0.9665904641151428    0.2553021311759949 O
   0.8790035843849182    0.3220337331295013    0.2960500717163086 N
   0.1209964156150818    0.6779662370681763    0.7039499282836914 N
   0.2960500717163086    0.8790035843849182    0.3220337331295013 N
   0.7039499282836914    0.1209964156150818    0.6779662370681763 N
   0.3220337331295013    0.2960500717163086    0.8790035843849182 N
   0.6779662370681763    0.7039499282836914    0.1209964156150818 N
   0.8144322633743286    0.5557692050933838    0.2182161957025528 O
