Sn2 Bi4 O10
1.0
   5.3034219741821289    0.0000000000000000    0.0000000000000000
   0.0000000000000000    4.1148328781127930    0.0000000000000000
   0.0000000000000000    0.0000000000000000   13.2522239685058594
O Bi Sn
10 4 2
direct
   0.7411170005798340    0.7416351437568665    0.6772219538688660 O
   0.2588829994201660    0.2583648562431335    0.6772219538688660 O
   0.2588829994201660    0.7416351437568665    0.8227780461311340 O
   0.7411170005798340    0.2583648562431335    0.8227780461311340 O
   0.2588829994201660    0.2583648562431335    0.3227780461311340 O
   0.7411170005798340    0.7416351437568665    0.3227780461311340 O
   0.7411170005798340    0.2583648562431335    0.1772220134735107 O
   0.2588829994201660    0.7416351437568665    0.1772220134735107 O
   0.7487597465515137    0.7519671320915222    0.9824638962745667 O
   0.2512402534484863    0.7519671320915222    0.5175361037254333 O
   0.6365023851394653    0.7675873041152954    0.1377832442522049 Bi
   0.3634976148605347    0.7675873041152954    0.3622167706489563 Bi
   0.3634976148605347    0.2324126958847046    0.8622167706489563 Bi
   0.6365023851394653    0.2324126958847046    0.6377832293510437 Bi
   0.0969972684979439    0.7436945438385010    0.6424800157546997 Sn
   0.9030027389526367    0.7436945438385010    0.8575199842453003 Sn
