Cl16
1.0
   8.6904325485229492    0.0000000000000000    0.0000000000000000
   0.0000000000000000    8.6904325485229492    0.0000000000000000
   0.0000000000000000    0.0000000000000000    8.6904325485229492
Cl
16
direct
   0.7308928370475769    0.7772436738014221    0.1292289197444916 Cl
   0.2691071629524231    0.2227563261985779    0.8707710504531860 Cl
   0.7772436738014221    0.2691071629524231    0.8707710504531860 Cl
   0.2227563261985779    0.7308928370475769    0.1292289197444916 Cl
   0.2227563261985779    0.7308928370475769    0.8707710504531860 Cl
   0.7772436738014221    0.2691071629524231    0.1292289197444916 Cl
   0.2691071629524231    0.2227563261985779    0.1292289197444916 Cl
   0.7308928370475769    0.7772436738014221    0.8707710504531860 Cl
   0.4727563261985779    0.4808928966522217    0.8792289495468140 Cl
   0.0272436141967773    0.0191071629524231    0.6207710504531860 Cl
   0.5191071629524231    0.9727563261985779    0.6207710504531860 Cl
   0.9808928370475769    0.5272436141967773    0.8792289495468140 Cl
   0.9808928370475769    0.5272436141967773    0.6207710504531860 Cl
   0.5191071629524231    0.9727563261985779    0.8792289495468140 Cl
   0.0272436141967773    0.0191071629524231    0.8792289495468140 Cl
   0.4727563261985779    0.4808928966522217    0.6207710504531860 Cl
