Li12 O2
1.0
   6.0927362442016602   -1.6325439214706421    0.0000000000000000
  -1.6325439214706421    6.0927362442016602    0.0000000000000000
   0.0000000000000000    0.0000000000000000    5.3313274383544922
Li O
12 2
direct
   0.1725610792636871    0.8384256958961487    0.4834453463554382 Li
   0.1615743041038513    0.3341354131698608    0.4834453463554382 Li
   0.6658645868301392    0.8274389505386353    0.4834453463554382 Li
   0.8274389505386353    0.1615743041038513    0.9834453463554382 Li
   0.8384256958961487    0.6658645868301392    0.9834453463554382 Li
   0.3341354131698608    0.1725610792636871    0.9834453463554382 Li
   0.1615743041038513    0.8274389505386353    0.9834453463554382 Li
   0.6658645868301392    0.8384256958961487    0.9834453463554382 Li
   0.1725610792636871    0.3341354131698608    0.9834453463554382 Li
   0.8384256958961487    0.1725610792636871    0.4834453463554382 Li
   0.3341354131698608    0.1615743041038513    0.4834453463554382 Li
   0.8274389505386353    0.6658645868301392    0.4834453463554382 Li
   0.0514461956918240    0.0268549993634224    0.2337232828140259 O
   0.0245911963284016    0.0514461956918240    0.7337232828140259 O
