Se2 I2 O4
1.0
   4.7577667698998791    0.0000010823762549   -0.4849874449467906
   0.0000009562978068    4.7062731696615963   -0.0000027967662145
  -0.3885569342170823   -0.0000022088442786    9.5467038890783886
I Se O
2 2 4
direct
   0.7506116071287584    0.0966327418646349    0.5000923659779729 I
   0.2493882541719756    0.5966327654564479    0.4999074404976769 I
   0.2443235755519328    0.2418130005917687    0.0420290812872706 Se
   0.7556776666543124    0.7418155117825712    0.9579617328461548 Se
   0.6054809503674077    0.5854709598036486    0.0844222812584216 O
   0.3945167915486246    0.0854737740146551    0.9155844698684616 O
  -0.0264450062685811    0.9692081639567682    0.0786539117231013 O
   1.0264462920636614    0.4692068216771215    0.9213486469576947 O
