Nd4 C4 O8
1.0
   7.0963182449340820    0.0000000000000000   -1.1631813049316406
   0.0000000000000000    5.0737628936767578    0.0000000000000000
  -1.1631813049316406    0.0000000000000000    6.8066191673278809
Nd O C
4 8 4
direct
   0.2529098391532898    0.2482857257127762    0.0121845658868551 Nd
   0.7470901608467102    0.2482857257127762    0.4878154397010803 Nd
   0.7470901608467102    0.7517142891883850    0.9878154397010803 Nd
   0.2529098391532898    0.7517142891883850    0.5121845602989197 Nd
   0.6413605809211731    0.7472399473190308    0.6082456111907959 O
   0.3586394190788269    0.7472399473190308    0.8917543888092041 O
   0.3586394190788269    0.2527600526809692    0.3917543888092041 O
   0.6413605809211731    0.2527600526809692    0.1082456111907959 O
   0.1413605213165283    0.2472399473190308    0.6082456111907959 O
   0.8586394190788269    0.2472399473190308    0.8917543888092041 O
   0.8586394190788269    0.7527600526809692    0.3917543888092041 O
   0.1413605213165283    0.7527600526809692    0.1082456111907959 O
   0.7543703317642212    0.7429735064506531    0.5118249058723450 C
   0.2456296682357788    0.7429735064506531    0.9881750941276550 C
   0.2543703317642212    0.2429735660552979    0.5118249058723450 C
   0.7456296682357788    0.2429735660552979    0.9881750941276550 C
