Re2 Br2 Cl8
1.0
   8.0311651229858398    0.0000000000000000    0.0000000000000000
   0.0000000000000000    8.0311651229858398    0.0000000000000000
   0.0000000000000000    0.0000000000000000    6.0304536819458008
Cl Br Re
8 2 2
direct
   0.8207263946533203    0.5969825387001038    0.5283910036087036 Cl
   0.1792736053466797    0.4030174612998962    0.5283910036087036 Cl
   0.4030174612998962    0.8207263946533203    0.5283910036087036 Cl
   0.5969825387001038    0.1792736053466797    0.5283910036087036 Cl
   0.3207263946533203    0.0969824790954590    0.0283910036087036 Cl
   0.6792736053466797    0.9030174612998962    0.0283910036087036 Cl
   0.9030174612998962    0.3207263946533203    0.0283910036087036 Cl
   0.0969824790954590    0.6792736053466797    0.0283910036087036 Cl
   0.5925202965736389    0.4966432452201843    0.0179585088044405 Br
   0.0925202369689941    0.9966432452201843    0.5179585218429565 Br
   0.7875935435295105    0.5926599502563477    0.9415144920349121 Re
   0.2875936031341553    0.0926599502563477    0.4415144920349121 Re
