Al4 S8
1.0
   5.2161121368408203    0.0000000000000000    0.0000000000000000
   0.0000000000000000    5.2161121368408203    0.0000000000000000
   0.0000000000000000    0.0000000000000000   10.7014026641845703
S Al
8 4
direct
   0.7576502561569214    0.7467703819274902    0.3665903508663177 S
   0.2423497438430786    0.2532296180725098    0.3665903508663177 S
   0.7467703819274902    0.2423497438430786    0.6334096193313599 S
   0.2532296180725098    0.7576502561569214    0.6334096193313599 S
   0.2576502561569214    0.2467703819274902    0.8665903806686401 S
   0.7423497438430786    0.7532296180725098    0.8665903806686401 S
   0.2467703819274902    0.7423497438430786    0.1334096491336823 S
   0.7532296180725098    0.2576502561569214    0.1334096491336823 S
   0.0023717917501926    0.9980359077453613    0.2490821629762650 Al
   0.9980359077453613    0.9976282119750977    0.7509178519248962 Al
   0.5023717880249023    0.4980359077453613    0.7490821480751038 Al
   0.4980359077453613    0.4976282119750977    0.2509178519248962 Al
