Sr8 Cl8
1.0
   8.5917787551879883    0.0000000000000000    0.0000000000000000
   0.0000000000000000    8.5917787551879883    0.0000000000000000
   0.0000000000000000    0.0000000000000000    8.0151548385620117
Sr Cl
8 8
direct
   0.8483836650848389    0.3442836403846741    0.9529382586479187 Sr
   0.1516163349151611    0.6557163596153259    0.9529382586479187 Sr
   0.6557163596153259    0.8483836650848389    0.9529382586479187 Sr
   0.3442836403846741    0.1516163349151611    0.9529382586479187 Sr
   0.3483836650848389    0.1557163596153259    0.4529383182525635 Sr
   0.6516163349151611    0.8442836403846741    0.4529383182525635 Sr
   0.1557163596153259    0.6516163349151611    0.4529383182525635 Sr
   0.8442836403846741    0.3483836650848389    0.4529383182525635 Sr
   0.6470416188240051    0.1463196575641632    0.1982373446226120 Cl
   0.3529583811759949    0.8536803722381592    0.1982373446226120 Cl
   0.8536803722381592    0.6470416188240051    0.1982373446226120 Cl
   0.1463196575641632    0.3529583811759949    0.1982373446226120 Cl
   0.1470415592193604    0.3536803424358368    0.6982373595237732 Cl
   0.8529583811759949    0.6463196277618408    0.6982373595237732 Cl
   0.3536803424358368    0.8529583811759949    0.6982373595237732 Cl
   0.6463196277618408    0.1470415592193604    0.6982373595237732 Cl
