Ba2 F8
1.0
   5.7603425979614258    0.0000000000000000    0.0000000000000000
   0.0000000000000000    5.7603425979614258    0.0000000000000000
   0.0000000000000000    0.0000000000000000    5.7603425979614258
F Ba
8 2
direct
   0.4353014230728149    0.5703411102294922    0.9877545237541199 F
   0.0646985769271851    0.9296588897705078    0.9877545237541199 F
   0.9296588897705078    0.4353014230728149    0.5122454762458801 F
   0.5703411102294922    0.0646985769271851    0.5122454762458801 F
   0.4353014230728149    0.5703411102294922    0.5122454762458801 F
   0.0646985769271851    0.9296588897705078    0.5122454762458801 F
   0.5703411102294922    0.0646985769271851    0.9877545237541199 F
   0.9296588897705078    0.4353014230728149    0.9877545237541199 F
   0.7079875469207764    0.7789227366447449    0.2567940652370453 Ba
   0.2079875469207764    0.2789227962493896    0.7567940950393677 Ba
