Cd4 As4 Pb4
1.0
   4.4919352531433105    0.0000000000000000    0.0000000000000000
   0.0000000000000000    6.4489064216613770    0.0000000000000000
   0.0000000000000000    0.0000000000000000   11.5168409347534180
Cd As Pb
4 4 4
direct
   0.7433756589889526    0.4132511615753174    0.9797168970108032 Cd
   0.7566243410110474    0.5867488384246826    0.4797168970108032 Cd
   0.2566243410110474    0.9132511615753174    0.5202831029891968 Cd
   0.2433756589889526    0.0867488384246826    0.0202831029891968 Cd
   0.2533799111843109    0.4144386351108551    0.3914427459239960 As
   0.2466200888156891    0.5855613946914673    0.8914427757263184 As
   0.7466200590133667    0.9144386053085327    0.1085572540760040 As
   0.7533799409866333    0.0855613648891449    0.6085572242736816 As
   0.7471913695335388    0.8414322733879089    0.8085405826568604 Pb
   0.7528086304664612    0.1585677266120911    0.3085405826568604 Pb
   0.2528086304664612    0.3414323329925537    0.6914594173431396 Pb
   0.2471914291381836    0.6585677266120911    0.1914594173431396 Pb
