H4 O8
1.0
   4.5292024612426758    0.0000000000000000    0.0000000000000000
   0.0000000000000000    5.6004090309143066    0.0000000000000000
   0.0000000000000000    0.0000000000000000    5.8882145881652832
H O
4 8
direct
   0.7141067981719971    0.7950730323791504    0.1467618346214294 H
   0.2858932018280029    0.2049269676208496    0.1467618346214294 H
   0.7141067981719971    0.2049269676208496    0.6467618346214294 H
   0.2858932018280029    0.7950730323791504    0.6467618346214294 H
   0.1351034343242645    0.8611505031585693    0.7142354249954224 O
   0.1351034343242645    0.1388494968414307    0.2142354249954224 O
   0.7400487661361694    0.6725078225135803    0.9966933131217957 O
   0.2599512338638306    0.3274921774864197    0.9966933131217957 O
   0.7400487661361694    0.3274921774864197    0.4966933429241180 O
   0.2599512338638306    0.6725078225135803    0.4966933429241180 O
   0.6184458732604980    0.8860967159271240    0.2466847002506256 O
   0.6184458732604980    0.1139032840728760    0.7466846704483032 O
