Zr2 Be4
1.0
   4.5775928497314453    0.0000000000000000    0.0000000000000000
   0.0000000000000000    4.5775928497314453    0.0000000000000000
   0.0000000000000000    0.0000000000000000    4.2938580513000488
Be Zr
4 2
direct
   0.7516151070594788    0.2589140832424164    0.5096715092658997 Be
   0.2483848929405212    0.7410858869552612    0.5096715092658997 Be
   0.7410858869552612    0.7516151070594788    0.5096715092658997 Be
   0.2589140832424164    0.2483848929405212    0.5096715092658997 Be
   0.0061963233165443    0.5046738982200623    0.0097569944337010 Zr
   0.4953261017799377    0.0061963233165443    0.0097569944337010 Zr
