S12
1.0
   8.1930484771728516   -2.1953206062316895    0.0000000000000000
  -2.1953206062316895    8.1930484771728516    0.0000000000000000
   0.0000000000000000    0.0000000000000000    8.5803079605102539
S
12
direct
   0.9553849101066589    0.6185449957847595    0.9403652548789978 S
   0.3814550042152405    0.3368399143218994    0.2736985683441162 S
   0.6631600856781006    0.0446150898933411    0.6070319414138794 S
   0.0446150898933411    0.3814550042152405    0.4403653144836426 S
   0.6185449957847595    0.6631600856781006    0.7736985683441162 S
   0.3368399143218994    0.9553849101066589    0.1070319414138794 S
   0.6185449957847595    0.9553849101066589    0.3929680585861206 S
   0.3368399143218994    0.3814550042152405    0.0596347451210022 S
   0.0446150898933411    0.6631600856781006    0.7263014316558838 S
   0.3814550042152405    0.0446150898933411    0.8929680585861206 S
   0.6631600856781006    0.6185449957847595    0.5596347451210022 S
   0.9553849101066589    0.3368399143218994    0.2263014316558838 S
