Al1 Ge2 As1 O9
1.0
   6.2127838134765625   -1.6647105216979980    0.0000000000000000
  -1.6647105216979980    6.2127838134765625    0.0000000000000000
   0.0000000000000000    0.0000000000000000    5.4755244255065918
Ge As O Al
2 1 9 1
direct
   0.6454532146453857    0.2862788438796997    0.4023278653621674 Ge
   0.3545467853546143    0.7137211561203003    0.5976721048355103 Ge
   0.3774734139442444    0.5660112500190735    0.0345138125121593 As
   0.5576806068420410    0.7154491543769836    0.9172737598419189 O
   0.2845508456230164    0.8422314524650574    0.9172737598419189 O
   0.1577685475349426    0.4423193931579590    0.0827262401580811 O
   0.4423193931579590    0.2845508456230164    0.0827262401580811 O
   0.7154491543769836    0.1577685475349426    0.0827262401580811 O
   0.8422314524650574    0.5576806068420410    0.9172737598419189 O
   0.4730483889579773    0.4700965881347656    0.5247021317481995 O
   0.5299034118652344    0.0029518008232117    0.5247021317481995 O
   0.0029518008232117    0.4730483889579773    0.5247021317481995 O
   0.4997108578681946    0.0475808680057526    0.9701170921325684 Al
