K4 As4 O8
1.0
   6.7766361236572266    0.0000000000000000    0.0000000000000000
   0.0000000000000000    6.7766361236572266    0.0000000000000000
   0.0000000000000000    0.0000000000000000    7.0686874389648438
K As O As
4 2 8 2
direct
   0.2455594092607498    0.2479548156261444    0.5025753378868103 K
   0.7520451545715332    0.2455594092607498    0.5025753378868103 K
   0.2479548156261444    0.7544406056404114    0.9974246621131897 K
   0.7544406056404114    0.7520451545715332    0.9974246621131897 K
   0.4606585204601288    0.1495931446552277    0.0579173117876053 As
   0.9606585502624512    0.6495931148529053    0.5579172968864441 As
   0.3935351371765137    0.8718900680541992    0.1780858784914017 O
   0.6064648628234863    0.1281099319458008    0.3219141364097595 O
   0.1281099319458008    0.3935351371765137    0.1780858784914017 O
   0.8718900680541992    0.6064648628234863    0.3219141364097595 O
   0.8718900680541992    0.3935351371765137    0.6780858635902405 O
   0.1281099319458008    0.6064648628234863    0.8219141364097595 O
   0.6064648628234863    0.8718900680541992    0.6780858635902405 O
   0.3935351371765137    0.1281099319458008    0.8219141364097595 O
   0.5393414497375488    0.8504068851470947    0.4420827031135559 As
   0.0393414795398712    0.3504068553447723    0.9420827031135559 As
