Li2 Ni2 O6
1.0
   4.5783429145812988    0.0000000000000000    0.0000000000000000
   0.0000000000000000    4.5783429145812988    0.0000000000000000
   0.0000000000000000    0.0000000000000000    5.1359553337097168
O Li O Ni
2 2 4 2
direct
   0.2510834336280823    0.1215557828545570    0.9865286946296692 O
   0.7510834336280823    0.3784442245960236    0.0134713053703308 O
   0.0947877764701843    0.7517108917236328    0.7513700723648071 Li
   0.5947877764701843    0.7482891082763672    0.2486299276351929 Li
   0.8974087834358215    0.1046261861920357    0.4814133346080780 O
   0.3953738212585449    0.3974087238311768    0.4814133346080780 O
   0.0984787419438362    0.6548647880554199    0.1911577582359314 O
   0.5984787344932556    0.8451352119445801    0.8088422417640686 O
   0.5858055353164673    0.2148647308349609    0.7526700496673584 Ni
   0.0858055353164673    0.2851352691650391    0.2473299503326416 Ni
