Br8
1.0
   7.1748409271240234    0.0000000000000000    0.0000000000000000
   0.0000000000000000    7.1748409271240234    0.0000000000000000
   0.0000000000000000    0.0000000000000000    6.5928950309753418
Br
8
direct
   0.0697071030735970    0.5938035249710083    0.7444356083869934 Br
   0.4302929043769836    0.9061964750289917    0.7444356083869934 Br
   0.9061964750289917    0.0697071030735970    0.7444356083869934 Br
   0.5938035249710083    0.4302929043769836    0.7444356083869934 Br
   0.9302929043769836    0.0938035249710083    0.2555643916130066 Br
   0.5697070956230164    0.4061964750289917    0.2555643916130066 Br
   0.0938035249710083    0.5697070956230164    0.2555643916130066 Br
   0.4061964750289917    0.9302929043769836    0.2555643916130066 Br
