Ta2 O6
1.0
   5.3413686752319336    0.0000000000000000    0.0782272219657898
   0.0000000000000000    5.4654660224914551    0.0000000000000000
   0.0782272219657898    0.0000000000000000    4.3652720451354980
O Ta
6 2
direct
   0.7334384322166443    0.1213237866759300    0.0115643683820963 O
   0.2665615677833557    0.6213237643241882    0.9884356260299683 O
   0.0188973676413298    0.3224327862262726    0.4999997317790985 O
   0.9811026453971863    0.8224327564239502    0.5000002384185791 O
   0.4852162897586823    0.8600665926933289    0.5055645704269409 O
   0.5147837400436401    0.3600666522979736    0.4944354295730591 O
   0.7495575547218323    0.0884800702333450    0.4921437203884125 Ta
   0.2504424452781677    0.5884800553321838    0.5078562498092651 Ta
