Fe4 B4 O8
1.0
   4.9758663177490234    0.0000000000000000    0.0000000000000000
   0.0000000000000000    4.9758663177490234    0.0000000000000000
   0.0000000000000000    0.0000000000000000    6.8307161331176758
O B Fe
8 4 4
direct
   0.3070702254772186    0.6755611896514893    0.0454907678067684 O
   0.6929297447204590    0.3244388103485107    0.5454907417297363 O
   0.3244388103485107    0.3070702254772186    0.2954907715320587 O
   0.6755611896514893    0.6929297447204590    0.7954907417297363 O
   0.3417476117610931    0.0423588529229164    0.7896205782890320 O
   0.6582523584365845    0.9576411247253418    0.2896206378936768 O
   0.9576411247253418    0.3417476117610931    0.0396206378936768 O
   0.0423588529229164    0.6582523584365845    0.5396206378936768 O
   0.4247862994670868    0.8076368570327759    0.8598858714103699 B
   0.5752136707305908    0.1923631429672241    0.3598859310150146 B
   0.1923631429672241    0.4247862994670868    0.1098859310150146 B
   0.8076368570327759    0.5752136707305908    0.6098859310150146 B
   0.3201825618743896    0.7975003123283386    0.3033642172813416 Fe
   0.6798174381256104    0.2024996876716614    0.8033642172813416 Fe
   0.2024996876716614    0.3201825618743896    0.5533642172813416 Fe
   0.7975003123283386    0.6798174381256104    0.0533642768859863 Fe
