Fe2 Re8 O8
1.0
   5.7550425529479980    0.0000000000000000    0.0000000000000000
   0.0000000000000000    5.7550425529479980    0.0000000000000000
   0.0000000000000000    0.0000000000000000    8.8676042556762695
O Re Fe
8 8 2
direct
   0.2799709737300873    0.7514435648918152    0.6938325762748718 O
   0.7200289964675903    0.2485564351081848    0.6938325762748718 O
   0.2485564351081848    0.2799709737300873    0.1938326358795166 O
   0.7514435648918152    0.7200289964675903    0.1938326358795166 O
   0.7200289964675903    0.2485564351081848    0.3061674237251282 O
   0.2799709737300873    0.7514435648918152    0.3061674237251282 O
   0.7514435648918152    0.7200289964675903    0.8061674237251282 O
   0.2485564351081848    0.2799709737300873    0.8061674237251282 O
   0.3824291527271271    0.1208445429801941    0.6186400055885315 Re
   0.6175708770751953    0.8791554570198059    0.6186400055885315 Re
   0.8791554570198059    0.3824291527271271    0.1186399459838867 Re
   0.1208445429801941    0.6175708770751953    0.1186399459838867 Re
   0.6175708770751953    0.8791554570198059    0.3813599944114685 Re
   0.3824291527271271    0.1208445429801941    0.3813599944114685 Re
   0.1208445429801941    0.6175708770751953    0.8813599944114685 Re
   0.8791554570198059    0.3824291527271271    0.8813599944114685 Re
   0.5658252239227295    0.3422698974609375    0.2637111842632294 Fe
   0.4341747760772705    0.6577301025390625    0.7362887859344482 Fe
