Li1 Yb1 F6
1.0
   5.0232152938842773   -1.3459664583206177    0.0000000000000000
  -1.3459664583206177    5.0232152938842773    0.0000000000000000
   0.0000000000000000    0.0000000000000000    5.2668762207031250
F Yb Li
6 1 1
direct
   0.9545470476150513    0.2920760810375214    0.2407728731632233 F
   0.7079238891601562    0.6624709367752075    0.2407728731632233 F
   0.3375290632247925    0.0454529523849487    0.2407728731632233 F
   0.2920760810375214    0.9545470476150513    0.7592271566390991 F
   0.6624709367752075    0.7079238891601562    0.7592271566390991 F
   0.0454529523849487    0.3375290632247925    0.7592271566390991 F
   0.9932126998901367    0.9978635907173157    0.9995867013931274 Yb
   0.7107922434806824    0.3024053871631622    0.4593432545661926 Li
