Li8 Fe2 N8
1.0
   6.0242953300476074    0.0000000000000000    0.0000000000000000
   0.0000000000000000    6.0242953300476074    0.0000000000000000
   0.0000000000000000    0.0000000000000000    5.3520174026489258
Fe Li N
2 8 8
direct
   0.9700314998626709    0.5094736218452454    0.2489946484565735 Fe
   0.4700314998626709    0.0094735622406006    0.7489946484565735 Fe
   0.3470974862575531    0.8083942532539368    0.3780491054058075 Li
   0.6529024839401245    0.1916057467460632    0.3780491054058075 Li
   0.8083942532539368    0.6529024839401245    0.6219508647918701 Li
   0.1916057467460632    0.3470974862575531    0.6219508647918701 Li
   0.8470975160598755    0.3083941936492920    0.8780491352081299 Li
   0.1529025137424469    0.6916057467460632    0.8780491352081299 Li
   0.3083941936492920    0.1529025137424469    0.1219508945941925 Li
   0.6916057467460632    0.8470975160598755    0.1219508945941925 Li
   0.8548458218574524    0.6266034841537476    0.0177871398627758 N
   0.1451541781425476    0.3733965158462524    0.0177871398627758 N
   0.6266034841537476    0.1451541781425476    0.9822128415107727 N
   0.3733965158462524    0.8548458218574524    0.9822128415107727 N
   0.3548457622528076    0.1266034841537476    0.5177871584892273 N
   0.6451541781425476    0.8733965158462524    0.5177871584892273 N
   0.1266034841537476    0.6451541781425476    0.4822128713130951 N
   0.8733965158462524    0.3548457622528076    0.4822128713130951 N
