Li2 Ge2 P2 I2 O12
1.0
   6.1662211418151855    0.0000000000000000    0.0000000000000000
   0.0000000000000000    6.1662211418151855    0.0000000000000000
   0.0000000000000000    0.0000000000000000    9.0334701538085938
O P I Ge O Li O
4 2 2 2 6 2 2
direct
   0.3157412111759186    0.8126088976860046    0.4612213671207428 O
   0.6842588186264038    0.1873911023139954    0.4612213671207428 O
   0.1873911023139954    0.3157412111759186    0.4612213671207428 O
   0.8126088976860046    0.6842588186264038    0.4612213671207428 O
   0.4876606166362762    0.9725903272628784    0.9591998457908630 P
   0.0274096727371216    0.4876606166362762    0.9591998457908630 P
   0.4550542235374451    0.9309100508689880    0.3594473898410797 I
   0.0690899491310120    0.4550542235374451    0.3594473898410797 I
   0.7317791581153870    0.2295802533626556    0.6996952295303345 Ge
   0.7704197168350220    0.7317791581153870    0.6996952295303345 Ge
   0.5961926579475403    0.4877760112285614    0.6913537383079529 O
   0.9038073420524597    0.9877760410308838    0.6913537383079529 O
   0.6658377647399902    0.1613615304231644    0.8984674811363220 O
   0.3341622352600098    0.8386384844779968    0.8984674811363220 O
   0.8386384844779968    0.6658377647399902    0.8984674811363220 O
   0.1613615304231644    0.3341622352600098    0.8984674811363220 O
   0.7073523402214050    0.2523141801357269    0.1774298846721649 Li
   0.7476857900619507    0.7073523402214050    0.1774298846721649 Li
   0.5185300111770630    0.9694231152534485    0.1436476409435272 O
   0.0305768847465515    0.5185300111770630    0.1436476409435272 O
