I6
1.0
   6.5144405364990234   -1.7455389499664307    0.0000000000000000
  -1.7455389499664307    6.5144405364990234    0.0000000000000000
   0.0000000000000000    0.0000000000000000    6.6582398414611816
I
6
direct
   0.8036475181579590    0.0480584427714348    0.4007896184921265 I
   0.1963524818420410    0.9519415497779846    0.5992103815078735 I
   0.4703142642974854    0.3813917934894562    0.7341229915618896 I
   0.8630191683769226    0.2852748930454254    0.9325437545776367 I
   0.1369808912277222    0.7147251367568970    0.0674562454223633 I
   0.5296858549118042    0.6186082363128662    0.2658770680427551 I
