Cd2 S4
1.0
   4.2390003204345703   -1.1358366012573242    0.0000000000000000
  -1.1358366012573242    4.2390003204345703    0.0000000000000000
   0.0000000000000000    0.0000000000000000    9.6220474243164062
Cd S
2 4
direct
   0.3895843327045441    0.7935326695442200    0.9930694699287415 Cd
   0.3895843327045441    0.7935326695442200    0.4930694103240967 Cd
   0.1933362782001495    0.1475066393613815    0.6383421421051025 S
   0.8066637516021729    0.8524933457374573    0.8616578578948975 S
   0.8066637516021729    0.8524933457374573    0.3616578578948975 S
   0.1933362782001495    0.1475066393613815    0.1383421421051025 S
