Te2 O4
1.0
   4.3550844192504883    0.0000000000000000    0.0000000000000000
   0.0000000000000000    5.2463483810424805    0.0000000000000000
   0.0000000000000000    0.0000000000000000    5.1879720687866211
O Te
4 2
direct
   0.2355618774890900    0.2464753240346909    0.3035595715045929 O
   0.7644381523132324    0.2464753240346909    0.6964404582977295 O
   0.7644381523132324    0.7535246610641479    0.6964404582977295 O
   0.2355618774890900    0.7535246610641479    0.3035595715045929 O
   0.9995632171630859    0.9901236891746521    0.4976428151130676 Te
   0.4995632171630859    0.4901237487792969    0.4976428151130676 Te
