Li4 S8
1.0
   9.4271640777587891    0.0000000000000000    0.0000000000000000
   0.0000000000000000    5.6392469406127930    0.0000000000000000
   0.0000000000000000    0.0000000000000000    5.1798238754272461
S Li
8 4
direct
   0.3623533248901367    0.2408145517110825    0.2644006311893463 S
   0.8623533248901367    0.2408145517110825    0.7644006013870239 S
   0.8623533248901367    0.7591854333877563    0.2355993688106537 S
   0.3623533248901367    0.7591854333877563    0.7355993986129761 S
   0.6376466751098633    0.7591854333877563    0.7355993986129761 S
   0.1376466751098633    0.7591854333877563    0.2355993688106537 S
   0.1376466751098633    0.2408145517110825    0.7644006013870239 S
   0.6376466751098633    0.2408145517110825    0.2644006311893463 S
   0.8775736093521118    0.0321558304131031    0.4920544028282166 Li
   0.8775736093521118    0.5321558117866516    0.9920544028282166 Li
   0.3775736093521118    0.5321558117866516    0.4920544028282166 Li
   0.3775736093521118    0.0321558304131031    0.9920544028282166 Li
