O12
1.0
   6.3365278244018555    0.0000000000000000    0.0000000000000000
   0.0000000000000000    6.3365278244018555    0.0000000000000000
   0.0000000000000000    0.0000000000000000    6.3365278244018555
O
12
direct
   0.2116772979497910    0.3602035045623779    0.3340408504009247 O
   0.2883226871490479    0.6397964954376221    0.8340408802032471 O
   0.7883226871490479    0.8602035045623779    0.1659591495990753 O
   0.7116773128509521    0.1397964954376221    0.6659591197967529 O
   0.6102035045623779    0.0383227020502090    0.0840408802032471 O
   0.1102035045623779    0.4616773128509521    0.9159591197967529 O
   0.8897964954376221    0.9616773128509521    0.5840408802032471 O
   0.3897964954376221    0.5383226871490479    0.4159591495990753 O
   0.0840408802032471    0.6102035045623779    0.0383227020502090 O
   0.9159591197967529    0.1102035045623779    0.4616773128509521 O
   0.5840408802032471    0.8897964954376221    0.9616773128509521 O
   0.4159591495990753    0.3897964954376221    0.5383226871490479 O
