Pb2 O8
1.0
   4.3107852935791016    0.0000000000000000    0.0000000000000000
   0.0000000000000000    4.3107852935791016    0.0000000000000000
   0.0000000000000000    0.0000000000000000    8.5712900161743164
O Pb
8 2
direct
   0.0368767678737640    0.9359456896781921    0.1266397833824158 O
   0.4631232321262360    0.5640543103218079    0.1266397833824158 O
   0.0640543103218079    0.5368767976760864    0.6266397833824158 O
   0.4359457492828369    0.9631232023239136    0.6266397833824158 O
   0.9631232023239136    0.0640543103218079    0.8733602166175842 O
   0.5368767976760864    0.4359457492828369    0.8733602166175842 O
   0.9359456896781921    0.4631232321262360    0.3733602166175842 O
   0.5640543103218079    0.0368767678737640    0.3733602166175842 O
   0.4616785943508148    0.9550276398658752    0.9576324820518494 Pb
   0.0449723601341248    0.9616786241531372    0.4576325416564941 Pb
