Se8
1.0
   6.4829044342041016    0.0000000000000000    0.0000000000000000
   0.0000000000000000    6.4829044342041016    0.0000000000000000
   0.0000000000000000    0.0000000000000000    6.4829044342041016
Se
8
direct
   0.6654542684555054    0.8626677989959717    0.3593661785125732 Se
   0.3345457315444946    0.1373322010040283    0.3593661785125732 Se
   0.1373322010040283    0.6654542684555054    0.6406338214874268 Se
   0.8626677989959717    0.3345457315444946    0.6406338214874268 Se
   0.1654542684555054    0.3626677989959717    0.8593661785125732 Se
   0.8345457315444946    0.6373322010040283    0.8593661785125732 Se
   0.3626677989959717    0.8345457315444946    0.1406338214874268 Se
   0.6373322010040283    0.1654542684555054    0.1406338214874268 Se
