Ti2 O4
1.0
   4.0676832199096680    0.0000000000000000    0.0000000000000000
   0.0000000000000000    4.0676832199096680    0.0000000000000000
   0.0000000000000000    0.0000000000000000    5.3829941749572754
Ti O
2 4
direct
   0.2575043439865112    0.2580853700637817    0.0127322515472770 Ti
   0.7575043439865112    0.7580853700637817    0.5127322673797607 Ti
   0.5016396641731262    0.9988278746604919    0.2518283426761627 O
   0.0011721253395081    0.5016396641731262    0.2518283426761627 O
   0.9988278746604919    0.4983603358268738    0.7481716871261597 O
   0.4983603358268738    0.0011721253395081    0.7481716871261597 O
