Na2 Mg2 O4
1.0
   4.5415992736816406    0.0000000000000000    0.0000000000000000
   0.0000000000000000    4.5415992736816406    0.0000000000000000
   0.0000000000000000    0.0000000000000000    5.7496604919433594
Na O Mg
2 4 2
direct
   0.0183533094823360    0.0280220583081245    0.4964902102947235 Na
   0.5183532834053040    0.5280220508575439    0.4964902102947235 Na
   0.7141275405883789    0.7633230090141296    0.2151004970073700 O
   0.7858724594116211    0.7366769909858704    0.7848994731903076 O
   0.2633230686187744    0.2858724594116211    0.7848994731903076 O
   0.2366769909858704    0.2141275405883789    0.2151004970073700 O
   0.5131022334098816    0.0215891599655151    0.0100534269586205 Mg
   0.0131022930145264    0.5215891599655151    0.0100534269586205 Mg
