Nd4 C4 O8                               
   1.00000000000000     
     7.4447701192673508    0.0000042450242162   -1.7900976199736698
     0.0000022261971785    5.1545226705651856   -0.0000034572849974
    -1.7802578017027293   -0.0000052543020224    7.0880507223764688
   Nd   C    O 
     4     4     8
Direct
  0.2302904672986740  0.2391134915001334 -0.0308055904065485
  0.7697093678071198  0.2391127575448816  0.5308044457377709
  0.7317162814891396  0.7400365159405765  0.9597493028231783
  0.2682847895291948  0.7400374683205695  0.5402519430891946
  0.8334564383272849  0.7184737496532512  0.5176353849665954
  0.1665406063761753  0.7184754424399047  0.9823601800467711
  0.3335053243028396  0.2187973520959362  0.5229863077512349
  0.6664950336439591  0.2187998264651671  0.9770171712854765
  0.5732674668759397  0.7635421588419251  0.6203037067248598
  0.4267326258328848  0.7635416098842849  0.8796993379125769
  0.3481723421626384  0.2717344163362012  0.3610782926203690
  0.6518264940678133  0.2717326157301087  0.1389208476398430
  0.0741895937639544  0.2637913452277404  0.6210904642673489
  0.9258108482350387  0.2637910231368359  0.8789074988802723
  0.8484472054809915  0.7704581382671132  0.3565807618784685
  0.1515549955970629  0.7704562634295949  0.1434199503705242
 
  0.00000000E+00  0.00000000E+00  0.00000000E+00
  0.00000000E+00  0.00000000E+00  0.00000000E+00
  0.00000000E+00  0.00000000E+00  0.00000000E+00
  0.00000000E+00  0.00000000E+00  0.00000000E+00
  0.00000000E+00  0.00000000E+00  0.00000000E+00
  0.00000000E+00  0.00000000E+00  0.00000000E+00
  0.00000000E+00  0.00000000E+00  0.00000000E+00
  0.00000000E+00  0.00000000E+00  0.00000000E+00
  0.00000000E+00  0.00000000E+00  0.00000000E+00
  0.00000000E+00  0.00000000E+00  0.00000000E+00
  0.00000000E+00  0.00000000E+00  0.00000000E+00
  0.00000000E+00  0.00000000E+00  0.00000000E+00
  0.00000000E+00  0.00000000E+00  0.00000000E+00
  0.00000000E+00  0.00000000E+00  0.00000000E+00
  0.00000000E+00  0.00000000E+00  0.00000000E+00
  0.00000000E+00  0.00000000E+00  0.00000000E+00
