unknown system                          
           1
     7.096318    0.000000   -1.163181
     0.000000    5.073763    0.000000
    -1.163181    0.000000    6.806619
   Nd   C    O 
     4     4     8
Direct configuration=     1
   0.25290984  0.24828573  0.01218457
   0.74709016  0.24828573  0.48781544
   0.74709016  0.75171429  0.98781544
   0.25290984  0.75171429  0.51218456
   0.75437033  0.74297351  0.51182491
   0.24562967  0.74297351  0.98817509
   0.25437033  0.24297357  0.51182491
   0.74562967  0.24297357  0.98817509
   0.64136058  0.74723995  0.60824561
   0.35863942  0.74723995  0.89175439
   0.35863942  0.25276005  0.39175439
   0.64136058  0.25276005  0.10824561
   0.14136052  0.24723995  0.60824561
   0.85863942  0.24723995  0.89175439
   0.85863942  0.75276005  0.39175439
   0.14136052  0.75276005  0.10824561
unknown system                          
           1
     7.388413    0.000001   -1.476754
     0.000001    5.143596    0.000000
    -1.463480   -0.000000    7.101597
   Nd   C    O 
     4     4     8
Direct configuration=     2
   0.25228087  0.24904920  0.01005422
   0.74771900  0.24904910  0.48994560
   0.74786750  0.75220212  0.98932055
   0.25213269  0.75220205  0.51067983
   0.77735781  0.73307088  0.51176167
   0.22264095  0.73307107  0.98823660
   0.27695125  0.23273429  0.51296966
   0.72304883  0.23273397  0.98703087
   0.61629163  0.75190378  0.61865075
   0.38370919  0.75190369  0.88134952
   0.36112176  0.25766514  0.38037813
   0.63887802  0.25766530  0.11962206
   0.11659806  0.25229135  0.61953454
   0.88340205  0.25229147  0.88046475
   0.86091222  0.75703043  0.37908347
   0.13908805  0.75703033  0.12091778
unknown system                          
           1
     7.450857    0.000002   -1.543789
     0.000001    5.158524    0.000000
    -1.527678   -0.000000    7.164657
   Nd   C    O 
     4     4     8
Direct configuration=     3
   0.25213533  0.24921020  0.00960948
   0.74786452  0.24921008  0.49039031
   0.74803922  0.75230499  0.98963743
   0.25196102  0.75230491  0.51036302
   0.78211377  0.73098265  0.51193279
   0.21788472  0.73098289  0.98806511
   0.28163182  0.23057508  0.51338686
   0.71836829  0.23057469  0.98661378
   0.61117973  0.75288727  0.62059754
   0.38882125  0.75288716  0.87940280
   0.36155316  0.25869951  0.37804995
   0.63844657  0.25869970  0.12195028
   0.11155597  0.25335657  0.62166620
   0.88844417  0.25335671  0.87833296
   0.86129091  0.75793095  0.37648639
   0.13870943  0.75793083  0.12351512
unknown system                          
           1
     7.575744    0.000002   -1.677859
     0.000002    5.188382    0.000000
    -1.656072   -0.000000    7.290777
   Nd   C    O 
     4     4     8
Direct configuration=     4
   0.25183987  0.24953126  0.00872415
   0.74815991  0.24953110  0.49127556
   0.74838486  0.75251014  0.99026931
   0.25161547  0.75251003  0.50973131
   0.79156382  0.72681829  0.51234769
   0.20843414  0.72681862  0.98764948
   0.29093561  0.22626915  0.51428913
   0.70906454  0.22626863  0.98571173
   0.60105282  0.75484855  0.62438205
   0.39894851  0.75484840  0.87561842
   0.36237696  0.26076225  0.37343423
   0.63762269  0.26076250  0.12656607
   0.10157035  0.25548084  0.62581887
   0.89842984  0.25548103  0.87418000
   0.86200615  0.75972677  0.37133594
   0.13799435  0.75972661  0.12866608
unknown system                          
           1
     7.366175    0.000001   -1.636792
     0.000001    5.149369    0.000000
    -1.628807    0.000000    7.028585
   Nd   C    O 
     4     4     8
Direct configuration=     5
   0.24181489  0.24695310 -0.00643788
   0.75818475  0.24695302  0.50643768
   0.74001662  0.74898857  0.97849604
   0.25998435  0.74898892  0.52150432
   0.81411777  0.72239658  0.50842345
   0.18588062  0.72239727  0.99157117
   0.31318820  0.22206824  0.51257153
   0.68681226  0.22206796  0.98742880
   0.58433324  0.75889600  0.62524971
   0.41566766  0.75889560  0.87475257
   0.35427984  0.26432034  0.37278336
   0.64571922  0.26432049  0.12721770
   0.08504221  0.25941319  0.62554762
   0.91495816  0.25941326  0.87445087
   0.85379858  0.76291106  0.37017949
   0.14620150  0.76291057  0.12982359
unknown system                          
           1
     7.380173    0.000001   -1.639535
     0.000001    5.151975    0.000000
    -1.630628    0.000000    7.046098
   Nd   C    O 
     4     4     8
Direct configuration=     6
   0.24250852  0.24712661 -0.00538569
   0.75749113  0.24712652  0.50538548
   0.74059534  0.74922557  0.97931309
   0.25940559  0.74922589  0.52068728
   0.81256942  0.72269416  0.50869439
   0.18742893  0.72269483  0.99130040
   0.31165986  0.22235096  0.51268944
   0.68834058  0.22235066  0.98731093
   0.58548170  0.75862361  0.62519045
   0.41451923  0.75862322  0.87481170
   0.35483637  0.26408088  0.37282895
   0.64516273  0.26408104  0.12717206
   0.08617789  0.25914854  0.62556735
   0.91382247  0.25914862  0.87443117
   0.85436287  0.76269676  0.37026015
   0.14563724  0.76269629  0.12974285
unknown system                          
           1
     7.317065    0.000003   -1.731160
     0.000001    5.135314   -0.000002
    -1.710869   -0.000003    7.015912
   Nd   C    O 
     4     4     8
Direct configuration=     7
   0.23216468  0.24334707 -0.02231377
   0.76783481  0.24334696  0.52231343
   0.73185862  0.74458467  0.96557481
   0.26814275  0.74458546  0.53442545
   0.82695316  0.71851725  0.51533485
   0.17304346  0.71852034  0.98466422
   0.32677911  0.21904793  0.51892928
   0.67322188  0.21904835  0.98106937
   0.57388980  0.76164700  0.62382303
   0.42611069  0.76164649  0.87618041
   0.35026739  0.26888462  0.36529677
   0.64973109  0.26888468  0.13470701
   0.07444777  0.26201240  0.62354186
   0.92555254  0.26201217  0.87645587
   0.85051655  0.76790581  0.36002006
   0.14948558  0.76790298  0.13997736
unknown system                          
           1
     7.310783    0.000003   -1.740281
     0.000001    5.133656   -0.000002
    -1.718856   -0.000004    7.012907
   Nd   C    O 
     4     4     8
Direct configuration=     8
   0.23110091  0.24296965 -0.02402788
   0.76889857  0.24296953  0.52402753
   0.73096084  0.74412122  0.96418314
   0.26904058  0.74412207  0.53581710
   0.82841103  0.71810014  0.51602381
   0.17158542  0.71810347  0.98397568
   0.32831058  0.21871808  0.51957925
   0.67169045  0.21871858  0.98041923
   0.57271994  0.76194892  0.62366731
   0.42728050  0.76194839  0.87633625
   0.34979744  0.26936432  0.36453413
   0.65020098  0.26936437  0.13546993
   0.07326314  0.26229838  0.62331993
   0.92673716  0.26229813  0.87667772
   0.85011600  0.76842599  0.35898703
   0.14988633  0.76842292  0.14100983
unknown system                          
           1
     7.444770    0.000004   -1.790098
     0.000002    5.154523   -0.000003
    -1.780258   -0.000005    7.088051
   Nd   C    O 
     4     4     8
Direct configuration=     9
   0.23029047  0.23911349 -0.03080559
   0.76970937  0.23911276  0.53080445
   0.73171628  0.74003652  0.95974930
   0.26828479  0.74003747  0.54025194
   0.83345644  0.71847375  0.51763538
   0.16654061  0.71847544  0.98236018
   0.33350532  0.21879735  0.52298631
   0.66649503  0.21879983  0.97701717
   0.57326747  0.76354216  0.62030371
   0.42673263  0.76354161  0.87969934
   0.34817234  0.27173442  0.36107829
   0.65182649  0.27173262  0.13892085
   0.07418959  0.26379135  0.62109046
   0.92581085  0.26379102  0.87890750
   0.84844721  0.77045814  0.35658076
   0.15155500  0.77045626  0.14341995
