Ca8 Al4 C8
1.0
   6.9502782821655273    0.0000000000000000    0.0000000000000000
   0.0000000000000000    6.9502782821655273    0.0000000000000000
   0.0000000000000000    0.0000000000000000    7.5113883018493652
Al C Ca
4 8 8
direct
   0.0347985401749611    0.5280942320823669    0.1519999504089355 Al
   0.4719057679176331    0.5347985625267029    0.4019999504089355 Al
   0.4652014672756195    0.9719057679176331    0.6519999504089355 Al
   0.0280942916870117    0.9652014374732971    0.9019999504089355 Al
   0.2548803687095642    0.1105277538299561    0.7852112650871277 C
   0.2451196312904358    0.3894722461700439    0.2852113246917725 C
   0.8894722461700439    0.7548803687095642    0.0352113246917725 C
   0.6105277538299561    0.7451196312904358    0.5352113246917725 C
   0.7548803687095642    0.6105277538299561    0.2852113246917725 C
   0.7451196312904358    0.8894722461700439    0.7852112650871277 C
   0.3894722461700439    0.7451196312904358    0.5352113246917725 C
   0.1105277538299561    0.7548803687095642    0.0352113246917725 C
   0.9822273254394531    0.7690435051918030    0.5077148675918579 Ca
   0.5177726745605469    0.7309564948081970    0.0077148675918579 Ca
   0.2309564948081970    0.4822273254394531    0.7577148675918579 Ca
   0.2690434455871582    0.0177726745605469    0.2577148675918579 Ca
   0.4822273254394531    0.2690434455871582    0.0077148675918579 Ca
   0.0177726745605469    0.2309564948081970    0.5077148675918579 Ca
   0.7309564948081970    0.0177726745605469    0.2577148675918579 Ca
   0.7690435051918030    0.4822273254394531    0.7577148675918579 Ca
