Al2 Se2 S4
1.0
   6.0165033340454102    0.0000000000000000    0.0000000000000000
   0.0000000000000000    6.7618646621704102    0.0000000000000000
   0.0000000000000000    0.0000000000000000    6.0184674263000488
Se Al S
2 2 4
direct
   0.4756251275539398    0.9948500394821167    0.7739138603210449 Se
   0.9756251573562622    0.4948500394821167    0.2739138603210449 Se
   0.6497197747230530    0.7447597980499268    0.8703492283821106 Al
   0.1497197151184082    0.2447597980499268    0.3703491687774658 Al
   0.8759846687316895    0.6900927424430847    0.7512595653533936 S
   0.1240153312683105    0.3099072575569153    0.7512595653533936 S
   0.3759846687316895    0.1900928020477295    0.2512595653533936 S
   0.6240153312683105    0.8099072575569153    0.2512595653533936 S
