H6 W4 O4
1.0
   5.1821641921997070    0.0000000000000000    0.0000000000000000
   0.0000000000000000    6.8616032600402832    0.0000000000000000
   0.0000000000000000    0.0000000000000000    5.0087385177612305
W H O H
4 4 4 2
direct
   0.6578608155250549    0.6450892686843872    0.7334019541740417 W
   0.3421391844749451    0.3549107313156128    0.7334019541740417 W
   0.1578607559204102    0.8549107313156128    0.7334019541740417 W
   0.8421391844749451    0.1450892686843872    0.7334019541740417 W
   0.9620636701583862    0.6738491654396057    0.9447990655899048 H
   0.0379363298416138    0.3261508345603943    0.9447990655899048 H
   0.4620636701583862    0.8261508345603943    0.9447990655899048 H
   0.5379363298416138    0.1738491058349609    0.9447990655899048 H
   0.3149534761905670    0.6438762545585632    0.5374754071235657 O
   0.6850465536117554    0.3561237454414368    0.5374754071235657 O
   0.8149534463882446    0.8561237454414368    0.5374754071235657 O
   0.1850465238094330    0.1438763141632080    0.5374754071235657 O
   0.0022762757726014    0.9944117069244385    0.9478816390037537 H
   0.4977237284183502    0.4944117069244385    0.9478816390037537 H
