Al4 Cl8
1.0
   7.5724167823791504    0.0000000000000000    0.0000000000000000
   0.0000000000000000    7.5724167823791504    0.0000000000000000
   0.0000000000000000    0.0000000000000000    6.0790715217590332
Al Cl
4 8
direct
   0.3652807474136353    0.1638140380382538    0.9184302687644958 Al
   0.6347192525863647    0.1638140380382538    0.4184303283691406 Al
   0.8652807474136353    0.6638140678405762    0.4184303283691406 Al
   0.1347192525863647    0.6638140678405762    0.9184302687644958 Al
   0.8499708771705627    0.3435654640197754    0.5478920936584473 Cl
   0.1500291228294373    0.6564345359802246    0.5478920936584473 Cl
   0.6564345359802246    0.8499708771705627    0.5478920936584473 Cl
   0.3435654640197754    0.1500291228294373    0.5478920936584473 Cl
   0.3435654640197754    0.8499708771705627    0.0478920936584473 Cl
   0.6564345359802246    0.1500291228294373    0.0478920936584473 Cl
   0.1500291228294373    0.3435654640197754    0.0478920936584473 Cl
   0.8499708771705627    0.6564345359802246    0.0478920936584473 Cl
