Co4 P4 O12
1.0
   5.3235964775085449    0.0000000000000000    0.0000000000000000
   0.0000000000000000    5.3235964775085449    0.0000000000000000
   0.0000000000000000    0.0000000000000000    8.4237766265869141
O P Co
12 4 4
direct
   0.3092157542705536    0.8075386285781860    0.2493535131216049 O
   0.6907842159271240    0.1924613714218140    0.2493535131216049 O
   0.1924613714218140    0.3092157542705536    0.2493535131216049 O
   0.8075386285781860    0.6907842159271240    0.2493535131216049 O
   0.6907842159271240    0.1924613714218140    0.7506464719772339 O
   0.3092157542705536    0.8075386285781860    0.7506464719772339 O
   0.8075386285781860    0.6907842159271240    0.7506464719772339 O
   0.1924613714218140    0.3092157542705536    0.7506464719772339 O
   0.0044239582493901    0.4936756491661072    0.9645762443542480 O
   0.5063243508338928    0.0044239582493901    0.9645762443542480 O
   0.5063243508338928    0.0044239582493901    0.4645762443542480 O
   0.0044239582493901    0.4936756491661072    0.4645762443542480 O
   0.0042515816166997    0.5204126834869385    0.7498636841773987 P
   0.9957484006881714    0.4795873165130615    0.2501363158226013 P
   0.4957484304904938    0.9795873165130615    0.2501363158226013 P
   0.5042515993118286    0.0204126834869385    0.7498636841773987 P
   0.5468363761901855    0.4860257804393768    0.3781798779964447 Co
   0.5468363761901855    0.4860257804393768    0.8781799077987671 Co
   0.0468363761901855    0.9860258102416992    0.8781799077987671 Co
   0.0468363761901855    0.9860258102416992    0.3781798779964447 Co
