O12
1.0
   6.0335674285888672    0.0000000000000000    0.0000000000000000
   0.0000000000000000    6.0335674285888672    0.0000000000000000
   0.0000000000000000    0.0000000000000000    6.0335674285888672
O
12
direct
   0.8008058071136475    0.8696734309196472    0.1526963710784912 O
   0.6991941928863525    0.1303265690803528    0.6526963710784912 O
   0.1991941928863525    0.3696734905242920    0.3473036289215088 O
   0.3008058071136475    0.6303265690803528    0.8473036289215088 O
   0.1196734905242920    0.4491941928863525    0.9026963710784912 O
   0.6196734905242920    0.0508058071136475    0.0973036289215088 O
   0.3803265690803528    0.5508058071136475    0.4026963710784912 O
   0.8803265690803528    0.9491941928863525    0.5973036289215088 O
   0.9026963710784912    0.1196734905242920    0.4491941928863525 O
   0.0973036289215088    0.6196734905242920    0.0508058071136475 O
   0.4026963710784912    0.3803265690803528    0.5508058071136475 O
   0.5973036289215088    0.8803265690803528    0.9491941928863525 O
