K2 Ca2 Ag2 F10
1.0
   9.8169946670532227    0.0000000000000000   -0.8235412240028381
   0.0000000000000000    5.9821825027465820    0.0000000000000000
  -0.8235410451889038    0.0000000000000000    5.0066828727722168
Ag F Ca K F
2 8 2 2 2
direct
   0.9748830199241638    0.4928820729255676    0.0164478477090597 Ag
   0.4748830795288086    0.9928820729255676    0.0164478477090597 Ag
   0.1588306128978729    0.2477477788925171    0.2211878597736359 F
   0.8411693572998047    0.2477477788925171    0.7788121700286865 F
   0.8411693572998047    0.7522522211074829    0.7788121700286865 F
   0.1588306128978729    0.7522522211074829    0.2211878597736359 F
   0.6588306427001953    0.7477477788925171    0.2211878597736359 F
   0.3411693871021271    0.7477477788925171    0.7788121700286865 F
   0.3411693871021271    0.2522522211074829    0.7788121700286865 F
   0.6588306427001953    0.2522522211074829    0.2211878597736359 F
   0.7286396026611328    0.9981088638305664    0.4925611019134521 Ca
   0.2286396026611328    0.4981088638305664    0.4925611019134521 Ca
   0.1105725094676018    0.9869515299797058    0.7688098549842834 K
   0.6105725169181824    0.4869515895843506    0.7688098549842834 K
   0.9727956056594849    0.5979951024055481    0.3671303391456604 F
   0.4727956056594849    0.0979950428009033    0.3671303391456604 F
