K1 P1 H3 O5
1.0
   4.2464938163757324    0.0000000000000000   -0.1278019845485687
   0.0000000000000000    5.5953421592712402    0.0000000000000000
  -0.1278019845485687    0.0000000000000000    6.4691004753112793
O H P O K
3 3 1 2 1
direct
   0.0318601839244366    0.0154603011906147    0.8060596585273743 O
   0.3458004593849182    0.7767806649208069    0.1791247427463531 O
   0.3458004593849182    0.2232193350791931    0.1791247427463531 O
   0.5143381357192993    0.2281035631895065    0.3195919692516327 H
   0.5143381357192993    0.7718964219093323    0.3195919692516327 H
   0.2540831863880157    0.9850839376449585    0.0891894400119781 H
   0.8333212733268738    0.0069129322655499    0.6793495416641235 P
   0.7115200757980347    0.7709873318672180    0.5509754419326782 O
   0.7115200757980347    0.2290126681327820    0.5509754419326782 O
   0.3345743715763092    0.4986359477043152    0.8019196391105652 K
