Al4 O8
1.0
   4.9594025611877441    0.0000000000000000    0.0000000000000000
   0.0000000000000000    4.9594025611877441    0.0000000000000000
   0.0000000000000000    0.0000000000000000    6.8478107452392578
O Al
8 4
direct
   0.8413028120994568    0.2759194374084473    0.3139849007129669 O
   0.1586971879005432    0.7240805625915527    0.8139848709106445 O
   0.7240805625915527    0.8413028120994568    0.0639848709106445 O
   0.2759194374084473    0.1586971879005432    0.5639848709106445 O
   0.7511520981788635    0.3406111299991608    0.9054196476936340 O
   0.2488479018211365    0.6593888998031616    0.4054195880889893 O
   0.6593888998031616    0.7511520981788635    0.6554195880889893 O
   0.3406111299991608    0.2488479018211365    0.1554195880889893 O
   0.6666237711906433    0.1731819510459900    0.1064416468143463 Al
   0.3333762288093567    0.8268180489540100    0.6064416170120239 Al
   0.8268180489540100    0.6666237711906433    0.8564416170120239 Al
   0.1731819510459900    0.3333762288093567    0.3564416468143463 Al
