Zn2 As2 Se2 O10
1.0
   5.0959687232971191    0.0000000000000000   -0.8146994113922119
   0.0000000000000000    8.1617326736450195    0.0000000000000000
  -0.8146993517875671    0.0000000000000000    6.4041633605957031
Se O Zn O As
2 6 2 4 2
direct
   0.0653958171606064    0.5114511251449585    0.9224833250045776 Se
   0.9346041679382324    0.0114511251449585    0.0775166749954224 Se
   0.7369932532310486    0.9331579208374023    0.8974270224571228 O
   0.2630067467689514    0.4331579208374023    0.1025729775428772 O
   0.2630067467689514    0.0668420791625977    0.1025729775428772 O
   0.7369932532310486    0.5668420791625977    0.8974270224571228 O
   0.6330427527427673    0.6820657849311829    0.4921396672725677 O
   0.3669572472572327    0.1820657253265381    0.5078603029251099 O
   0.5037602186203003    0.2559075653553009    0.2727531492710114 Zn
   0.4962397813796997    0.7559075355529785    0.7272468805313110 Zn
   0.1784668266773224    0.9167996048927307    0.6633569002151489 O
   0.8215332031250000    0.4167995452880859    0.3366430997848511 O
   0.8215332031250000    0.0832003951072693    0.3366430997848511 O
   0.1784668266773224    0.5832003951072693    0.6633569002151489 O
   0.9042667746543884    0.5778139233589172    0.4716822803020477 As
   0.0957332253456116    0.0778138637542725    0.5283176898956299 As
