H6 O2
1.0
   4.1063365936279297    0.0000000000000000    0.0000000000000000
   0.0000000000000000    4.1063365936279297    0.0000000000000000
   0.0000000000000000    0.0000000000000000    4.1063365936279297
O H O
1 6 1
direct
   0.6935777068138123    0.1181206405162811    0.2891514599323273 O
   0.0256379023194313    0.9115349054336548    0.4041065871715546 H
   0.9743620753288269    0.0884650945663452    0.5958933830261230 H
   0.4041065871715546    0.0256379023194313    0.9115349054336548 H
   0.5958933830261230    0.9743620753288269    0.0884650945663452 H
   0.9115349054336548    0.4041065871715546    0.0256379023194313 H
   0.0884650945663452    0.5958933830261230    0.9743620753288269 H
   0.0104137305170298    0.4409775137901306    0.4817670881748199 O
