Ba8 S12
1.0
   8.1765880584716797    0.0000000000000000    0.0000000000000000
   0.0000000000000000    8.1765880584716797    0.0000000000000000
   0.0000000000000000    0.0000000000000000    9.7976379394531250
Ba S
8 12
direct
   0.8766365647315979    0.3085189759731293    0.6501153707504272 Ba
   0.1233634352684021    0.6914809942245483    0.3498846292495728 Ba
   0.6914809942245483    0.8766365647315979    0.1501153707504272 Ba
   0.3085189759731293    0.1233634352684021    0.8498846292495728 Ba
   0.1233634352684021    0.3085189759731293    0.1501153707504272 Ba
   0.8766365647315979    0.6914809942245483    0.8498846292495728 Ba
   0.3085189759731293    0.8766365647315979    0.6501153707504272 Ba
   0.6914809942245483    0.1233634352684021    0.3498846292495728 Ba
   0.4524364173412323    0.8039469718933105    0.3704127669334412 S
   0.1960530281066895    0.4524364173412323    0.8704127669334412 S
   0.4524364173412323    0.1960530281066895    0.1295872330665588 S
   0.1960530281066895    0.5475635528564453    0.6295872330665588 S
   0.5475635528564453    0.1960530281066895    0.6295872330665588 S
   0.8039469718933105    0.5475635528564453    0.1295872330665588 S
   0.5475635528564453    0.8039469718933105    0.8704127669334412 S
   0.8039469718933105    0.4524364173412323    0.3704127669334412 S
   0.8622943162918091    0.1445258855819702    0.0227531846612692 S
   0.8554741144180298    0.8622943162918091    0.5227531790733337 S
   0.1377056837081909    0.8554741144180298    0.9772468209266663 S
   0.1445258855819702    0.1377056837081909    0.4772468209266663 S
