Al2 H14
1.0
   5.0408311294066435   -0.0332536924668623    0.1145039214830015
  -0.0306271599101762    5.7658418708973382    0.2278760545301107
   0.1245768590153238    0.2353133996030461    6.6883188551835531
H Al
14 2
direct
   0.0000205562844988    1.0329970140757139    0.4637552587615988 H
   0.9700565019054804    1.0396332136220319    0.3545950706849390 H
   0.3341993794029442    0.4254125422071431    0.5640995977773159 H
   0.3333013305797170    0.4841027112052273    0.4604350337611637 H
   0.2505222915886718    0.7163299325209873    0.0965974364591196 H
   0.8508844491277640    0.4699001492735215    0.3812165094076189 H
   0.6292817426088066    0.6876834834130121    0.7817410667032986 H
   0.4417788006641860    0.1311824901870777    0.8804744328007897 H
   0.7536593587045824    0.8392537259839470    0.0774630769933194 H
   0.4214253743254634    0.0341107805163116    0.4051216266738338 H
   0.1316568469425029    0.7998175325812592    0.7658743241064627 H
   0.9286831648374799    0.3905755012923934    0.9874734535499977 H
   0.5452575217529227   -0.0359361065091359    0.3985122035637423 H
   0.8308947266839560    0.5755491790961854    0.4385488376390661 H
   0.4424689430857462    0.8579849352182316   -0.0816381369712886 Al
   0.9377766865629126    0.6634241117041456    0.9447902886755586 Al
