Cl10
1.0
   7.6116437911987305   -2.0395338535308838    0.0000000000000000
  -2.0395338535308838    7.6116437911987305    0.0000000000000000
   0.0000000000000000    0.0000000000000000    6.4787225723266602
Cl
10
direct
   0.6729165315628052    0.9344489574432373    0.1448366492986679 Cl
   0.0655510425567627    0.7384675741195679    0.1448366492986679 Cl
   0.2615324258804321    0.3270834684371948    0.1448366492986679 Cl
   0.3270834684371948    0.0655510425567627    0.6448366641998291 Cl
   0.9344489574432373    0.2615324258804321    0.6448366641998291 Cl
   0.7384675741195679    0.6729165315628052    0.6448366641998291 Cl
   0.3275889456272125    0.5427829027175903    0.7411083579063416 Cl
   0.7848060131072998    0.3275889456272125    0.2411084175109863 Cl
   0.3275889456272125    0.7848060131072998    0.2411084175109863 Cl
   0.5427829027175903    0.3275889456272125    0.7411083579063416 Cl
