Cl6
1.0
   4.7528066635131836   -1.2735106945037842    0.0000000000000000
  -1.2735106945037842    4.7528066635131836    0.0000000000000000
   0.0000000000000000    0.0000000000000000    8.9869947433471680
Cl
6
direct
   0.8525137901306152    0.1893766224384308    0.0224328320473433 Cl
   0.8106234073638916    0.6631371974945068    0.3557661771774292 Cl
   0.3368628025054932    0.1474862098693848    0.6890994906425476 Cl
   0.1474862098693848    0.8106234073638916    0.5224328041076660 Cl
   0.1893766224384308    0.3368628025054932    0.8557661175727844 Cl
   0.6631371974945068    0.8525137901306152    0.1890995055437088 Cl
