P2 Cl6
1.0
   6.6067419052124023    0.0000000000000000    0.0000000000000000
   0.0000000000000000    6.6067419052124023    0.0000000000000000
   0.0000000000000000    0.0000000000000000    7.4169988632202148
Cl P Cl
4 2 2
direct
   0.6546919941902161    0.0271337348967791    0.9755085706710815 Cl
   0.9728662371635437    0.6546919941902161    0.9755085706710815 Cl
   0.1546919345855713    0.5271337628364563    0.4755085706710815 Cl
   0.4728662669658661    0.1546919345855713    0.4755085706710815 Cl
   0.3011588156223297    0.3924018144607544    0.3432906270027161 P
   0.8011587858200073    0.8924018144607544    0.8432906270027161 P
   0.9432629346847534    0.9942438006401062    0.6701458692550659 Cl
   0.4432629346847534    0.4942438602447510    0.1701458692550659 Cl
