unknown system                          
           1
     7.096318    0.000000   -1.163181
     0.000000    5.073763    0.000000
    -1.163181    0.000000    6.806619
   Nd   C    O 
     4     4     8
Direct configuration=     1
   0.25290984  0.24828573  0.01218457
   0.74709016  0.24828573  0.48781544
   0.74709016  0.75171429  0.98781544
   0.25290984  0.75171429  0.51218456
   0.75437033  0.74297351  0.51182491
   0.24562967  0.74297351  0.98817509
   0.25437033  0.24297357  0.51182491
   0.74562967  0.24297357  0.98817509
   0.64136058  0.74723995  0.60824561
   0.35863942  0.74723995  0.89175439
   0.35863942  0.25276005  0.39175439
   0.64136058  0.25276005  0.10824561
   0.14136052  0.24723995  0.60824561
   0.85863942  0.24723995  0.89175439
   0.85863942  0.75276005  0.39175439
   0.14136052  0.75276005  0.10824561
