Cl12
1.0
   9.4274892807006836   -2.5260879993438721    0.0000000000000000
  -2.5260879993438721    9.4274892807006836    0.0000000000000000
   0.0000000000000000    0.0000000000000000    4.2349634170532227
Cl
12
direct
   0.4102675914764404    0.2822407782077789    0.7479949593544006 Cl
   0.7177592515945435    0.1280268132686615    0.7479949593544006 Cl
   0.8719731569290161    0.5897324085235596    0.7479949593544006 Cl
   0.7177592515945435    0.5897324085235596    0.2520050406455994 Cl
   0.8719731569290161    0.2822407782077789    0.2520050406455994 Cl
   0.4102675914764404    0.1280268132686615    0.2520050406455994 Cl
   0.5897324085235596    0.7177592515945435    0.2520050406455994 Cl
   0.2822407782077789    0.8719731569290161    0.2520050406455994 Cl
   0.1280268132686615    0.4102675914764404    0.2520050406455994 Cl
   0.2822407782077789    0.4102675914764404    0.7479949593544006 Cl
   0.1280268132686615    0.7177592515945435    0.7479949593544006 Cl
   0.5897324085235596    0.8719731569290161    0.7479949593544006 Cl
