H8 C4 N4 O4
1.0
   7.9347467422485352    0.0000000000000000    0.0000000000000000
   0.0000000000000000    6.4390664100646973    0.0000000000000000
   0.0000000000000000    0.0000000000000000    6.8082776069641113
C O N H
4 4 4 8
direct
   0.0685239806771278    0.0240330584347248    0.6799523234367371 C
   0.9314759969711304    0.9759669303894043    0.6799523234367371 C
   0.5685240030288696    0.5240330696105957    0.1799523830413818 C
   0.4314760267734528    0.4759669303894043    0.1799523830413818 C
   0.3464671969413757    0.5395600795745850    0.0748015344142914 O
   0.6535328030586243    0.4604399204254150    0.0748015344142914 O
   0.8464671969413757    0.0395600795745850    0.5748015642166138 O
   0.1535328030586243    0.9604399204254150    0.5748015642166138 O
   0.9711340665817261    0.5505021214485168    0.4475293159484863 N
   0.5288659334182739    0.5505021214485168    0.4475293159484863 N
   0.4711340665817261    0.0505020618438721    0.9475293159484863 N
   0.0288659334182739    0.0505020618438721    0.9475293159484863 N
   0.0586716942489147    0.1482401490211487    0.9093247056007385 H
   0.9413282871246338    0.8517598509788513    0.9093247056007385 H
   0.5586717128753662    0.8517598509788513    0.9093247056007385 H
   0.4413283169269562    0.1482401490211487    0.9093247056007385 H
   0.5586717128753662    0.6482401490211487    0.4093246459960938 H
   0.4413283169269562    0.3517598509788513    0.4093246459960938 H
   0.0586716942489147    0.3517598509788513    0.4093246459960938 H
   0.9413282871246338    0.6482401490211487    0.4093246459960938 H
