Ag1 B1 H2 C2 O3
1.0
   5.2397122074753293    0.2146490635622029   -0.0684979410329651
   0.2264088194322300    3.4928775435189934    0.0958874940970807
  -0.0703060918246221    0.0105524099915012    6.4998259461760215
H Ag O C B
2 1 3 2 1
direct
   0.0095957972683500    0.6364254412168056    0.7748731787504868 H
   0.4896741251678746   -0.0606651247480204    0.9630289695776878 H
   0.5864792972079412    0.7810730363940207    0.5294282253586180 Ag
   0.8620634584542056    0.2722814698769009    0.3807084680745825 O
   0.2940980820716093    0.9388574297579527    0.2851289724819931 O
   0.8242032891583586    0.2110367045577945    0.8876559434326333 O
   0.6657578315376920   -0.0830041499338307    0.8750043142194791 C
   0.8160575888525008    0.5855835605613832    0.8206044584651077 C
   1.0785656811569451    0.1125375195267485    0.3317589487473253 B
