Ni1 H13 O6
1.0
   5.7678947448730469    0.0000000000000000    0.0000000000000000
   0.0000000000000000    5.7678947448730469    0.0000000000000000
   0.0000000000000000    0.0000000000000000    5.7678947448730469
O H Ni
6 13 1
direct
   0.2832244932651520    0.7450503706932068    0.0490712709724903 O
   0.7167755365371704    0.2549496293067932    0.9509287476539612 O
   0.2549496293067932    0.2832244932651520    0.0490712709724903 O
   0.7450503706932068    0.7167755365371704    0.9509287476539612 O
   0.0490712709724903    0.2549496293067932    0.2832244932651520 O
   0.9509287476539612    0.7450503706932068    0.7167755365371704 O
   0.5825543999671936    0.8888426423072815    0.7316841483116150 H
   0.4174456000328064    0.1111573576927185    0.2683158516883850 H
   0.7316841483116150    0.5825543999671936    0.8888426423072815 H
   0.2683158516883850    0.4174456000328064    0.1111573576927185 H
   0.8888426423072815    0.7316841483116150    0.5825543999671936 H
   0.1111573576927185    0.2683158516883850    0.4174456000328064 H
   0.1111573576927185    0.5825543999671936    0.7316841483116150 H
   0.8888426423072815    0.4174456000328064    0.2683158516883850 H
   0.5825543999671936    0.7316841483116150    0.1111573576927185 H
   0.4174456000328064    0.2683158516883850    0.8888426423072815 H
   0.7316841483116150    0.1111573576927185    0.5825543999671936 H
   0.2683158516883850    0.8888426423072815    0.4174456000328064 H
   0.3199865221977234    0.4939374923706055    0.9666538238525391 H
   0.9572917222976685    0.0838897302746773    0.0149136455729604 Ni
