Os2 O4
1.0
   3.9925680160522461    0.0000000000000000    0.0000000000000000
   0.0000000000000000    4.1571989059448242    0.0000000000000000
   0.0000000000000000    0.0000000000000000    5.1654353141784668
Os O
2 4
direct
   0.5365003943443298    0.0555732026696205    0.8629547357559204 Os
   0.0365004539489746    0.5555732250213623    0.3629547357559204 Os
   0.7722015976905823    0.7851067781448364    0.6182453632354736 O
   0.2722015380859375    0.2851067781448364    0.1182453632354736 O
   0.7761318087577820    0.7839097380638123    0.1176564395427704 O
   0.2761318683624268    0.2839097976684570    0.6176564693450928 O
