Ga2 Co3 Ge2 H2 O7
1.0
   5.3934721946716309   -1.4451763629913330    0.0000000000000000
  -1.4451763629913330    5.3934721946716309    0.0000000000000000
   0.0000000000000000    0.0000000000000000    7.3269000053405762
O H Co Ga Ge
7 2 3 2 2
direct
   0.8684723377227783    0.3621456027030945    0.8753041625022888 O
   0.4936732649803162    0.1315276622772217    0.1246958374977112 O
   0.1315276622772217    0.4936732649803162    0.1246958374977112 O
   0.3621456027030945    0.8684723377227783    0.8753041625022888 O
   0.2845000624656677    0.3156268000602722    0.6054704189300537 O
   0.6843731999397278    0.9688732624053955    0.6054704189300537 O
   0.0311267375946045    0.7154999375343323    0.3945295810699463 O
   0.3776334226131439    0.8769319057464600    0.0795119330286980 H
   0.8769319057464600    0.3776334226131439    0.0795119330286980 H
   0.2498929649591446    0.2695831656455994    0.2832294106483459 Co
   0.7304168343544006    0.9803097844123840    0.2832294106483459 Co
   0.0196902006864548    0.7501070499420166    0.7167705893516541 Co
   0.4846081435680389    0.1238384246826172    0.8141451478004456 Ga
   0.1238384246826172    0.4846081435680389    0.8141451478004456 Ga
   0.5790119767189026    0.6081065535545349    0.5632987618446350 Ge
   0.0290945768356323    0.4209880232810974    0.4367012381553650 Ge
