H4 O2
1.0
   3.7195208072662354    0.0000000000000000    0.0000000000000000
   0.0000000000000000    3.7195208072662354    0.0000000000000000
   0.0000000000000000    0.0000000000000000    3.9793596267700195
H O H
1 2 3
direct
   0.5990926623344421    0.7401325106620789    0.7387951612472534 H
   0.4819925427436829    0.9572443962097168    0.2822471559047699 O
   0.0427556037902832    0.4819925427436829    0.2822471559047699 O
   0.0071076261810958    0.3851916491985321    0.0560214444994926 H
   0.6148083209991455    0.0071076261810958    0.0560214444994926 H
   0.2062142342329025    0.7134184837341309    0.3817925155162811 H
