Li8
1.0
   5.0336136817932129    0.0000000000000000    0.0000000000000000
   0.0000000000000000    5.0336136817932129    0.0000000000000000
   0.0000000000000000    0.0000000000000000    5.0336136817932129
Li
8
direct
   0.3648483753204346    0.7148711085319519    0.9218352437019348 Li
   0.3648483753204346    0.2148711681365967    0.4218351840972900 Li
   0.8648483753204346    0.7148711085319519    0.4218351840972900 Li
   0.8648483753204346    0.2148711681365967    0.9218352437019348 Li
   0.8648483753204346    0.2148711681365967    0.4218351840972900 Li
   0.8648483753204346    0.7148711085319519    0.9218352437019348 Li
   0.3648483753204346    0.2148711681365967    0.9218352437019348 Li
   0.3648483753204346    0.7148711085319519    0.4218351840972900 Li
