Au2 Cl4
1.0
   5.3869171142578125    0.0000000000000000    0.0000000000000000
   0.0000000000000000    5.3869171142578125    0.0000000000000000
   0.0000000000000000    0.0000000000000000    6.7812252044677734
Cl Au Cl
2 2 2
direct
   0.4138613939285278    0.4854875504970551    0.8756669163703918 Cl
   0.0145124495029449    0.9138613939285278    0.8756669163703918 Cl
   0.3627430498600006    0.1341547369956970    0.1435339003801346 Au
   0.8627430200576782    0.3658452630043030    0.8564661145210266 Au
   0.5406513214111328    0.4864619970321655    0.3532236814498901 Cl
   0.0135380029678345    0.0406513214111328    0.3532236814498901 Cl
