Li3 Sc1 F10
1.0
   5.6668081283569336   -1.5184164047241211    0.0000000000000000
  -1.5184164047241211    5.6668081283569336    0.0000000000000000
   0.0000000000000000    0.0000000000000000    5.4856944084167480
Li F Sc Li
2 10 1 1
direct
   0.8828553557395935    0.5684575438499451    0.9696598052978516 Li
   0.5684575438499451    0.8828553557395935    0.9696598052978516 Li
   0.5807889103889465    0.9166144132614136    0.7396565079689026 F
   0.0833855867385864    0.6641744971275330    0.7396565079689026 F
   0.3358255028724670    0.4192110896110535    0.7396565079689026 F
   0.5807889103889465    0.9166144132614136    0.2603434920310974 F
   0.0833855867385864    0.6641744971275330    0.2603434920310974 F
   0.3358255028724670    0.4192110896110535    0.2603434920310974 F
   0.6908711791038513    0.5386654734611511    0.4679943919181824 F
   0.8477942943572998    0.3091288208961487    0.5320056080818176 F
   0.9403637051582336    0.1970279216766357    0.7937291860580444 F
   0.2566642165184021    0.0596362948417664    0.2062708139419556 F
   0.3358012437820435    0.6964669823646545    0.4561529755592346 Sc
   0.2113731652498245    0.3205583095550537    0.9460979104042053 Li
