Si2 Sb2 O12
1.0
   7.2893018722534180    0.0000000000000000    0.0000000000000000
   0.0000000000000000    5.7856001853942871    0.0000000000000000
   0.0000000000000000    0.0000000000000000    7.2762765884399414
O Sb O Si O
2 2 6 2 4
direct
   0.4701832830905914    0.2094494253396988    0.8261420130729675 O
   0.5298167467117310    0.7905505895614624    0.3261420726776123 O
   0.7526947259902954    0.1904676407575607    0.9104441404342651 Sb
   0.2473052740097046    0.8095323443412781    0.4104441404342651 Sb
   0.9596180915832520    0.7035694718360901    0.3633897602558136 O
   0.0403819084167480    0.2964305281639099    0.8633897304534912 O
   0.7009834051132202    0.6762982010841370    0.6152013540267944 O
   0.2990165948867798    0.3237017989158630    0.1152013540267944 O
   0.7009834051132202    0.3237017989158630    0.1152013540267944 O
   0.2990165948867798    0.6762982010841370    0.6152013540267944 O
   0.2468930929899216    0.1842260658740997    0.9653105139732361 Si
   0.7531068921089172    0.8157739639282227    0.4653105735778809 Si
   0.1940301060676575    0.9047975540161133    0.0168268904089928 O
   0.8059698939323425    0.0952024459838867    0.5168268680572510 O
   0.1940301060676575    0.0952024459838867    0.5168268680572510 O
   0.8059698939323425    0.9047975540161133    0.0168268904089928 O
