Si1 P2 H10 N3
1.0
   6.2265872955322266   -1.6684091091156006    0.0000000000000000
  -1.6684091091156006    6.2265872955322266    0.0000000000000000
   0.0000000000000000    0.0000000000000000    5.3207063674926758
Si H N H P
1 4 3 6 2
direct
   0.2820422947406769    0.8389862179756165    0.8393903374671936 Si
   0.9420702457427979    0.3869071900844574    0.6218476295471191 H
   0.4448369741439819    0.0579297542572021    0.3781523704528809 H
   0.0579297542572021    0.4448369741439819    0.3781523704528809 H
   0.3869071900844574    0.9420702457427979    0.6218476295471191 H
   0.0195627789944410    0.7933051586151123    0.7209660410881042 N
   0.2066948413848877    0.2262576222419739    0.7209660410881042 N
   0.7737423777580261    0.9804372191429138    0.2790339589118958 N
   0.5093412995338440    0.1422702074050903    0.1165354624390602 H
   0.8577297925949097    0.3670710921287537    0.1165354624390602 H
   0.6329289078712463    0.4906587004661560    0.8834645152091980 H
   0.1422702074050903    0.5093412995338440    0.1165354624390602 H
   0.3670710921287537    0.8577297925949097    0.1165354624390602 H
   0.4906587004661560    0.6329289078712463    0.8834645152091980 H
   0.2578936219215393    0.0463780574500561    0.5389374494552612 P
   0.0463780574500561    0.2578936219215393    0.5389374494552612 P
