H8 N4
1.0
   4.6980175971984863    0.0000000000000000    0.0000000000000000
   0.0000000000000000    5.5435700416564941    0.0000000000000000
   0.0000000000000000    0.0000000000000000    4.1180500984191895
N H
4 8
direct
   0.2514154314994812    0.7480107545852661    0.6158851981163025 N
   0.7485845685005188    0.2519892454147339    0.6158851981163025 N
   0.2514154314994812    0.2480107545852661    0.1158852577209473 N
   0.7485845685005188    0.7519892454147339    0.1158852577209473 N
   0.4202501773834229    0.8170978426933289    0.7099633216857910 H
   0.5797498226165771    0.1829021573066711    0.7099633216857910 H
   0.9202501773834229    0.1829021573066711    0.7099633216857910 H
   0.0797498226165771    0.8170978426933289    0.7099633216857910 H
   0.4202501773834229    0.3170979022979736    0.2099633216857910 H
   0.5797498226165771    0.6829021573066711    0.2099633216857910 H
   0.9202501773834229    0.6829021573066711    0.2099633216857910 H
   0.0797498226165771    0.3170979022979736    0.2099633216857910 H
