Al8 V6 Bi2
1.0
   6.5209345817565918    0.0000000000000000    0.0000000000000000
   0.0000000000000000    6.5209345817565918    0.0000000000000000
   0.0000000000000000    0.0000000000000000    6.5209345817565918
V Al Bi
6 8 2
direct
   0.6505629420280457    0.5996479988098145    0.6056008934974670 V
   0.5996479988098145    0.3494370579719543    0.3943991065025330 V
   0.3943991065025330    0.5996479988098145    0.3494370579719543 V
   0.1505630016326904    0.0996479988098145    0.1056008338928223 V
   0.0996479988098145    0.8494370579719543    0.8943991065025330 V
   0.8943991065025330    0.0996479988098145    0.8494370579719543 V
   0.2501448988914490    0.5886331200599670    0.1135471984744072 Al
   0.7498551011085510    0.4113668799400330    0.1135471984744072 Al
   0.4113668799400330    0.2501448988914490    0.8864527940750122 Al
   0.5886331200599670    0.7498551011085510    0.8864527940750122 Al
   0.7501448988914490    0.0886330604553223    0.6135472059249878 Al
   0.2498551011085510    0.9113668799400330    0.6135472059249878 Al
   0.9113668799400330    0.7501448988914490    0.3864527940750122 Al
   0.0886330604553223    0.2498551011085510    0.3864527940750122 Al
   0.5820358395576477    0.9668771028518677    0.2126569747924805 Bi
   0.0820357799530029    0.4668771028518677    0.7126569747924805 Bi
