Hg4 Cl12
1.0
  11.2740828576134611   -3.5422491000758733    0.2876944798973364
  -3.6176345292494334   11.1467540300021284   -0.4901592005958464
   0.1457639643487774   -0.3693342530176460    5.3638759827514679
Cl Hg
12 4
direct
   0.3772118591668993    0.8756186232965697    0.2249189559800345 Cl
   0.1524402304285264    0.4911307319380938    0.2801453439322685 Cl
   0.6452080608226747    0.7195454300023972    0.3830288834452664 Cl
   0.8271282509746345    0.0920277432918645    0.2502747119858843 Cl
   0.8372057077588257    0.4969626635701014    0.2166551462150042 Cl
   0.3574646994744667    0.2774767434919435    0.1339942019378575 Cl
   0.6227881418378756    0.1243813538090440    0.7750810688214675 Cl
   0.8475597393780825    0.5088692700250237    0.7198547687006275 Cl
   0.3547919225046507    0.2804546063573544    0.6169713865048673 Cl
   0.1728717557833032    0.9079722282421657    0.7497250210837983 Cl
   0.1627942686516331    0.5030373326778401    0.7833449792716580 Cl
   0.6425353569354194    0.7225232386479000    0.8660060189628058 Cl
   0.8478986037445291    0.3012838664674867    0.2364584818061931 Hg
   0.5393687968590705    0.8202611292569061    0.1805853997761382 Hg
   0.1521013948907738    0.6987161411855499    0.7635414177259179 Hg
   0.4606312222894806    0.1797388834434372    0.8194142737781931 Hg
