Mo4 O4 F4
1.0
   5.2312240600585938    0.0000000000000000    0.0000000000000000
   0.0000000000000000    5.2312240600585938    0.0000000000000000
   0.0000000000000000    0.0000000000000000    7.1637654304504395
O F Mo
4 4 4
direct
   0.6934526562690735    0.1856427788734436    0.9045292139053345 O
   0.3065473437309265    0.8143572211265564    0.5954707860946655 O
   0.3065473437309265    0.8143572211265564    0.0954707860946655 O
   0.6934526562690735    0.1856427788734436    0.4045292139053345 O
   0.8230513334274292    0.7188687324523926    0.2055114805698395 F
   0.1769486665725708    0.2811312675476074    0.7944885492324829 F
   0.1839800924062729    0.2781600952148438    0.2953040301799774 F
   0.8160198926925659    0.7218399047851562    0.7046959400177002 F
   0.0521955378353596    0.5854461789131165    0.9658921957015991 Mo
   0.4145538210868835    0.0521955378353596    0.9658921957015991 Mo
   0.0521955378353596    0.5854461789131165    0.4658921957015991 Mo
   0.4145538210868835    0.0521955378353596    0.4658921957015991 Mo
