Te2 Se4 I12
1.0
   5.6961703300476074    0.0000000000000000    0.0000000000000000
   0.0000000000000000    5.6961703300476074    0.0000000000000000
   0.0000000000000000    0.0000000000000000    6.8537006378173828
I Te I Se
8 2 4 4
direct
   0.9256876707077026    0.8874499797821045    0.4827701151371002 I
   0.9256876707077026    0.8874499797821045    0.4827701151371002 I
   0.9256876707077026    0.8874499797821045    0.4827701151371002 I
   0.9256876707077026    0.8874499797821045    0.4827701151371002 I
   0.9256876707077026    0.8874499797821045    0.4827701151371002 I
   0.9256876707077026    0.8874499797821045    0.4827701151371002 I
   0.8874499797821045    0.9256876707077026    0.0172298848628998 I
   0.9256876707077026    0.8874499797821045    0.4827701151371002 I
   0.5523532032966614    0.0723931267857552    0.9272119402885437 Te
   0.5523532032966614    0.0723931267857552    0.5727880597114563 Te
   0.4329210817813873    0.3930760324001312    0.0236684866249561 I
   0.4329210817813873    0.3930760324001312    0.0236684866249561 I
   0.4329210817813873    0.3930760324001312    0.0236684866249561 I
   0.4329210817813873    0.3930760324001312    0.4763315021991730 I
   0.9464044570922852    0.6354997754096985    0.7962002158164978 Se
   0.9464044570922852    0.6354997754096985    0.7962002158164978 Se
   0.9464044570922852    0.6354997754096985    0.7962002158164978 Se
   0.9464044570922852    0.6354997754096985    0.7962002158164978 Se
