S6
1.0
   5.8333640098571777    0.0000000000000000    0.0000000000000000
   0.0000000000000000    5.8333640098571777    0.0000000000000000
   0.0000000000000000    0.0000000000000000    5.4335637092590332
S
6
direct
   0.6905075311660767    0.1885348707437515    0.5400939583778381 S
   0.3114651441574097    0.6905075311660767    0.5400939583778381 S
   0.8094924688339233    0.3114651441574097    0.9599060416221619 S
   0.1885348707437515    0.8094924688339233    0.9599060416221619 S
   0.9707637429237366    0.1974805593490601    0.7551673650741577 S
   0.4707636833190918    0.6974805593490601    0.2551673650741577 S
