Mo4 O12
1.0
   6.3235778808593750    0.0000000000000000    0.0000000000000000
   0.0000000000000000    6.3235778808593750    0.0000000000000000
   0.0000000000000000    0.0000000000000000    8.2682619094848633
O Mo O
8 4 4
direct
   0.3640410006046295    0.2805728912353516    0.5602672100067139 O
   0.6359590291976929    0.7194271087646484    0.4397327899932861 O
   0.7194271087646484    0.3640410006046295    0.0602672100067139 O
   0.2805728912353516    0.6359590291976929    0.9397327899932861 O
   0.4484785199165344    0.9940823316574097    0.2273958474397659 O
   0.5515214800834656    0.0059176683425903    0.7726041674613953 O
   0.0059176683425903    0.4484785199165344    0.7273958325386047 O
   0.9940823316574097    0.5515214800834656    0.2726041674613953 O
   0.6480687856674194    0.9200353622436523    0.3036423623561859 Mo
   0.0799646377563477    0.6480687856674194    0.8036423921585083 Mo
   0.3519312143325806    0.0799646377563477    0.6963576078414917 Mo
   0.9200353622436523    0.3519312143325806    0.1963576376438141 Mo
   0.1995571404695511    0.8603520989418030    0.6325317025184631 O
   0.8004428744316101    0.1396479010581970    0.3674682974815369 O
   0.1396479010581970    0.1995571404695511    0.1325316429138184 O
   0.8603520989418030    0.8004428744316101    0.8674682974815369 O
