H12 O4 F4
1.0
   4.7963104248046875    0.0000000000000000    0.0000000000000000
   0.0000000000000000    4.7963104248046875    0.0000000000000000
   0.0000000000000000    0.0000000000000000    6.7275490760803223
H F O
12 4 4
direct
   0.2200997322797775    0.6275355815887451    0.8180655241012573 H
   0.7799002528190613    0.3724644184112549    0.3180655241012573 H
   0.8724644184112549    0.7200997471809387    0.5680655241012573 H
   0.1275355815887451    0.2799002528190613    0.0680655241012573 H
   0.7295395731925964    0.5678845047950745    0.7803717255592346 H
   0.2704604268074036    0.4321154952049255    0.2803716659545898 H
   0.9321154952049255    0.2295396327972412    0.5303716659545898 H
   0.0678844451904297    0.7704604268074036    0.0303716659545898 H
   0.7704604268074036    0.0678844451904297    0.9696282744407654 H
   0.2295396327972412    0.9321154952049255    0.4696282744407654 H
   0.5678845047950745    0.7295395731925964    0.2196282744407654 H
   0.4321154952049255    0.2704604268074036    0.7196282744407654 H
   0.7633219957351685    0.7640080451965332    0.1295933872461319 F
   0.2366780042648315    0.2359919548034668    0.6295933723449707 F
   0.7359919548034668    0.2633219957351685    0.8795933723449707 F
   0.2640080451965332    0.7366780042648315    0.3795933723449707 F
   0.7416837811470032    0.7151846885681152    0.6543571949005127 O
   0.2583162188529968    0.2848153114318848    0.1543571949005127 O
   0.7848153114318848    0.2416837215423584    0.4043571949005127 O
   0.2151846885681152    0.7583162188529968    0.9043571949005127 O
