Co2 H8
1.0
   4.9217343330383301   -1.3187748193740845    0.0000000000000000
  -1.3187748193740845    4.9217343330383301    0.0000000000000000
   0.0000000000000000    0.0000000000000000    5.1099519729614258
H Co
8 2
direct
   0.3630828857421875    0.1551455855369568    0.1592540293931961 H
   0.8448544144630432    0.2079373002052307    0.1592540293931961 H
   0.7920626997947693    0.6369171142578125    0.1592540293931961 H
   0.1551455855369568    0.3630828857421875    0.6592540144920349 H
   0.2079373002052307    0.8448544144630432    0.6592540144920349 H
   0.6369171142578125    0.7920626997947693    0.6592540144920349 H
   0.1141274794936180    0.3820115625858307    0.4859032034873962 H
   0.3820115625858307    0.1141274794936180    0.9859032034873962 H
   0.8626908063888550    0.7681902647018433    0.8936447501182556 Co
   0.7681902647018433    0.8626908063888550    0.3936448097229004 Co
