Na4 P4 O4
1.0
   4.9609775543212891    0.0000000000000000    0.0000000000000000
   0.0000000000000000    6.8801841735839844    0.0000000000000000
   0.0000000000000000    0.0000000000000000    6.0265107154846191
P Na O
4 4 4
direct
   0.7746909260749817    0.3611478209495544    0.9849241971969604 P
   0.7253090739250183    0.6388521790504456    0.4849241971969604 P
   0.2253090739250183    0.8611478209495544    0.5150758028030396 P
   0.2746908664703369    0.1388521790504456    0.0150758028030396 P
   0.2399170994758606    0.3774641752243042    0.4713407456874847 Na
   0.2600829005241394    0.6225358247756958    0.9713407754898071 Na
   0.7600829005241394    0.8774641752243042    0.0286592543125153 Na
   0.7399170994758606    0.1225358247756958    0.5286592245101929 Na
   0.9580813050270081    0.7444654107093811    0.6327884197235107 O
   0.5419186949729919    0.2555345892906189    0.1327884197235107 O
   0.0419186949729919    0.2444653511047363    0.8672115802764893 O
   0.4580812454223633    0.7555345892906189    0.3672115802764893 O
