S8
1.0
   6.7096891403198242    0.0000000000000000    0.0000000000000000
   0.0000000000000000    6.7096891403198242    0.0000000000000000
   0.0000000000000000    0.0000000000000000    6.7096891403198242
S
8
direct
   0.6363441348075867    0.1221859157085419    0.6904754042625427 S
   0.8636558651924133    0.8778140544891357    0.1904754638671875 S
   0.3721859157085419    0.6136558651924133    0.4404754638671875 S
   0.1278140842914581    0.3863441944122314    0.9404754042625427 S
   0.1278140842914581    0.6136558651924133    0.5595245957374573 S
   0.3721859157085419    0.3863441944122314    0.0595245957374573 S
   0.8636558651924133    0.1221859157085419    0.3095245957374573 S
   0.6363441348075867    0.8778140544891357    0.8095245957374573 S
