Cs2 Tl8 Se10
1.0
  11.9439916610717773    0.0000000000000000    0.0000000000000000
   0.0000000000000000    8.1064510345458984    0.0000000000000000
   0.0000000000000000    0.0000000000000000    8.1571865081787109
Tl Se Cs Se
8 4 2 6
direct
   0.3233253955841064    0.7483975887298584    0.4971334934234619 Tl
   0.1766746044158936    0.2516024112701416    0.9971334934234619 Tl
   0.1766746044158936    0.7483975887298584    0.0028665065765381 Tl
   0.3233253955841064    0.2516024112701416    0.5028665065765381 Tl
   0.6766746044158936    0.2516024112701416    0.5028665065765381 Tl
   0.8233253955841064    0.7483975887298584    0.0028665065765381 Tl
   0.8233253955841064    0.2516024112701416    0.9971334934234619 Tl
   0.6766746044158936    0.7483975887298584    0.4971334934234619 Tl
   0.0021815842483193    0.4682541191577911    0.8373374938964844 Se
   0.4978184103965759    0.5317459106445312    0.3373374938964844 Se
   0.9978184103965759    0.5317459106445312    0.1626625061035156 Se
   0.5021815896034241    0.4682541191577911    0.6626625061035156 Se
   0.0142577188089490    0.2821593582630157    0.4816842377185822 Cs
   0.4857422709465027    0.7178406715393066    0.9816842079162598 Cs
   0.9965680241584778    0.7962179183959961    0.6566845774650574 Se
   0.5034319758415222    0.2037820816040039    0.1566846370697021 Se
   0.7280313968658447    0.9813460111618042    0.7592839598655701 Se
   0.7719686031341553    0.0186539888381958    0.2592840194702148 Se
   0.2719686031341553    0.0186539888381958    0.2407160401344299 Se
   0.2280313968658447    0.9813460111618042    0.7407160401344299 Se
