Ca4 Cl8
1.0
   8.7012281417846680    0.0000000000000000    0.0000000000000000
   0.0000000000000000    8.7012281417846680    0.0000000000000000
   0.0000000000000000    0.0000000000000000    4.3405470848083496
Ca Cl
4 8
direct
   0.2073701918125153    0.7754589915275574    0.5454405546188354 Ca
   0.7926298379898071    0.2245410084724426    0.5454405546188354 Ca
   0.7245410084724426    0.7073701620101929    0.0454405546188354 Ca
   0.2754590511322021    0.2926298081874847    0.0454405546188354 Ca
   0.2057121247053146    0.4406806528568268    0.5426236987113953 Cl
   0.7942878603935242    0.5593193769454956    0.5426236987113953 Cl
   0.0593193471431732    0.7057121396064758    0.0426237583160400 Cl
   0.9406806230545044    0.2942878603935242    0.0426237583160400 Cl
   0.7057121396064758    0.0593193471431732    0.0426237583160400 Cl
   0.2942878603935242    0.9406806230545044    0.0426237583160400 Cl
   0.5593193769454956    0.7942878603935242    0.5426236987113953 Cl
   0.4406806528568268    0.2057121247053146    0.5426236987113953 Cl
