Na2 Ca2 Ti2 Al2 S6 Cl2
1.0
   6.8235931396484375    0.0000000000000000   -0.8686971664428711
   0.0000000000000000    7.0445570945739746    0.0000000000000000
  -0.8686972856521606    0.0000000000000000    7.7386550903320312
Cl Na Ti Ca S Al
2 2 2 2 6 2
direct
   0.8258666396141052    0.0399304293096066    0.2617243230342865 Cl
   0.8258666396141052    0.9600695967674255    0.7617243528366089 Cl
   0.1738138496875763    0.8792746067047119    0.2967891991138458 Na
   0.1738138496875763    0.1207253932952881    0.7967891693115234 Na
   0.6060334444046021    0.4102130532264709    0.6264762282371521 Ti
   0.6060334444046021    0.5897869467735291    0.1264762878417969 Ti
   0.1034465879201889    0.3688104450702667    0.2917147576808929 Ca
   0.1034465879201889    0.6311895847320557    0.7917147874832153 Ca
   0.8216200470924377    0.5521237254142761    0.4488083720207214 S
   0.8216200470924377    0.4478762745857239    0.9488083720207214 S
   0.4114149212837219    0.1486646384000778    0.5145776271820068 S
   0.4114149212837219    0.8513353466987610    0.0145776271820068 S
   0.3694857656955719    0.6368740797042847    0.5288021564483643 S
   0.3694857656955719    0.3631259202957153    0.0288021564483643 S
   0.6243540048599243    0.1398665457963943    0.9933751821517944 Al
   0.6243540048599243    0.8601334691047668    0.4933751821517944 Al
