Ni1 S1 O4
1.0
   4.3063101768493652   -1.1538720130920410    0.0000000000000000
  -1.1538720130920410    4.3063101768493652    0.0000000000000000
   0.0000000000000000    0.0000000000000000    5.1767201423645020
O Ni S O
2 1 1 2
direct
   0.3200014233589172    0.7408739924430847    0.2671911120414734 O
   0.5791274309158325    0.3200014233589172    0.2671911120414734 O
   0.8744199872016907    0.1392737478017807    0.9520384073257446 Ni
   0.4641338288784027    0.5810977220535278    0.4892215132713318 S
   0.7333815693855286    0.3855004608631134    0.7232586741447449 O
   0.3478811085224152    0.7333815693855286    0.7232586741447449 O
