Cl8 O8
1.0
   7.4121490564774968    0.0000000077045118   -0.0000000380932099
   0.0000000085475660    7.1572178521241039    0.0026022290182348
  -0.0000000473983755    0.0036910951090451    8.1575246571613107
Cl O
8 8
direct
   0.9010588033920407   -0.0151245869365658    0.1641566947687539 Cl
   0.4678187991191551    1.0069926161647318    0.1075720067226513 Cl
   0.0321811881141524    0.4930074239224955    0.3924280025349925 Cl
   0.5989412252964986    0.5151245847158076    0.3358432711368947 Cl
   0.4678187706050035    0.4930074086920604    0.8924279927246692 Cl
   0.9010588497577107    0.5151245598946503    0.8358432745206058 Cl
   0.5989412012510076   -0.0151246150322074    0.6641567218555530 Cl
   0.0321812283795501    1.0069925956056593    0.6075719592798670 Cl
   0.4032710307783097    0.9278420247072932    0.7133509359279736 O
   0.0967289776981546    0.5721580430709604    0.7866490279231433 O
   0.5983569480303547    0.4317790055310399    0.7462978875644938 O
   0.9016430871616509    0.0682209565455669    0.7537021050915309 O
   0.9016430545999538    0.4317790046164151    0.2462978658226087 O
   0.5983569471902644    0.0682209982312165    0.2537021482041782 O
   0.0967289444268375    0.9278419650412967    0.2133509316132057 O
   0.4032710535069760    0.5721579919115690    0.2866490639366022 O
