Si1 P4 O13
1.0
   6.4496335983276367    0.0000000000000000    0.0000000000000000
   0.0000000000000000    6.4496335983276367    0.0000000000000000
   0.0000000000000000    0.0000000000000000    6.7558188438415527
O P O Si
5 4 8 1
direct
   0.7206258177757263    0.4183096587657928    0.1877291202545166 O
   0.2793741822242737    0.5816903114318848    0.1877291202545166 O
   0.4183096587657928    0.2793741822242737    0.8122708797454834 O
   0.5816903114318848    0.7206258177757263    0.8122708797454834 O
   0.9070535898208618    0.0095531027764082    0.9414885640144348 O
   0.6849781870841980    0.3068044483661652    0.3649944365024567 P
   0.3150218129158020    0.6931955814361572    0.3649944365024567 P
   0.3068044483661652    0.3150218129158020    0.6350055932998657 P
   0.6931955814361572    0.6849781870841980    0.6350055932998657 P
   0.5711967945098877    0.7424082756042480    0.4375782012939453 O
   0.4288032054901123    0.2575917243957520    0.4375782012939453 O
   0.7424082756042480    0.4288032054901123    0.5624217987060547 O
   0.2575917243957520    0.5711967945098877    0.5624217987060547 O
   0.8760873675346375    0.8176386356353760    0.6618788242340088 O
   0.1239126324653625    0.1823613643646240    0.6618788242340088 O
   0.8176386356353760    0.1239126324653625    0.3381211757659912 O
   0.1823613643646240    0.8760873675346375    0.3381211757659912 O
   0.9511576294898987    0.0325538367033005    0.7432314753532410 Si
