F6
1.0
   4.1487355232238770   -1.1116503477096558    0.0000000000000000
  -1.1116503477096558    4.1487355232238770    0.0000000000000000
   0.0000000000000000    0.0000000000000000    5.1005573272705078
F
6
direct
   0.2616325616836548    0.3850437104701996    0.5867828726768494 F
   0.6149562597274780    0.8765888214111328    0.5867828726768494 F
   0.1234111487865448    0.7383674383163452    0.5367943644523621 F
   0.7383674383163452    0.6149562597274780    0.0367951989173889 F
   0.3850437104701996    0.1234111487865448    0.0367951989173889 F
   0.8765888214111328    0.2616325616836548    0.0867829322814941 F
