H4 N4
1.0
   3.8712515830993652    0.0000000000000000    0.0000000000000000
   0.0000000000000000    4.9399533271789551    0.0000000000000000
   0.0000000000000000    0.0000000000000000    4.4031276702880859
H N
4 4
direct
   0.7313849329948425    0.9003957509994507    0.0142092006281018 H
   0.7313849329948425    0.0996042490005493    0.4857907891273499 H
   0.2686150670051575    0.4003957509994507    0.4857907891273499 H
   0.2686150670051575    0.5996042490005493    0.0142092006281018 H
   0.2061448544263840    0.5114452838897705    0.2578831613063812 N
   0.2938551306724548    0.4885547161102295    0.7578831911087036 N
   0.7061448693275452    0.0114452838897705    0.7578831911087036 N
   0.7938551306724548    0.9885547161102295    0.2578831613063812 N
