Ba2 Sr2 Br4
1.0
   6.8659830093383789    0.0000000000000000    0.0000000000000000
   0.0000000000000000    7.5489039421081543    0.0000000000000000
   0.0000000000000000    0.0000000000000000    6.9692969322204590
Br Sr Ba
4 2 2
direct
   0.7553800344467163    0.2379857748746872    0.7472109794616699 Br
   0.2446199655532837    0.7620142102241516    0.7472109794616699 Br
   0.2553800344467163    0.2620142102241516    0.2472109794616699 Br
   0.7446199655532837    0.7379857897758484    0.2472109794616699 Br
   0.7467010617256165    0.7771524786949158    0.7543478608131409 Sr
   0.7532989382743835    0.2771525382995605    0.2543478012084961 Sr
   0.2516488730907440    0.2711515128612518    0.7568550109863281 Ba
   0.2483511269092560    0.7711515426635742    0.2568550109863281 Ba
