Al2 Sb4 O14
1.0
   5.3871194084672718   -0.0104336961007713    0.5463063166530129
  -0.0463943692121854    6.5594839746831459    0.1022406288512955
   0.5810048404073054    0.1376692848671673    7.6543931140306523
Al O Sb O
2 10 4 4
direct
   0.8966897872273503    0.7131723084342442    0.8372616064194166 Al
   0.3966897807883006    0.2131723070279276    0.3372616007821315 Al
   1.0666600119051994    0.9649721344257053    0.8288602887659122 O
   0.5666600451054349    0.4649720979445575    0.3288602852111913 O
   0.2845324468348313    0.2629221289333292    0.5764540031579284 O
   0.7539114941241031    0.7315727221132343    0.6378995452819661 O
   0.3101297731085272    0.7242748241229648    0.5164409571726983 O
   0.7547663060114111    0.2761104475998176    0.5895716768477024 O
   0.7845325212062672    0.7629220748755290    0.0764540268932992 O
   0.2539114681612960    0.2315727727407329    0.1378995908091240 O
   0.8101297781883215    0.2242748166306949    0.0164409929411580 O
   0.2547664293082064    0.7761105299524410    0.0895716396367987 O
   0.4663182758310379    0.7500389351785911    0.2647453179870934 Sb
  -0.0336817558349199    0.2500389656602883    0.7647453664856151 Sb
   0.4959832328185754    0.5085348562153686    0.6275584874947635 Sb
  -0.0040167694758980    1.0085348571292452    0.1275584601001984 Sb
   0.1370918492517752    0.5133062188147082    0.8078249009701778 O
   0.6313135667362524    0.5121682533624157    0.8569236679501059 O
   0.6370918342919626    1.0133061990331040    0.3078249008433680 O
   0.1313135143445446    0.0121682719476274    0.3569236691756909 O
