Rb4 Al2 Pb2 F12
1.0
   5.6356029510498047    0.0000000000000000    0.0000000000000000
   0.0000000000000000    6.3086681365966797    0.0000000000000000
   0.0000000000000000    0.0000000000000000   10.8729200363159180
Pb F Rb F Al
2 4 4 8 2
direct
   0.2481637597084045    0.2617830336093903    0.5012468695640564 Pb
   0.7518362402915955    0.7617830038070679    0.4987531304359436 Pb
   0.0598303116858006    0.8746417164802551    0.1457413136959076 F
   0.4401696920394897    0.6253582835197449    0.1457413136959076 F
   0.9401696920394897    0.3746416568756104    0.8542586565017700 F
   0.5598303079605103    0.1253582835197449    0.8542586565017700 F
   0.0479092001914978    0.9502120018005371    0.8744202256202698 Rb
   0.4520907998085022    0.5497879981994629    0.8744202256202698 Rb
   0.9520907998085022    0.4502120018005371    0.1255797743797302 Rb
   0.5479092001914978    0.0497879981994629    0.1255797743797302 Rb
   0.4481363892555237    0.5483937859535217    0.3633750975131989 F
   0.0518636107444763    0.9516062140464783    0.3633750975131989 F
   0.5518636107444763    0.0483937263488770    0.6366249322891235 F
   0.9481363892555237    0.4516062140464783    0.6366249322891235 F
   0.5518636107444763    0.4516062140464783    0.6366249322891235 F
   0.9481363892555237    0.0483937263488770    0.6366249322891235 F
   0.4481363892555237    0.9516062140464783    0.3633750975131989 F
   0.0518636107444763    0.5483937859535217    0.3633750975131989 F
   0.2425627410411835    0.7528666257858276    0.2935959398746490 Al
   0.7574372291564941    0.2528666257858276    0.7064040899276733 Al
