Sr2 Se8
1.0
   6.4492368698120117    0.0000000000000000    0.0000000000000000
   0.0000000000000000    6.4492368698120117    0.0000000000000000
   0.0000000000000000    0.0000000000000000    7.9309091567993164
Se Sr
8 2
direct
   0.9870467782020569    0.8429326415061951    0.3949614763259888 Se
   0.5129532217979431    0.6570673584938049    0.3949614763259888 Se
   0.6570673584938049    0.9870467782020569    0.8949614763259888 Se
   0.8429326415061951    0.5129532217979431    0.8949614763259888 Se
   0.0129532217979431    0.1570673584938049    0.6050385236740112 Se
   0.4870467185974121    0.3429327011108398    0.6050385236740112 Se
   0.3429327011108398    0.0129532217979431    0.1050385236740112 Se
   0.1570673584938049    0.4870467185974121    0.1050385236740112 Se
   0.7409167885780334    0.2674821615219116    0.2564221024513245 Sr
   0.2325178384780884    0.7409167885780334    0.7564221024513245 Sr
