Al2 H8 N4
1.0
   4.4558048248291016    0.0000000000000000    0.0000000000000000
   0.0000000000000000    5.1390099525451660    0.0000000000000000
   0.0000000000000000    0.0000000000000000    4.2799391746520996
N H Al
4 8 2
direct
   0.7522224783897400    0.7419366836547852    0.7393109798431396 N
   0.2477775216102600    0.2580633163452148    0.7393109798431396 N
   0.2522225379943848    0.7580633163452148    0.2393109798431396 N
   0.7477775216102600    0.2419366836547852    0.2393109798431396 N
   0.7937449216842651    0.0977846980094910    0.0492889322340488 H
   0.2062550783157349    0.9022153019905090    0.0492889322340488 H
   0.2937449216842651    0.4022153019905090    0.5492889285087585 H
   0.7062550783157349    0.5977846980094910    0.5492889285087585 H
   0.9424782395362854    0.2084091603755951    0.4209095835685730 H
   0.0575217604637146    0.7915908098220825    0.4209095835685730 H
   0.4424781799316406    0.2915908396244049    0.9209095835685730 H
   0.5575217604637146    0.7084091901779175    0.9209095835685730 H
   0.5008978843688965    0.9999366998672485    0.5014168620109558 Al
   0.9991021156311035    0.4999366998672485    0.0014169216156006 Al
