O12
1.0
   7.3784744391765180   -0.0000004353986856   -1.2686538635178120
  -0.0000003992604161    6.4867151043948210    0.0000000319352333
  -1.3075017008710834    0.0000000979512992    4.8721703115171975
O
12
direct
   0.6799913891426836    0.8000531948322541    0.1452167165827895 O
   0.3200086332679858    0.8000531891462669    0.3547833214802820 O
   0.3200085749211671    0.1999467316750741    0.8547832881831916 O
   0.6799913752229566    0.1999467516106118    0.6452166878816655 O
   0.2578441483931139    0.6630537049430985    0.9257821669957774 O
   0.7421557730351270    0.6630537374375198    0.5742178413194911 O
   0.7421558358822981    0.3369462111842638    0.0742178408432888 O
   0.2578442079941356    0.3369462630539633    0.4257822470073580 O
   0.7966604707323857    0.2205032211843613    0.9169568821492786 O
   0.2033395521029679    0.2205032882009691    0.5830431057809603 O
   0.2033395309459002    0.7794967364077601    0.0830431265769599 O
   0.7966604683324291    0.7794966799616996    0.4169569188111415 O
