Hg8 Cl8
1.0
   9.2568435668945312    0.0000000000000000    0.0000000000000000
   0.0000000000000000    9.2568435668945312    0.0000000000000000
   0.0000000000000000    0.0000000000000000    6.2162656784057617
Hg Cl
8 8
direct
   0.3049320876598358    0.1001319214701653    0.0106307212263346 Hg
   0.6950678825378418    0.8998680710792542    0.0106307212263346 Hg
   0.1001319214701653    0.6950678825378418    0.9893692731857300 Hg
   0.8998680710792542    0.3049320876598358    0.9893692731857300 Hg
   0.8049321174621582    0.6001319289207458    0.5106307268142700 Hg
   0.1950679123401642    0.3998680710792542    0.5106307268142700 Hg
   0.6001319289207458    0.1950679123401642    0.4893692731857300 Hg
   0.3998680710792542    0.8049321174621582    0.4893692731857300 Hg
   0.3797844052314758    0.8157539963722229    0.9896855354309082 Cl
   0.6202155947685242    0.1842460036277771    0.9896855354309082 Cl
   0.8157539963722229    0.6202155947685242    0.0103144645690918 Cl
   0.1842460036277771    0.3797844052314758    0.0103144645690918 Cl
   0.8797844052314758    0.3157539367675781    0.4896855354309082 Cl
   0.1202155947685242    0.6842460036277771    0.4896855354309082 Cl
   0.3157539367675781    0.1202155947685242    0.5103144645690918 Cl
   0.6842460036277771    0.8797844052314758    0.5103144645690918 Cl
