Al4 Br12
1.0
   8.2025394439697266    0.0000000000000000    0.0000000000000000
   0.0000000000000000    7.6453948020935059    0.0000000000000000
   0.0000000000000000    0.0000000000000000   10.9471473693847656
Br Al Br
4 4 8
direct
   0.5093214511871338    0.0059719518758357    0.0440973043441772 Br
   0.9906785488128662    0.5059719681739807    0.5440973043441772 Br
   0.4950309693813324    0.4934718012809753    0.5438656806945801 Br
   0.0049690306186676    0.9934718012809753    0.0438656806945801 Br
   0.2514589726924896    0.6814129352569580    0.5427793264389038 Al
   0.7485409975051880    0.3185870647430420    0.5427793264389038 Al
   0.7514590024948120    0.8185870647430420    0.0427793264389038 Al
   0.2485410273075104    0.1814129352569580    0.0427793264389038 Al
   0.2467949837446213    0.3289699256420135    0.8704929351806641 Br
   0.7532050013542175    0.6710300445556641    0.8704929351806641 Br
   0.7467949986457825    0.1710300743579865    0.3704929351806641 Br
   0.2532050013542175    0.8289699554443359    0.3704929351806641 Br
   0.2633853852748871    0.8586341142654419    0.6919414997100830 Br
   0.7366145849227905    0.1413658857345581    0.6919414997100830 Br
   0.7633854150772095    0.6413658857345581    0.1919414997100830 Br
   0.2366146147251129    0.3586341142654419    0.1919414997100830 Br
