H8
1.0
   4.3446149826049805    0.0000000000000000    0.0000000000000000
   0.0000000000000000    4.3446149826049805    0.0000000000000000
   0.0000000000000000    0.0000000000000000    4.3446149826049805
H
8
direct
   0.2673016190528870    0.7511323690414429    0.6556830406188965 H
   0.7326983809471130    0.2488676309585571    0.6556830406188965 H
   0.2488676309585571    0.2673016190528870    0.3443169593811035 H
   0.7511323690414429    0.7326983809471130    0.3443169593811035 H
   0.7326983809471130    0.2488676309585571    0.3443169593811035 H
   0.2673016190528870    0.7511323690414429    0.3443169593811035 H
   0.7511323690414429    0.7326983809471130    0.6556830406188965 H
   0.2488676309585571    0.2673016190528870    0.6556830406188965 H
