I16
1.0
   3.7959525585174561    0.0000000000000000    0.0000000000000000
   0.0000000000000000    3.7959525585174561    0.0000000000000000
   0.0000000000000000    0.0000000000000000    4.1528244018554688
I
16
direct
   0.7312309145927429    0.6027565002441406    0.3219675719738007 I
   0.7312309145927429    0.6027565002441406    0.3219675719738007 I
   0.7312309145927429    0.6027565002441406    0.3219675719738007 I
   0.7312309145927429    0.6027565002441406    0.3219675719738007 I
   0.2312309741973877    0.1027565002441406    0.8219676017761230 I
   0.7312309145927429    0.6027565002441406    0.3219675719738007 I
   0.7312309145927429    0.6027565002441406    0.3219675719738007 I
   0.7312309145927429    0.6027565002441406    0.3219675719738007 I
   0.7312309145927429    0.6027565002441406    0.3219675719738007 I
   0.7312309145927429    0.6027565002441406    0.3219675719738007 I
   0.7312309145927429    0.6027565002441406    0.3219675719738007 I
   0.0966026782989502    0.7675435543060303    0.0199745893478394 I
   0.7312309145927429    0.6027565002441406    0.3219675719738007 I
   0.7312309145927429    0.6027565002441406    0.3219675719738007 I
   0.7312309145927429    0.6027565002441406    0.3219675719738007 I
   0.5966026782989502    0.2675436139106750    0.5199729204177856 I
