Si4 Ge2 O12
1.0
   6.1482105255126953    0.0000000000000000    0.0000000000000000
   0.0000000000000000    8.7540283203125000    0.0000000000000000
   0.0000000000000000    0.0000000000000000    4.5325040817260742
Ge O Si O
2 6 4 6
direct
   0.0575707107782364    0.9091508388519287    0.4825222790241241 Ge
   0.5575706958770752    0.4091508388519287    0.4825222790241241 Ge
   0.1889749616384506    0.1086422801017761    0.6654131412506104 O
   0.8110250234603882    0.8913577198982239    0.6654131412506104 O
   0.6889749765396118    0.6086422801017761    0.6654131412506104 O
   0.3110250234603882    0.3913577198982239    0.6654131412506104 O
   0.2136455327272415    0.7958823442459106    0.6727530956268311 O
   0.7136455178260803    0.2958823442459106    0.6727530956268311 O
   0.2512325048446655    0.2479597032070160    0.9658525586128235 Si
   0.2512325048446655    0.7520402669906616    0.9658525586128235 Si
   0.7487674951553345    0.7520402669906616    0.9658525586128235 Si
   0.7487674951553345    0.2479597032070160    0.9658525586128235 Si
   0.3668562769889832    0.9985172152519226    0.1250899434089661 O
   0.8668562769889832    0.4985172748565674    0.1250899434089661 O
   0.0131770838052034    0.7968935966491699    0.1244341954588890 O
   0.9868229031562805    0.2031064033508301    0.1244341954588890 O
   0.5131770968437195    0.2968935966491699    0.1244341954588890 O
   0.4868229031562805    0.7031064033508301    0.1244341954588890 O
