Nb4 Cl8
1.0
   6.3897848129272461    0.0000000000000000    0.0000000000000000
   0.0000000000000000    9.1346235275268555    0.0000000000000000
   0.0000000000000000    0.0000000000000000    6.2004098892211914
Cl Nb
8 4
direct
   0.9665504097938538    0.1224477440118790    0.2675288021564484 Cl
   0.5334495902061462    0.3775522708892822    0.2675288021564484 Cl
   0.0334495902061462    0.6224477291107178    0.2324711978435516 Cl
   0.4665503501892090    0.8775522708892822    0.2324711978435516 Cl
   0.0334495902061462    0.8775522708892822    0.7324712276458740 Cl
   0.4665503501892090    0.6224477291107178    0.7324712276458740 Cl
   0.9665504097938538    0.3775522708892822    0.7675287723541260 Cl
   0.5334495902061462    0.1224477440118790    0.7675287723541260 Cl
   0.6196225285530090    0.3836765885353088    0.6797481179237366 Nb
   0.3803774714469910    0.8836765885353088    0.8202518820762634 Nb
   0.3803774714469910    0.6163234114646912    0.3202518820762634 Nb
   0.6196225285530090    0.1163234114646912    0.1797480583190918 Nb
