Mo3 S6
1.0
   5.6858634948730469   -1.5235223770141602    0.0000000000000000
  -1.5235223770141602    5.6858634948730469    0.0000000000000000
   0.0000000000000000    0.0000000000000000    7.2143373489379883
Mo S
3 6
direct
   0.7559955120086670    0.2436362206935883    0.8739346861839294 Mo
   0.7563637495040894    0.5123592615127563    0.5406013727188110 Mo
   0.4876407384872437    0.2440044879913330    0.2072679996490479 Mo
   0.5008789896965027    0.4839114546775818    0.4030780196189880 S
   0.5160885453224182    0.0169675350189209    0.0697447061538696 S
   0.9830324649810791    0.4991210103034973    0.7364113330841064 S
   0.5160885453224182    0.4991210103034973    0.9302552938461304 S
   0.9830324649810791    0.4839114546775818    0.2635886669158936 S
   0.5008789896965027    0.0169675350189209    0.5969219803810120 S
