Rb3 Bi6 Pb1 Cl6
1.0
   8.8787031173706055    0.0000000000000000    0.0000000000000000
   0.0000000000000000    8.8787031173706055    0.0000000000000000
   0.0000000000000000    0.0000000000000000    8.8787031173706055
Bi Rb Cl Pb
6 3 6 1
direct
   0.4200815558433533    0.9219207763671875    0.9159009456634521 Bi
   0.5799184441566467    0.0780792236328125    0.0840990543365479 Bi
   0.0780792236328125    0.4200815558433533    0.9159009456634521 Bi
   0.9219207763671875    0.5799184441566467    0.0840990543365479 Bi
   0.9159009456634521    0.0780792236328125    0.4200815558433533 Bi
   0.0840990543365479    0.9219207763671875    0.5799184441566467 Bi
   0.3979181647300720    0.2756605744361877    0.9688630104064941 Rb
   0.7243394255638123    0.3979181647300720    0.9688630104064941 Rb
   0.9688630104064941    0.7243394255638123    0.3979181647300720 Rb
   0.2723694741725922    0.2716444432735443    0.2897572815418243 Cl
   0.7276304960250854    0.7283555269241333    0.7102427482604980 Cl
   0.7283555269241333    0.2723694741725922    0.2897572815418243 Cl
   0.2716444432735443    0.7276304960250854    0.7102427482604980 Cl
   0.2897572815418243    0.7283555269241333    0.2723694741725922 Cl
   0.7102427482604980    0.2716444432735443    0.7276304960250854 Cl
   0.3978690207004547    0.4746787548065186    0.4902063608169556 Pb
