K2 S12
1.0
   7.8084449768066406   -2.0922665596008301    0.0000000000000000
  -2.0922665596008301    7.8084449768066406    0.0000000000000000
   0.0000000000000000    0.0000000000000000    7.5751781463623047
K S
2 12
direct
   0.5916678905487061    0.2213113158941269    0.7490031719207764 K
   0.7786886692047119    0.4083321094512939    0.2509968280792236 K
   0.6390621066093445    0.9159309864044189    0.1099885329604149 S
   0.0840690135955811    0.7231311202049255    0.1099885329604149 S
   0.2768688797950745    0.3609378933906555    0.1099885329604149 S
   0.6390621066093445    0.9159309864044189    0.3900114595890045 S
   0.0840690135955811    0.7231311202049255    0.3900114595890045 S
   0.2768688797950745    0.3609378933906555    0.3900114595890045 S
   0.0840690135955811    0.3609378933906555    0.6099885106086731 S
   0.2768688797950745    0.9159309864044189    0.6099885106086731 S
   0.6390621066093445    0.7231311202049255    0.6099885106086731 S
   0.0840690135955811    0.3609378933906555    0.8900114893913269 S
   0.2768688797950745    0.9159309864044189    0.8900114893913269 S
   0.6390621066093445    0.7231311202049255    0.8900114893913269 S
