Zr16
1.0
   7.1019911766052246    0.0000000000000000    0.0000000000000000
   0.0000000000000000    7.1019911766052246    0.0000000000000000
   0.0000000000000000    0.0000000000000000    7.1019911766052246
Zr
16
direct
   0.1873978078365326    0.6673547625541687    0.6039995551109314 Zr
   0.6873978376388550    0.1673548221588135    0.1039996147155762 Zr
   0.1873978078365326    0.1673548221588135    0.1039996147155762 Zr
   0.6873978376388550    0.6673547625541687    0.6039995551109314 Zr
   0.6873978376388550    0.6673547625541687    0.1039996147155762 Zr
   0.1873978078365326    0.1673548221588135    0.6039995551109314 Zr
   0.6873978376388550    0.1673548221588135    0.6039995551109314 Zr
   0.1873978078365326    0.6673547625541687    0.1039996147155762 Zr
   0.4373978078365326    0.9173547625541687    0.8539995551109314 Zr
   0.9373978376388550    0.4173548221588135    0.3539996147155762 Zr
   0.4373978078365326    0.4173548221588135    0.3539996147155762 Zr
   0.9373978376388550    0.9173547625541687    0.8539995551109314 Zr
   0.9373978376388550    0.9173547625541687    0.3539996147155762 Zr
   0.4373978078365326    0.4173548221588135    0.8539995551109314 Zr
   0.9373978376388550    0.4173548221588135    0.8539995551109314 Zr
   0.4373978078365326    0.9173547625541687    0.3539996147155762 Zr
