C8 N12
1.0
   6.5618777275085449    0.0000000000000000    0.0000000000000000
   0.0000000000000000    6.5618777275085449    0.0000000000000000
   0.0000000000000000    0.0000000000000000    6.5618777275085449
N C
12 8
direct
   0.4551747739315033    0.1801509410142899    0.2534921467304230 N
   0.5448251962661743    0.8198490738868713    0.7465078830718994 N
   0.2534921467304230    0.4551747739315033    0.1801509410142899 N
   0.7465078830718994    0.5448251962661743    0.8198490738868713 N
   0.1801509410142899    0.2534921467304230    0.4551747739315033 N
   0.8198490738868713    0.7465078830718994    0.5448251962661743 N
   0.4551747739315033    0.2534921467304230    0.8198490738868713 N
   0.5448251962661743    0.7465078830718994    0.1801509410142899 N
   0.8198490738868713    0.4551747739315033    0.2534921467304230 N
   0.1801509410142899    0.5448251962661743    0.7465078830718994 N
   0.2534921467304230    0.8198490738868713    0.4551747739315033 N
   0.7465078830718994    0.1801509410142899    0.5448251962661743 N
   0.3292491734027863    0.7192475199699402    0.3069603443145752 C
   0.6707508563995361    0.2807524800300598    0.3069603443145752 C
   0.2807524800300598    0.3292491734027863    0.6930396556854248 C
   0.7192475199699402    0.6707508563995361    0.6930396556854248 C
   0.6707508563995361    0.2807524800300598    0.6930396556854248 C
   0.3292491734027863    0.7192475199699402    0.6930396556854248 C
   0.7192475199699402    0.6707508563995361    0.3069603443145752 C
   0.2807524800300598    0.3292491734027863    0.3069603443145752 C
