Ba4 H4 O4
1.0
   6.7635517120361328    0.0000000000000000    0.0000000000000000
   0.0000000000000000    7.5028324127197266    0.0000000000000000
   0.0000000000000000    0.0000000000000000    4.7644319534301758
Ba H O
4 4 4
direct
   0.8133653402328491    0.4068592786788940    0.3535932898521423 Ba
   0.1866346597671509    0.5931407213211060    0.8535932898521423 Ba
   0.3133653402328491    0.0931407213211060    0.3535932898521423 Ba
   0.6866346597671509    0.9068592786788940    0.8535932898521423 Ba
   0.5913208723068237    0.3681463897228241    0.7964983582496643 H
   0.4086791276931763    0.6318535804748535    0.2964982986450195 H
   0.0913208723068237    0.1318536102771759    0.7964983582496643 H
   0.9086791276931763    0.8681464195251465    0.2964982986450195 H
   0.0042835623025894    0.1883433163166046    0.9244988560676575 O
   0.9957164525985718    0.8116567134857178    0.4244987964630127 O
   0.5042835474014282    0.3116566836833954    0.9244988560676575 O
   0.4957164525985718    0.6883432865142822    0.4244987964630127 O
