O12
1.0
   7.3768491744995117    0.0000000000000000   -1.3042149543762207
   0.0000000000000000    6.6480627059936523    0.0000000000000000
  -1.3042151927947998    0.0000000000000000    5.0329084396362305
O
12
direct
   0.5798216462135315    0.8598772287368774    0.1409946233034134 O
   0.4201783537864685    0.8598772287368774    0.3590053915977478 O
   0.4201783537864685    0.1401227712631226    0.8590053915977478 O
   0.5798216462135315    0.1401227712631226    0.6409946084022522 O
   0.2047999650239944    0.6585708260536194    0.8996683955192566 O
   0.7952000498771667    0.6585708260536194    0.6003316044807434 O
   0.7952000498771667    0.3414291739463806    0.1003316044807434 O
   0.2047999650239944    0.3414291739463806    0.3996684551239014 O
   0.7047999501228333    0.1585707664489746    0.8996683955192566 O
   0.2952000498771667    0.1585707664489746    0.6003316044807434 O
   0.2952000498771667    0.8414291739463806    0.1003316044807434 O
   0.7047999501228333    0.8414291739463806    0.3996684551239014 O
