Te12
1.0
   7.9398612976074219    0.0000000000000000    0.0000000000000000
   0.0000000000000000    7.9398612976074219    0.0000000000000000
   0.0000000000000000    0.0000000000000000    7.9398612976074219
Te
12
direct
   0.7837154865264893    0.5894536972045898    0.3828583955764771 Te
   0.2162845134735107    0.4105463027954102    0.6171416044235229 Te
   0.3828583955764771    0.7837154865264893    0.5894536972045898 Te
   0.6171416044235229    0.2162845134735107    0.4105463027954102 Te
   0.5894536972045898    0.3828583955764771    0.7837154865264893 Te
   0.4105463027954102    0.6171416044235229    0.2162845134735107 Te
   0.2837154865264893    0.0894536972045898    0.8828583955764771 Te
   0.7162845134735107    0.9105463027954102    0.1171416044235229 Te
   0.8828583955764771    0.2837154865264893    0.0894536972045898 Te
   0.1171416044235229    0.7162845134735107    0.9105463027954102 Te
   0.0894536972045898    0.8828583955764771    0.2837154865264893 Te
   0.9105463027954102    0.1171416044235229    0.7162845134735107 Te
