Cu4 Se8
1.0
   5.1187429428100586    0.0000000000000000    0.0000000000000000
   0.0000000000000000    5.1187429428100586    0.0000000000000000
   0.0000000000000000    0.0000000000000000   10.9057388305664062
Cu Se
4 8
direct
   0.9993759393692017    0.5030550956726074    0.3048372566699982 Cu
   0.0006240606307983    0.4969449043273926    0.8048372268676758 Cu
   0.4969449043273926    0.9993759393692017    0.0548372268676758 Cu
   0.5030550956726074    0.0006240606307983    0.5548372268676758 Cu
   0.7480064630508423    0.7497561573982239    0.9244268536567688 Se
   0.2519935369491577    0.2502438426017761    0.4244267940521240 Se
   0.2502438426017761    0.7480064630508423    0.6744267940521240 Se
   0.7497561573982239    0.2519935369491577    0.1744267940521240 Se
   0.2523404955863953    0.2510337233543396    0.9254544377326965 Se
   0.7476595044136047    0.7489662766456604    0.4254543781280518 Se
   0.7489662766456604    0.2523404955863953    0.6754543781280518 Se
   0.2510337233543396    0.7476595044136047    0.1754543781280518 Se
