Rb4 Mn2 F10
1.0
   6.7347412109375000    0.0000000000000000    0.0000000000000000
   0.0000000000000000    6.7347412109375000    0.0000000000000000
   0.0000000000000000    0.0000000000000000    7.8188352584838867
F Mn F Rb F Mn
2 1 4 4 4 1
direct
   0.3999438285827637    0.0524709373712540    0.3015629053115845 F
   0.0524709373712540    0.6000561714172363    0.6984370946884155 F
   0.0793656632304192    0.9968741536140442    0.4377582669258118 Mn
   0.7972545623779297    0.0950223132967949    0.5936504006385803 F
   0.2027454376220703    0.9049776792526245    0.5936504006385803 F
   0.0950223132967949    0.2027454376220703    0.4063495993614197 F
   0.9049776792526245    0.7972545623779297    0.4063495993614197 F
   0.6125849485397339    0.7507815361022949    0.6872774362564087 Rb
   0.3874150514602661    0.2492184638977051    0.6872774362564087 Rb
   0.7507815361022949    0.3874150514602661    0.3127225637435913 Rb
   0.2492184638977051    0.6125849485397339    0.3127225637435913 Rb
   0.8116598129272461    0.6751796603202820    0.0293041728436947 F
   0.1883401870727539    0.3248203396797180    0.0293041728436947 F
   0.6751796603202820    0.1883401870727539    0.9706958532333374 F
   0.3248203396797180    0.8116598129272461    0.9706958532333374 F
   0.0778827592730522    0.6251943707466125    0.9261975288391113 Mn
