B2 H10
1.0
   4.8738021850585938    0.0000000000000000    0.0000000000000000
   0.0000000000000000    4.7704992294311523    0.0000000000000000
   0.0000000000000000    0.0000000000000000    6.0589747428894043
H B
10 2
direct
   0.6670710444450378    0.8684940338134766    0.3887322247028351 H
   0.8329289555549622    0.3684940338134766    0.6112678050994873 H
   0.8221399784088135    0.5003918409347534    0.0027894708327949 H
   0.1778600215911865    0.4996081590652466    0.0027894708327949 H
   0.6778600215911865    0.0003918409347534    0.9972105026245117 H
   0.3221399784088135    0.9996081590652466    0.9972105026245117 H
   0.4178054928779602    0.8690351843833923    0.7210096120834351 H
   0.0821945071220398    0.3690352439880371    0.2789903879165649 H
   0.4512451887130737    0.3663172125816345    0.5986183285713196 H
   0.0487548112869263    0.8663172125816345    0.4013816714286804 H
   0.0289807803928852    0.4233357608318329    0.0991026312112808 B
   0.4710192084312439    0.9233357906341553    0.9008973836898804 B
