Hg4 Cl12
1.0
   9.7603836059570312   -2.6152873039245605    0.0000000000000000
  -2.6152873039245605    9.7603836059570312    0.0000000000000000
   0.0000000000000000    0.0000000000000000    6.3062167167663574
Cl Hg
12 4
direct
   0.2945574820041656    0.9177445173263550    0.2566346526145935 Cl
   0.0822554826736450    0.3768129348754883    0.2566346526145935 Cl
   0.6231870651245117    0.7054425477981567    0.2566346526145935 Cl
   0.7054425477981567    0.0822554826736450    0.2566346526145935 Cl
   0.9177445173263550    0.6231870651245117    0.2566346526145935 Cl
   0.3768129348754883    0.2945574820041656    0.2566346526145935 Cl
   0.7054425477981567    0.0822554826736450    0.7433653473854065 Cl
   0.9177445173263550    0.6231870651245117    0.7433653473854065 Cl
   0.3768129348754883    0.2945574820041656    0.7433653473854065 Cl
   0.2945574820041656    0.9177445173263550    0.7433653473854065 Cl
   0.0822554826736450    0.3768129348754883    0.7433653473854065 Cl
   0.6231870651245117    0.7054425477981567    0.7433653473854065 Cl
   0.8652993440628052    0.3674120008945465    0.2480102330446243 Hg
   0.4978873431682587    0.8652993440628052    0.2480102330446243 Hg
   0.1347006559371948    0.6325880289077759    0.7519897818565369 Hg
   0.5021126270294189    0.1347006559371948    0.7519897818565369 Hg
