Ta1 Ge12 P1
1.0
   6.4716539382934570    0.0000000000000000    0.0000000000000000
   0.0000000000000000    6.4716539382934570    0.0000000000000000
   0.0000000000000000    0.0000000000000000    6.4716539382934570
Ge Ta P
12 1 1
direct
   0.4288401305675507    0.1853961050510406    0.1929454356431961 Ge
   0.5711598396301270    0.8146039247512817    0.1929454356431961 Ge
   0.4288401305675507    0.1853961050510406    0.8070545792579651 Ge
   0.5711598396301270    0.8146039247512817    0.8070545792579651 Ge
   0.1853961050510406    0.5711598396301270    0.1929454356431961 Ge
   0.1853961050510406    0.5711598396301270    0.8070545792579651 Ge
   0.8146039247512817    0.4288401305675507    0.1929454356431961 Ge
   0.8146039247512817    0.4288401305675507    0.8070545792579651 Ge
   0.1929454356431961    0.1853961050510406    0.5711598396301270 Ge
   0.8070545792579651    0.1853961050510406    0.5711598396301270 Ge
   0.1929454356431961    0.8146039247512817    0.4288401305675507 Ge
   0.8070545792579651    0.8146039247512817    0.4288401305675507 Ge
   0.0644675046205521    0.8953453302383423    0.9810041785240173 Ta
   0.8623402118682861    0.1881073713302612    0.9765161871910095 P
