V1 O7
1.0
   4.7891073226928711    0.0000000000000000    0.0000000000000000
   0.0000000000000000    4.7891073226928711    0.0000000000000000
   0.0000000000000000    0.0000000000000000    4.7891073226928711
O V O
6 1 1
direct
   0.5441859364509583    0.0960006415843964    0.2815364599227905 O
   0.4558140635490417    0.9039993286132812    0.7184635400772095 O
   0.2815364599227905    0.5441859364509583    0.0960006415843964 O
   0.7184635400772095    0.4558140635490417    0.9039993286132812 O
   0.0960006415843964    0.2815364599227905    0.5441859364509583 O
   0.9039993286132812    0.7184635400772095    0.4558140635490417 O
   0.4313817024230957    0.2195167839527130    0.9871801137924194 V
   0.0935442149639130    0.0486783273518085    0.0000037027057260 O
