Na4 Li4 O8
1.0
   6.0119376182556152    0.0000000000000000    0.0000000000000000
   0.0000000000000000    5.8118925094604492    0.0000000000000000
   0.0000000000000000    0.0000000000000000    6.8117771148681641
Na Li O
4 4 8
direct
   0.5082048177719116    0.7660115957260132    0.3784367740154266 Na
   0.4917951822280884    0.2339884042739868    0.3784367740154266 Na
   0.0082048177719116    0.2339884042739868    0.3784367740154266 Na
   0.9917951822280884    0.7660115957260132    0.3784367740154266 Na
   0.5032411813735962    0.2249810844659805    0.9829770326614380 Li
   0.4967588186264038    0.7750189304351807    0.9829770326614380 Li
   0.0032411813735962    0.7750189304351807    0.9829770326614380 Li
   0.9967588186264038    0.2249810844659805    0.9829770326614380 Li
   0.9912242293357849    0.4982644617557526    0.1436921209096909 O
   0.5087757706642151    0.4982644617557526    0.1436921209096909 O
   0.2497170120477676    0.0010441732592881    0.1464972645044327 O
   0.7502830028533936    0.9989558458328247    0.1464972645044327 O
   0.4992445409297943    0.7340633869171143    0.7107875347137451 O
   0.5007554292678833    0.2659366130828857    0.7107875347137451 O
   0.9992445707321167    0.2659366130828857    0.7107875347137451 O
   0.0007554590702057    0.7340633869171143    0.7107875347137451 O
