Rb12 Sn4
1.0
   7.8278207778930664    0.0000000000000000    0.0000000000000000
   0.0000000000000000    8.8545484542846680    0.0000000000000000
   0.0000000000000000    0.0000000000000000   13.7859134674072266
Rb Sn Rb
4 4 8
direct
   0.4638674557209015    0.7565960288047791    0.7003234624862671 Rb
   0.0361325442790985    0.2434039711952209    0.2003234624862671 Rb
   0.5361325740814209    0.2565960884094238    0.2996765375137329 Rb
   0.9638674259185791    0.7434039711952209    0.7996765375137329 Rb
   0.9055203199386597    0.0648080632090569    0.4224684536457062 Sn
   0.5944796800613403    0.9351919293403625    0.9224684238433838 Sn
   0.0944796800613403    0.9351919293403625    0.5775315761566162 Sn
   0.4055203199386597    0.0648080632090569    0.0775315463542938 Sn
   0.8051008582115173    0.6120824813842773    0.4562435150146484 Rb
   0.6948991417884827    0.3879175186157227    0.9562435150146484 Rb
   0.1948991417884827    0.3879175186157227    0.5437564849853516 Rb
   0.3051009178161621    0.6120824813842773    0.0437564849853516 Rb
   0.6622669696807861    0.1715441346168518    0.6572611331939697 Rb
   0.8377330303192139    0.8284558653831482    0.1572611331939697 Rb
   0.3377330303192139    0.8284558653831482    0.3427388668060303 Rb
   0.1622669696807861    0.1715441346168518    0.8427388668060303 Rb
