Tc4 N4
1.0
   4.6228114974453769    0.2789309567021090   -0.4938907124202158
   0.2869935994047823    3.6718354313656372    0.1164138916107073
  -0.5315397143371090    0.1956861645399027    5.2395563815691606
N Tc N
2 4 2
direct
   0.1790626846024857    0.7757114080679469    0.7215219362600793 N
   0.7943801401197578    0.1121237175857564    0.2963492961923142 N
   0.4889014559139557    0.4422691126088534    0.0054644333864948 Tc
   0.0110985819639378    0.0577309103741457    0.9945355675460738 Tc
   0.9746039570969489    0.5591104976012223    0.3933595119199821 Tc
   0.5253960795944529    0.9408895337413624    0.6066405205224388 Tc
   0.7056198467065702    0.3878762911678947    0.7036506913652867 N
   0.3209373114102304    0.7242885603083496    0.2784781387655062 N
