Sn3 Se3
1.0
   4.9702835083007812   -1.3317834138870239    0.0000000000000000
  -1.3317834138870239    4.9702835083007812    0.0000000000000000
   0.0000000000000000    0.0000000000000000    8.2142105102539062
Sn Se
3 3
direct
   0.6746601462364197    0.6742523908615112    0.1271277219057083 Sn
   0.3257476091384888    0.0004077553749084    0.4604610800743103 Sn
   0.9995922446250916    0.3253398537635803    0.7937943935394287 Sn
   0.9839541316032410    0.3274293839931488    0.2958283126354218 Se
   0.6725705862045288    0.6565247774124146    0.6291616559028625 Se
   0.3434752225875854    0.0160458683967590    0.9624949693679810 Se
