Rb14
1.0
   9.4264659881591797   -2.5258138179779053    0.0000000000000000
  -2.5258138179779053    9.4264659881591797    0.0000000000000000
   0.0000000000000000    0.0000000000000000   14.1701021194458008
Rb
14
direct
   0.1579911708831787    0.3485498428344727    0.0935642048716545 Rb
   0.6514501571655273    0.8094413280487061    0.0935642048716545 Rb
   0.1905586719512939    0.8420088291168213    0.0935642048716545 Rb
   0.1579911708831787    0.3485498428344727    0.4064357876777649 Rb
   0.6514501571655273    0.8094413280487061    0.4064357876777649 Rb
   0.1905586719512939    0.8420088291168213    0.4064357876777649 Rb
   0.3485498428344727    0.1579911708831787    0.9064357876777649 Rb
   0.8094413280487061    0.6514501571655273    0.9064357876777649 Rb
   0.8420088291168213    0.1905586719512939    0.9064357876777649 Rb
   0.3485498428344727    0.1579911708831787    0.5935642123222351 Rb
   0.8094413280487061    0.6514501571655273    0.5935642123222351 Rb
   0.8420088291168213    0.1905586719512939    0.5935642123222351 Rb
   0.6501999497413635    0.3659776449203491    0.2522283494472504 Rb
   0.3659776449203491    0.6501999497413635    0.7522283792495728 Rb
