Zn4 Sb4 S8
1.0
   5.8128371238708496    0.0000000000000000    0.0000000000000000
   0.0000000000000000    5.8128371238708496    0.0000000000000000
   0.0000000000000000    0.0000000000000000   11.0766544342041016
Zn Sb S
4 4 8
direct
   0.4881540834903717    0.5114076733589172    0.0995380133390427 Zn
   0.4885923266410828    0.9881540536880493    0.3495380282402039 Zn
   0.0118459165096283    0.9885923266410828    0.5995380282402039 Zn
   0.0114076137542725    0.5118459463119507    0.8495380282402039 Zn
   0.4993045330047607    0.5082380771636963    0.6006186604499817 Sb
   0.4917619228363037    0.9993045330047607    0.8506186604499817 Sb
   0.0006954669952393    0.9917619228363037    0.1006186008453369 Sb
   0.0082380771636963    0.5006954669952393    0.3506186008453369 Sb
   0.2654782235622406    0.2481306046247482    0.2230942845344543 S
   0.2345217764377594    0.2518693804740906    0.7230942845344543 S
   0.7518693804740906    0.7654782533645630    0.4730942845344543 S
   0.7481306195259094    0.7345217466354370    0.9730942845344543 S
   0.7654782533645630    0.7481306195259094    0.7230942845344543 S
   0.7345217466354370    0.7518693804740906    0.2230942845344543 S
   0.2518693804740906    0.7345217466354370    0.9730942845344543 S
   0.2481306046247482    0.7654782533645630    0.4730942845344543 S
