C8 O12
1.0
   7.3942914009094238    0.0000000000000000    0.0000000000000000
   0.0000000000000000    7.3942914009094238    0.0000000000000000
   0.0000000000000000    0.0000000000000000    7.3942914009094238
O C
12 8
direct
   0.3249093890190125    0.1136615797877312    0.8781294226646423 O
   0.6750906109809875    0.8863384127616882    0.8781294226646423 O
   0.8863384127616882    0.3249093890190125    0.1218705773353577 O
   0.1136615797877312    0.6750906109809875    0.1218705773353577 O
   0.1218705773353577    0.8863384127616882    0.3249093890190125 O
   0.1218705773353577    0.1136615797877312    0.6750906109809875 O
   0.3863384127616882    0.8249093890190125    0.6218705773353577 O
   0.6136615872383118    0.1750906109809875    0.6218705773353577 O
   0.8249093890190125    0.6136615872383118    0.3781294822692871 O
   0.1750906109809875    0.3863384127616882    0.3781294822692871 O
   0.6218705773353577    0.3863384127616882    0.8249093890190125 O
   0.6218705773353577    0.6136615872383118    0.1750906109809875 O
   0.4897891283035278    0.2498959451913834    0.7727004885673523 C
   0.5102108716964722    0.7501040697097778    0.7727004885673523 C
   0.7501040697097778    0.4897891283035278    0.2272995114326477 C
   0.2498959451913834    0.5102108716964722    0.2272995114326477 C
   0.9897891283035278    0.7498959302902222    0.2727005481719971 C
   0.0102108716964722    0.2501040697097778    0.2727005481719971 C
   0.7498959302902222    0.0102108716964722    0.7272995114326477 C
   0.2501040697097778    0.9897891283035278    0.7272995114326477 C
