H12 O2
1.0
   5.0978093147277832    0.0000000000000000    0.0000000000000000
   0.0000000000000000    5.0978093147277832    0.0000000000000000
   0.0000000000000000    0.0000000000000000    5.0978093147277832
H O
12 2
direct
   0.4760732054710388    0.8754476904869080    0.8045463562011719 H
   0.5239267945289612    0.1245523095130920    0.8045463562011719 H
   0.4760732054710388    0.8754476904869080    0.1954536437988281 H
   0.5239267945289612    0.1245523095130920    0.1954536437988281 H
   0.8045463562011719    0.4760732054710388    0.8754476904869080 H
   0.8045463562011719    0.5239267945289612    0.1245523095130920 H
   0.1954536437988281    0.4760732054710388    0.8754476904869080 H
   0.1954536437988281    0.5239267945289612    0.1245523095130920 H
   0.8754476904869080    0.8045463562011719    0.4760732054710388 H
   0.1245523095130920    0.8045463562011719    0.5239267945289612 H
   0.8754476904869080    0.1954536437988281    0.4760732054710388 H
   0.1245523095130920    0.1954536437988281    0.5239267945289612 H
   0.5537641644477844    0.9909121990203857    0.0337919518351555 O
   0.6312217712402344    0.4949716329574585    0.2010878026485443 O
