H20
1.0
   5.9912924766540527    0.0000000000000000    0.0000000000000000
   0.0000000000000000    5.9912924766540527    0.0000000000000000
   0.0000000000000000    0.0000000000000000    5.9912924766540527
H
20
direct
   0.6312564015388489    0.9498291015625000    0.5014823675155640 H
   0.9985176324844360    0.3687435984611511    0.4498291015625000 H
   0.3687435984611511    0.4498291015625000    0.9985176324844360 H
   0.4498291015625000    0.9985176324844360    0.3687435984611511 H
   0.1312563419342041    0.4498291015625000    0.0014823675155640 H
   0.3687435984611511    0.5501708984375000    0.5014823675155640 H
   0.9985176324844360    0.6312564015388489    0.0501708984375000 H
   0.6312564015388489    0.0501708984375000    0.9985176324844360 H
   0.1437721997499466    0.9383872151374817    0.7522608637809753 H
   0.3562278151512146    0.0616127848625183    0.2522609233856201 H
   0.7522608637809753    0.1437721997499466    0.9383872151374817 H
   0.2522609233856201    0.3562278151512146    0.0616127848625183 H
   0.9383872151374817    0.7522608637809753    0.1437721997499466 H
   0.0616127848625183    0.2522609233856201    0.3562278151512146 H
   0.6437721848487854    0.4383871555328369    0.2522609233856201 H
   0.8562278151512146    0.5616127848625183    0.7522608637809753 H
   0.2522609233856201    0.6437721848487854    0.4383871555328369 H
   0.7522608637809753    0.8562278151512146    0.5616127848625183 H
   0.4383871555328369    0.2522609233856201    0.6437721848487854 H
   0.5616127848625183    0.7522608637809753    0.8562278151512146 H
