Fe2 O12
1.0
   7.8365612030029297   -2.0998001098632812    0.0000000000000000
  -2.0998001098632812    7.8365612030029297    0.0000000000000000
   0.0000000000000000    0.0000000000000000    3.6666431427001953
O Fe
12 2
direct
   0.1244933456182480    0.6878418922424316    0.2446420937776566 O
   0.3121581077575684    0.4366514682769775    0.2446420937776566 O
   0.5633485317230225    0.8755066394805908    0.2446420937776566 O
   0.8755066394805908    0.3121581077575684    0.2446420937776566 O
   0.6878418922424316    0.5633485317230225    0.2446420937776566 O
   0.4366514682769775    0.1244933456182480    0.2446420937776566 O
   0.6878418922424316    0.1244933456182480    0.7553579211235046 O
   0.4366514682769775    0.3121581077575684    0.7553579211235046 O
   0.8755066394805908    0.5633485317230225    0.7553579211235046 O
   0.3121581077575684    0.8755066394805908    0.7553579211235046 O
   0.5633485317230225    0.6878418922424316    0.7553579211235046 O
   0.1244933456182480    0.4366514682769775    0.7553579211235046 O
   0.3300222754478455    0.7697957754135132    0.2479912191629410 Fe
   0.5602265000343323    0.3300222754478455    0.2479912191629410 Fe
