Tb2 Tl2 Ga2 Br10
1.0
   7.1864910125732422   -1.9256142377853394    0.0000000000000000
  -1.9256142377853394    7.1864910125732422    0.0000000000000000
   0.0000000000000000    0.0000000000000000   12.1645898818969727
Br Ga Br Tl Tb
2 2 8 2 2
direct
   0.2466531097888947    0.6126942038536072    0.9000613689422607 Br
   0.6339589357376099    0.2466531097888947    0.4000613689422607 Br
   0.0109479594975710    0.3889741301536560    0.9714484214782715 Ga
   0.6219738721847534    0.0109479594975710    0.4714484214782715 Ga
   0.2050677239894867    0.6014300584793091    0.4139513075351715 Br
   0.6036376953125000    0.2050677239894867    0.9139512777328491 Br
   0.2881226539611816    0.9584645032882690    0.1529977619647980 Br
   0.0415354967117310    0.3296581506729126    0.1529977619647980 Br
   0.6703418493270874    0.7118773460388184    0.1529977619647980 Br
   0.7118773460388184    0.0415354967117310    0.6529977321624756 Br
   0.9584645032882690    0.6703418493270874    0.6529977321624756 Br
   0.3296581506729126    0.2881226539611816    0.6529977321624756 Br
   0.7598070502281189    0.7492925524711609    0.2927645146846771 Tl
   0.0105144977569580    0.7598070502281189    0.7927645444869995 Tl
   0.2945583164691925    0.9892933964729309    0.8574492931365967 Tb
   0.3052649497985840    0.2945583164691925    0.3574492931365967 Tb
