Ag6 P2 Cl6 O4 F2
1.0
   8.0004644393920898   -2.1437177658081055    0.0000000000000000
  -2.1437177658081055    8.0004644393920898    0.0000000000000000
   0.0000000000000000    0.0000000000000000    7.7525238990783691
P Ag Cl O F
2 6 6 4 2
direct
   0.8406412601470947    0.5820026993751526    0.3595857322216034 P
   0.5820026993751526    0.8406412601470947    0.8595857620239258 P
   0.2471978515386581    0.9152876734733582    0.4229702949523926 Ag
   0.0847123265266418    0.3319101929664612    0.4229702949523926 Ag
   0.6680898070335388    0.7528021335601807    0.4229702949523926 Ag
   0.9152876734733582    0.2471978515386581    0.9229702949523926 Ag
   0.3319101929664612    0.0847123265266418    0.9229702949523926 Ag
   0.7528021335601807    0.6680898070335388    0.9229702949523926 Ag
   0.0354515239596367    0.5936136841773987    0.1060648784041405 Cl
   0.4063863158226013    0.4418378472328186    0.1060648784041405 Cl
   0.5581621527671814    0.9645484685897827    0.1060648784041405 Cl
   0.5936136841773987    0.0354515239596367    0.6060648560523987 Cl
   0.4418378472328186    0.4063863158226013    0.6060648560523987 Cl
   0.9645484685897827    0.5581621527671814    0.6060648560523987 Cl
   0.7611530423164368    0.4116418063640594    0.3096318542957306 O
   0.4116418063640594    0.7611530423164368    0.8096318244934082 O
   0.1673371195793152    0.1880362927913666    0.6507151126861572 O
   0.1880362927913666    0.1673371195793152    0.1507151126861572 O
   0.8657846450805664    0.9229229688644409    0.8927553296089172 F
   0.9229229688644409    0.8657846450805664    0.3927552700042725 F
