Tc2 Cl12
1.0
   7.0954256057739258   -1.9012134075164795    0.0000000000000000
  -1.9012134075164795    7.0954256057739258    0.0000000000000000
   0.0000000000000000    0.0000000000000000    9.9591426849365234
Cl Tc Cl
6 2 6
direct
   0.4619739651679993    0.0812624618411064    0.4330619871616364 Cl
   0.9187375307083130    0.3807114958763123    0.4330619871616364 Cl
   0.6192885041236877    0.5380260348320007    0.0669380128383636 Cl
   0.0812624618411064    0.4619739651679993    0.9330619573593140 Cl
   0.3807114958763123    0.9187375307083130    0.9330619573593140 Cl
   0.5380260348320007    0.6192885041236877    0.5669380426406860 Cl
   0.8432343602180481    0.6160317063331604    0.4940693974494934 Tc
   0.7727973461151123    0.1567656397819519    0.0059306025505066 Tc
   0.2669426202774048    0.2968280911445618    0.1681612282991409 Cl
   0.7031719088554382    0.9701145291328430    0.1681612282991409 Cl
   0.0298854708671570    0.7330573797225952    0.3318387866020203 Cl
   0.2968280911445618    0.2669426202774048    0.6681612133979797 Cl
   0.9701145291328430    0.7031719088554382    0.6681612133979797 Cl
   0.7330573797225952    0.0298854708671570    0.8318387866020203 Cl
