H6 O6
1.0
   5.8110570907592773   -1.5570678710937500    0.0000000000000000
  -1.5570678710937500    5.8110570907592773    0.0000000000000000
   0.0000000000000000    0.0000000000000000    4.1864647865295410
H O
6 6
direct
   0.1840510815382004    0.8032845854759216    0.3415831029415131 H
   0.1967154145240784    0.3807665109634399    0.3415831029415131 H
   0.6192334890365601    0.8159489035606384    0.3415831029415131 H
   0.8032845854759216    0.1840510815382004    0.8415831327438354 H
   0.3807665109634399    0.1967154145240784    0.8415831327438354 H
   0.8159489035606384    0.6192334890365601    0.8415831327438354 H
   0.8232119679450989    0.1917845457792282    0.9858207702636719 O
   0.8082154393196106    0.6314274072647095    0.9858207702636719 O
   0.3685725927352905    0.1767880320549011    0.9858207702636719 O
   0.1917845457792282    0.8232119679450989    0.4858207702636719 O
   0.6314274072647095    0.8082154393196106    0.4858207702636719 O
   0.1767880320549011    0.3685725927352905    0.4858207702636719 O
