Ag6 Mo2 O8
1.0
   6.9985089302062988    0.0000000000000000    0.0000000000000000
   0.0000000000000000    6.9985089302062988    0.0000000000000000
   0.0000000000000000    0.0000000000000000    5.3078427314758301
Mo O Ag
2 8 6
direct
   0.0012183189392090    0.5097732543945312    0.4938693940639496 Mo
   0.4902267456054688    0.0012183189392090    0.4938693940639496 Mo
   0.7939397096633911    0.5155733227729797    0.7097268104553223 O
   0.2060602903366089    0.4844266772270203    0.7097268104553223 O
   0.5155733227729797    0.2060602903366089    0.2902731895446777 O
   0.4844266772270203    0.7939397096633911    0.2902731895446777 O
   0.2939397096633911    0.9844266772270203    0.7097268104553223 O
   0.7060602903366089    0.0155732631683350    0.7097268104553223 O
   0.0155732631683350    0.2939397096633911    0.2902731895446777 O
   0.9844266772270203    0.7060602903366089    0.2902731895446777 O
   0.9971247911453247    0.0023359069600701    0.4894625842571259 Ag
   0.4971247911453247    0.4976640939712524    0.5105373859405518 Ag
   0.7338058352470398    0.7642900347709656    0.0051811966113746 Ag
   0.2661941647529602    0.2357099652290344    0.9948188066482544 Ag
   0.7642900347709656    0.2661941647529602    0.9948188066482544 Ag
   0.2357099652290344    0.7338058352470398    0.0051811966113746 Ag
