Ge2 S4
1.0
   4.5148148536682129    0.0000000000000000   -0.1709709465503693
   0.0000000000000000    5.4283614158630371    0.0000000000000000
  -0.1709709465503693    0.0000000000000000    6.8519973754882812
Ge S
2 4
direct
   0.7497239112854004    0.7639067173004150    0.0002129662316293 Ge
   0.2502760887145996    0.2639067173004150    0.9997870326042175 Ge
   0.0864460542798042    0.6028035879135132    0.2064204365015030 S
   0.9135539531707764    0.1028035879135132    0.7935795783996582 S
   0.5833788514137268    0.1016525253653526    0.2085619419813156 S
   0.4166211485862732    0.6016525030136108    0.7914380431175232 S
