Be10 V8
1.0
   5.5155992507934570    0.0000000000000000    0.0000000000000000
   0.0000000000000000    6.7956409454345703    0.0000000000000000
   0.0000000000000000    0.0000000000000000    5.9466714859008789
Be V
10 8
direct
   0.9863054156303406    0.9962663650512695    0.9997147321701050 Be
   0.5136945843696594    0.4962663650512695    0.0002852678298950 Be
   0.7004972100257874    0.4873026609420776    0.6521112322807312 Be
   0.2995027899742126    0.5126973390579224    0.6521112322807312 Be
   0.7995027899742126    0.9873026609420776    0.3478887677192688 Be
   0.2004971504211426    0.0126973390579224    0.3478887677192688 Be
   0.2995027899742126    0.5126973390579224    0.3478887677192688 Be
   0.7004972100257874    0.4873026609420776    0.3478887677192688 Be
   0.2004971504211426    0.0126973390579224    0.6521112322807312 Be
   0.7995027899742126    0.9873026609420776    0.6521112322807312 Be
   0.5181651711463928    0.1896734833717346    0.7980125546455383 V
   0.4818348288536072    0.8103265166282654    0.7980125546455383 V
   0.9818348288536072    0.6896734833717346    0.2019874453544617 V
   0.0181651115417480    0.3103265166282654    0.2019874453544617 V
   0.4818348288536072    0.8103265166282654    0.2019874453544617 V
   0.5181651711463928    0.1896734833717346    0.2019874453544617 V
   0.0181651115417480    0.3103265166282654    0.7980125546455383 V
   0.9818348288536072    0.6896734833717346    0.7980125546455383 V
