Li8 N4
1.0
   4.6818699836730957    0.0000000000000000    0.0000000000000000
   0.0000000000000000    4.6818699836730957    0.0000000000000000
   0.0000000000000000    0.0000000000000000    5.3909163475036621
Li N
8 4
direct
   0.1391422450542450    0.6742836236953735    0.0686488822102547 Li
   0.3257163763046265    0.1391422450542450    0.0686488822102547 Li
   0.8608577251434326    0.3257163763046265    0.4313511252403259 Li
   0.6742836236953735    0.8608577251434326    0.4313511252403259 Li
   0.3257163763046265    0.1391422450542450    0.5686488747596741 Li
   0.1391422450542450    0.6742836236953735    0.5686488747596741 Li
   0.6742836236953735    0.8608577251434326    0.9313511252403259 Li
   0.8608577251434326    0.3257163763046265    0.9313511252403259 Li
   0.0129209393635392    0.0366546288132668    0.7084959745407104 N
   0.9870790839195251    0.9633453488349915    0.2915040254592896 N
   0.4870790541172028    0.4633453786373138    0.2915040254592896 N
   0.5129209160804749    0.5366546511650085    0.7084959745407104 N
