Na6 Li3 Cl6
1.0
   7.2620143890380859   -1.9458508491516113    0.0000000000000000
  -1.9458508491516113    7.2620143890380859    0.0000000000000000
   0.0000000000000000    0.0000000000000000    7.7805018424987793
Cl Li Na
6 3 6
direct
   0.8235417008399963    0.5963007211685181    0.2738957405090332 Cl
   0.4036992788314819    0.2272409796714783    0.9405624270439148 Cl
   0.7727590203285217    0.1764582991600037    0.6072291135787964 Cl
   0.1764582991600037    0.4036992788314819    0.2738957405090332 Cl
   0.5963007211685181    0.7727590203285217    0.9405624270439148 Cl
   0.2272409796714783    0.8235417008399963    0.6072291135787964 Cl
   0.1391910314559937    0.6378444433212280    0.4081196188926697 Li
   0.3621555566787720    0.5013465881347656    0.0747863054275513 Li
   0.5013465881347656    0.1391910314559937    0.7414529323577881 Li
   0.8549744486808777    0.1952091157436371    0.0116944583132863 Na
   0.8047908544540405    0.6597653627395630    0.6783611178398132 Na
   0.3402346372604370    0.1450255513191223    0.3450278043746948 Na
   0.1450255513191223    0.8047908544540405    0.0116944583132863 Na
   0.1952091157436371    0.3402346372604370    0.6783611178398132 Na
   0.6597653627395630    0.8549744486808777    0.3450278043746948 Na
