Pt2 I10
1.0
   6.5745806694030762    0.0000000000000000    0.0000000000000000
   0.0000000000000000    6.5745806694030762    0.0000000000000000
   0.0000000000000000    0.0000000000000000   11.6482982635498047
I Pt I
8 2 2
direct
   0.2748088538646698    0.7826383113861084    0.8913635611534119 I
   0.7251911163330078    0.2173616886138916    0.8913635611534119 I
   0.7826383113861084    0.7251911163330078    0.1086364388465881 I
   0.2173616886138916    0.2748088538646698    0.1086364388465881 I
   0.3012548089027405    0.7889066338539124    0.2520797848701477 I
   0.6987451910972595    0.2110933661460876    0.2520797848701477 I
   0.7889066338539124    0.6987451910972595    0.7479202151298523 I
   0.2110933661460876    0.3012548089027405    0.7479202151298523 I
   0.5010834932327271    0.0014614532701671    0.1219891682267189 Pt
   0.0014614532701671    0.4989165067672729    0.8780108094215393 Pt
   0.5098929405212402    0.0063032284379005    0.5004183650016785 I
   0.0098929405212402    0.4936967790126801    0.4995816349983215 I
