Zn1 S2 O5
1.0
   4.8763098716735840    0.0000000000000000    0.0000000000000000
   0.0000000000000000    5.2560758590698242    0.0000000000000000
   0.0000000000000000    0.0000000000000000    4.9882826805114746
O S Zn
5 2 1
direct
   0.1092856973409653    0.5463722348213196    0.7001044750213623 O
   0.2316663563251495    0.7404299974441528    0.2693952322006226 O
   0.7683336734771729    0.2595700025558472    0.2693952322006226 O
   0.2316663563251495    0.2595700025558472    0.2693952322006226 O
   0.7683336734771729    0.7404299974441528    0.2693952322006226 O
   0.0237268656492233    0.3106768727302551    0.4563831090927124 S
   0.9762731194496155    0.6893231272697449    0.4563831090927124 S
   0.5159233808517456    0.4823911786079407    0.0570563897490501 Zn
