H8
1.0
   3.7831161022186279    0.0000000000000000    0.0000000000000000
   0.0000000000000000    4.8745365142822266    0.0000000000000000
   0.0000000000000000    0.0000000000000000    4.4563241004943848
H
8
direct
   0.7511985898017883    0.3527116477489471    0.3210184574127197 H
   0.2511985301971436    0.3527116477489471    0.8210184574127197 H
   0.2511985301971436    0.8527116775512695    0.3210184574127197 H
   0.7511985898017883    0.8527116775512695    0.8210184574127197 H
   0.2511985301971436    0.3527116477489471    0.3210184574127197 H
   0.7511985898017883    0.3527116477489471    0.8210184574127197 H
   0.7511985898017883    0.8527116775512695    0.3210184574127197 H
   0.2511985301971436    0.8527116775512695    0.8210184574127197 H
