As2 O8
1.0
   4.9454250335693359   -1.3251228332519531    0.0000000000000000
  -1.3251228332519531    4.9454250335693359    0.0000000000000000
   0.0000000000000000    0.0000000000000000    7.2301921844482422
O As O
2 2 6
direct
   0.9960482716560364    0.8426285386085510    0.7911625504493713 O
   0.8426285386085510    0.9960482716560364    0.2911624908447266 O
   0.7155863642692566    0.2238407582044601    0.4343357682228088 As
   0.2238407582044601    0.7155863642692566    0.9343357682228088 As
   0.4189177453517914    0.0088552385568619    0.9955841898918152 O
   0.9911447763442993    0.4100624918937683    0.9955841898918152 O
   0.5899375081062317    0.5810822248458862    0.9955841898918152 O
   0.4189177453517914    0.0088552385568619    0.5044158101081848 O
   0.9911447763442993    0.4100624918937683    0.5044158101081848 O
   0.5899375081062317    0.5810822248458862    0.5044158101081848 O
