Na8 Se4
1.0
   7.1679401397705078    0.0000000000000000    0.0000000000000000
   0.0000000000000000    7.1679401397705078    0.0000000000000000
   0.0000000000000000    0.0000000000000000    6.5246891975402832
Na Se
8 4
direct
   0.5530486106872559    0.4228902459144592    0.3512884378433228 Na
   0.9469513893127441    0.5771097540855408    0.8512884378433228 Na
   0.8271097540855408    0.3030486106872559    0.6012884378433228 Na
   0.6728902459144592    0.6969513893127441    0.1012884378433228 Na
   0.0530486106872559    0.9228902459144592    0.8512884378433228 Na
   0.4469513893127441    0.0771097540855408    0.3512884378433228 Na
   0.1728901863098145    0.6969513893127441    0.3987115621566772 Na
   0.3271097540855408    0.3030486106872559    0.8987115621566772 Na
   0.6326826810836792    0.1504337191581726    0.9645079970359802 Se
   0.0995662808418274    0.3826826810836792    0.2145080566406250 Se
   0.8673173189163208    0.8495662808418274    0.4645080566406250 Se
   0.4004337191581726    0.6173173189163208    0.7145080566406250 Se
