Nd4 C4 O8
1.0
   6.5235987950726253   -0.0000000025004687   -0.7944733447387443
  -0.0000000925378385    5.7704745687716779   -0.0000004101385782
  -0.8314844004038847   -0.0000005803438950    6.1267400508762888
Nd O C
4 8 4
direct
   0.2720186468316988    0.2222547908055566   -0.0316627961054483 Nd
   0.7279813500248622    0.2222547231892504    0.5316627711861110 Nd
   0.7721290200102472    0.7224417555886770    0.9682431427146240 Nd
   0.2278709542960986    0.7224417499352241    0.5317568306738633 Nd
   0.5948374067813382    0.8194895431432817    0.5644546475064661 O
   0.4051625726101508    0.8194895307045623    0.9355453314880890 O
   0.3456483591146876    0.2793011940195536    0.3798818069670685 O
   0.6543516039421563    0.2793013937681103    0.1201181379551880 O
   0.0949323603654265    0.3197126996521073    0.5646050335678344 O
   0.9050676100185195    0.3197126292451593    0.9353948903171224 O
   0.8455194079989821    0.7793838981890401    0.3796998019514416 O
   0.1544805575101907    0.7793840624947616    0.1203001938963387 O
   0.7372336125640928    0.6716722723067768    0.5118338404403829 C
   0.2627663887037656    0.6716722217752201    0.9881662683581602 C
   0.2372026688205096    0.1716908971860789    0.5119113507916794 C
   0.7627973559288184    0.1716908663624277    0.9880887563653417 C
