Sb3 P6 O9
1.0
   6.0116786956787109   -1.6108244657516479    0.0000000000000000
  -1.6108244657516479    6.0116786956787109    0.0000000000000000
   0.0000000000000000    0.0000000000000000   10.4460535049438477
P O Sb
6 9 3
direct
   0.1276914328336716    0.7895046472549438    0.0929548814892769 P
   0.2104953527450562    0.3381868004798889    0.4262882173061371 P
   0.6618131995201111    0.8723085522651672    0.7596215605735779 P
   0.7895046472549438    0.1276914328336716    0.9070451259613037 P
   0.3381868004798889    0.2104953527450562    0.5737118124961853 P
   0.8723085522651672    0.6618131995201111    0.2403784692287445 P
   0.7931874990463257    0.9184253215789795    0.6524811387062073 O
   0.0815746784210205    0.8747621774673462    0.9858144521713257 O
   0.1252378225326538    0.2068125009536743    0.3191478252410889 O
   0.5187439918518066    0.2777266502380371    0.4874891638755798 O
   0.7222733497619629    0.2410173416137695    0.8208224773406982 O
   0.7589826583862305    0.4812560081481934    0.1541558504104614 O
   0.2777266502380371    0.5187439918518066    0.5125108361244202 O
   0.2410173416137695    0.7222733497619629    0.1791775226593018 O
   0.4812560081481934    0.7589826583862305    0.8458441495895386 O
   0.5655649900436401    0.9720660448074341    0.3763702511787415 Sb
   0.0279339551925659    0.5934989452362061    0.7097035646438599 Sb
   0.4065010547637939    0.4344350099563599    0.0430369377136230 Sb
