Fe1 W1 O6
1.0
   5.5586390495300293   -1.4894330501556396    0.0000000000000000
  -1.4894330501556396    5.5586390495300293    0.0000000000000000
   0.0000000000000000    0.0000000000000000    4.3440113067626953
O W Fe
6 1 1
direct
   0.3490977883338928    0.0006183385848999    0.7472521662712097 O
   0.9993816614151001    0.3484794497489929    0.7472521662712097 O
   0.6515205502510071    0.6509022116661072    0.7472521662712097 O
   0.0006183385848999    0.6515205502510071    0.2527478337287903 O
   0.6509022116661072    0.9993816614151001    0.2527478337287903 O
   0.3484794497489929    0.3490977883338928    0.2527478337287903 O
   0.6589291095733643    0.1277544200420380    0.7081098556518555 W
   0.2359139025211334    0.6102006435394287    0.7055039405822754 Fe
