Ca2 P6 O12
1.0
   7.0544662475585938   -1.8902386426925659    0.0000000000000000
  -1.8902386426925659    7.0544662475585938    0.0000000000000000
   0.0000000000000000    0.0000000000000000    8.0322771072387695
O P Ca O
6 6 2 6
direct
   0.8046041727066040    0.5522475242614746    0.6747118830680847 O
   0.4477524757385254    0.2523566484451294    0.6747118830680847 O
   0.7476433515548706    0.1953958272933960    0.8252881169319153 O
   0.5522475242614746    0.8046041727066040    0.1747119426727295 O
   0.2523566484451294    0.4477524757385254    0.1747119426727295 O
   0.1953958272933960    0.7476433515548706    0.3252881169319153 O
   0.1278554052114487    0.5931729078292847    0.1968391239643097 P
   0.4068270921707153    0.5346825122833252    0.1968391239643097 P
   0.4653174877166748    0.8721445798873901    0.3031608760356903 P
   0.5931729078292847    0.1278554052114487    0.6968390941619873 P
   0.5346825122833252    0.4068270921707153    0.6968390941619873 P
   0.8721445798873901    0.4653174877166748    0.8031609058380127 P
   0.1764070838689804    0.9765673279762268    0.8191599845886230 Ca
   0.9765673279762268    0.1764070838689804    0.3191599845886230 Ca
   0.3950538635253906    0.3962050676345825    0.3761261403560638 O
   0.6037949323654175    0.9988487958908081    0.3761261403560638 O
   0.0011512041091919    0.6049461364746094    0.1238738596439362 O
   0.3962050676345825    0.3950538635253906    0.8761261701583862 O
   0.9988487958908081    0.6037949323654175    0.8761261701583862 O
   0.6049461364746094    0.0011512041091919    0.6238738298416138 O
