Cl8 O8
1.0
   6.7047581672668457    0.0000000000000000    0.0000000000000000
   0.0000000000000000    6.7047581672668457    0.0000000000000000
   0.0000000000000000    0.0000000000000000    7.9286775588989258
Cl O
8 8
direct
   0.9463852643966675    0.0816909074783325    0.1593609750270844 Cl
   0.4183090925216675    0.9463852643966675    0.1593609750270844 Cl
   0.0816909074783325    0.5536147356033325    0.3406390249729156 Cl
   0.5536147356033325    0.4183090925216675    0.3406390249729156 Cl
   0.4183090925216675    0.5536147356033325    0.8406389951705933 Cl
   0.9463852643966675    0.4183090925216675    0.8406389951705933 Cl
   0.5536147356033325    0.0816909074783325    0.6593610048294067 Cl
   0.0816909074783325    0.9463852643966675    0.6593610048294067 Cl
   0.4291471838951111    0.9371571540832520    0.7343173623085022 O
   0.0708528161048889    0.5628428459167480    0.7656826376914978 O
   0.5628428459167480    0.4291471838951111    0.7343173623085022 O
   0.9371571540832520    0.0708528161048889    0.7656826376914978 O
   0.9371571540832520    0.4291471838951111    0.2343173027038574 O
   0.5628428459167480    0.0708528161048889    0.2656826376914978 O
   0.0708528161048889    0.9371571540832520    0.2343173027038574 O
   0.4291471838951111    0.5628428459167480    0.2656826376914978 O
