Ti3 Mn3 Fe3 O9
1.0
   4.9975199699401855   -1.3390812873840332    0.0000000000000000
  -1.3390812873840332    4.9975199699401855    0.0000000000000000
   0.0000000000000000    0.0000000000000000   11.3310909271240234
O Ti Fe O Mn
6 3 3 3 3
direct
   0.2981113195419312    0.7569338679313660    0.0628159865736961 O
   0.2430661320686340    0.5411774516105652    0.3961493372917175 O
   0.4588225483894348    0.7018886804580688    0.7294826507568359 O
   0.8133720159530640    0.4939579963684082    0.9249385595321655 O
   0.5060420036315918    0.3194140195846558    0.2582719326019287 O
   0.6805859804153442    0.1866279840469360    0.5916051864624023 O
   0.3447898626327515    0.1297419667243958    0.4495616257190704 Ti
   0.8702580332756042    0.2150478959083557    0.7828949689865112 Ti
   0.7849521040916443    0.6552101373672485    0.1162283420562744 Ti
   0.2812682986259460    0.6412455439567566    0.5737720727920532 Fe
   0.3587544560432434    0.6400227546691895    0.9071054458618164 Fe
   0.3599772453308105    0.7187317013740540    0.2404386997222900 Fe
   0.8442506790161133    0.9946649074554443    0.1717149764299393 O
   0.0053350925445557    0.8495857715606689    0.5050483345985413 O
   0.1504142284393311    0.1557493209838867    0.8383816480636597 O
   0.8615639805793762    0.0900513827800751    0.4096978604793549 Mn
   0.9099485874176025    0.7715126276016235    0.7430312037467957 Mn
   0.2284873723983765    0.1384360194206238    0.0763645172119141 Mn
