Sb2 Cl10 O4
1.0
   7.3209848403930664   -1.9616520404815674    0.0000000000000000
  -1.9616520404815674    7.3209848403930664    0.0000000000000000
   0.0000000000000000    0.0000000000000000    9.2276020050048828
Cl O Sb Cl
4 4 2 6
direct
   0.2240780442953110    0.0864632129669189    0.9322200417518616 Cl
   0.1376148313283920    0.2240780442953110    0.4322199821472168 Cl
   0.7759219408035278    0.9135367870330811    0.0677799582481384 Cl
   0.8623851537704468    0.7759219408035278    0.5677799582481384 Cl
   0.2717450261116028    0.6397139430046082    0.8878674507141113 O
   0.6320310831069946    0.2717450261116028    0.3878674507141113 O
   0.7282549738883972    0.3602860569953918    0.1121325492858887 O
   0.3679689168930054    0.7282549738883972    0.6121325492858887 O
   0.7581658363342285    0.1585534214973450    0.2442515492439270 Sb
   0.2418341636657715    0.8414465785026550    0.7557484507560730 Sb
   0.5765216946601868    0.9261687397956848    0.3020256459712982 Cl
   0.0738312602043152    0.6503529548645020    0.3020256459712982 Cl
   0.3496470451354980    0.4234783053398132    0.1979743540287018 Cl
   0.4234783053398132    0.0738312602043152    0.6979743242263794 Cl
   0.9261687397956848    0.3496470451354980    0.6979743242263794 Cl
   0.6503529548645020    0.5765216946601868    0.8020256757736206 Cl
