Tc16
1.0
   6.5139970779418945    0.0000000000000000    0.0000000000000000
   0.0000000000000000    6.5139970779418945    0.0000000000000000
   0.0000000000000000    0.0000000000000000    6.5139970779418945
Tc
16
direct
   0.9946906566619873    0.7103047370910645    0.1224512606859207 Tc
   0.0053093433380127    0.7896952629089355    0.6224512457847595 Tc
   0.7896952629089355    0.6224512457847595    0.0053093433380127 Tc
   0.6224512457847595    0.0053093433380127    0.7896952629089355 Tc
   0.5396952629089355    0.7553093433380127    0.6275487542152405 Tc
   0.4603047370910645    0.7446906566619873    0.1275487393140793 Tc
   0.3724512457847595    0.5396952629089355    0.2446906566619873 Tc
   0.2103047370910645    0.3775487542152405    0.0053093433380127 Tc
   0.6275487542152405    0.5396952629089355    0.7553093433380127 Tc
   0.2446906566619873    0.3724512457847595    0.5396952629089355 Tc
   0.0053093433380127    0.2103047370910645    0.3775487542152405 Tc
   0.9946906566619873    0.2896952629089355    0.8775487542152405 Tc
   0.7553093433380127    0.6275487542152405    0.5396952629089355 Tc
   0.3775487542152405    0.0053093433380127    0.2103047370910645 Tc
   0.4603047370910645    0.2553093433380127    0.8724512457847595 Tc
   0.5396952629089355    0.2446906566619873    0.3724512457847595 Tc
