As2 Cl8
1.0
   7.7308425903320312   -2.0714731216430664    0.0000000000000000
  -2.0714731216430664    7.7308425903320312    0.0000000000000000
   0.0000000000000000    0.0000000000000000    6.6731514930725098
As Cl
2 8
direct
   0.5579589605331421    0.3188406229019165    0.3223924338817596 As
   0.2391183376312256    0.5579589605331421    0.8223924636840820 As
   0.6154724955558777    0.4578620195388794    0.7623953819274902 Cl
   0.3845275044441223    0.5421379804611206    0.2376046180725098 Cl
   0.6406806111335754    0.8899120688438416    0.7371839284896851 Cl
   0.1100879311561584    0.7507685422897339    0.7371839284896851 Cl
   0.2492314577102661    0.3593193888664246    0.7371839284896851 Cl
   0.3593193888664246    0.1100879311561584    0.2371839284896851 Cl
   0.8899120688438416    0.2492314577102661    0.2371839284896851 Cl
   0.7507685422897339    0.6406806111335754    0.2371839284896851 Cl
