B2 H6 O12
1.0
   5.5120716094970703    0.0000000000000000    0.0000000000000000
   0.0000000000000000    7.0640916824340820    0.0000000000000000
   0.0000000000000000    0.0000000000000000    6.2897949218750000
H B O H O
4 2 2 2 10
direct
   0.9777073264122009    0.8620492815971375    0.6373585462570190 H
   0.5222926735877991    0.1379507184028625    0.6373585462570190 H
   0.4777073860168457    0.8620492815971375    0.3626414537429810 H
   0.0222926735877991    0.1379507184028625    0.3626414537429810 H
   0.7254567742347717    0.6845970749855042    0.2314954996109009 B
   0.2745432257652283    0.3154029250144958    0.7685045003890991 B
   0.4452338516712189    0.4972190260887146    0.7197801470756531 O
   0.5547661781311035    0.5027809739112854    0.2802198529243469 O
   0.2193535119295120    0.7470477819442749    0.8051582574844360 H
   0.7806465029716492    0.2529522180557251    0.1948417425155640 H
   0.0837147235870361    0.8372454643249512    0.6611714363098145 O
   0.4162852764129639    0.1627545356750488    0.6611714363098145 O
   0.9162852764129639    0.1627545356750488    0.3388285636901855 O
   0.5837147235870361    0.8372454643249512    0.3388285636901855 O
   0.7748788595199585    0.7510399818420410    0.0346758551895618 O
   0.7251211404800415    0.2489600181579590    0.0346758551895618 O
   0.2251211404800415    0.2489600181579590    0.9653241634368896 O
   0.2748788595199585    0.7510399818420410    0.9653241634368896 O
   0.0374085828661919    0.3487506210803986    0.7108949422836304 O
   0.9625914096832275    0.6512494087219238    0.2891050577163696 O
