Fe6 O10
1.0
   5.4035663604736328    0.0000000000000000   -0.6342552900314331
   0.0000000000000000    6.3597021102905273    0.0000000000000000
  -0.6342552900314331    0.0000000000000000    6.5405082702636719
Fe O Fe O
4 8 2 2
direct
   0.0059193293564022    0.2101840227842331    0.0011518802493811 Fe
   0.9940806627273560    0.2101840227842331    0.4988481104373932 Fe
   0.9940806627273560    0.7898159623146057    0.9988481402397156 Fe
   0.0059193293564022    0.7898159623146057    0.5011518597602844 Fe
   0.7775441408157349    0.7036312222480774    0.7950960993766785 O
   0.2224558591842651    0.7036312222480774    0.7049039006233215 O
   0.2224558591842651    0.2963687777519226    0.2049039006233215 O
   0.7775441408157349    0.2963687777519226    0.2950961589813232 O
   0.7229201793670654    0.9547904729843140    0.4838137328624725 O
   0.2770798206329346    0.9547904729843140    0.0161862671375275 O
   0.2770798206329346    0.0452095270156860    0.5161862373352051 O
   0.7229201793670654    0.0452095270156860    0.9838137626647949 O
   0.5051807165145874    0.1008665561676025    0.2530345320701599 Fe
   0.4948192834854126    0.8991334438323975    0.7469654679298401 Fe
   0.9994007349014282    0.7511143088340759    0.2429138869047165 O
   0.0005992670194246    0.2488856911659241    0.7570860981941223 O
