Sr4 Si4 N8
1.0
   5.6833143234252930    0.0000000000000000    0.0000000000000000
   0.0000000000000000    7.8726110458374023    0.0000000000000000
   0.0000000000000000    0.0000000000000000    5.1272258758544922
Sr Si N
4 4 8
direct
   0.5489661693572998    0.6450017094612122    0.4732100963592529 Sr
   0.4510338306427002    0.3549982905387878    0.9732100963592529 Sr
   0.0489661693572998    0.3549982905387878    0.4732100963592529 Sr
   0.9510338306427002    0.6450017094612122    0.9732100963592529 Sr
   0.4066421091556549    0.9010068178176880    0.9915599226951599 Si
   0.5933579206466675    0.0989931821823120    0.4915599822998047 Si
   0.9066420793533325    0.0989931821823120    0.9915599226951599 Si
   0.0933578908443451    0.9010068178176880    0.4915599822998047 Si
   0.5191842913627625    0.3104561865329742    0.4163458943367004 N
   0.4808157086372375    0.6895438432693481    0.9163458943367004 N
   0.0191843509674072    0.6895438432693481    0.4163458943367004 N
   0.9808157086372375    0.3104561865329742    0.9163458943367004 N
   0.8946568965911865    0.0599450506269932    0.3491145968437195 N
   0.1053431034088135    0.9400549530982971    0.8491145968437195 N
   0.3946568965911865    0.9400549530982971    0.3491145968437195 N
   0.6053431034088135    0.0599450506269932    0.8491145968437195 N
