V3 Se3 N6
1.0
   5.3413543701171875   -1.4312114715576172    0.0000000000000000
  -1.4312114715576172    5.3413543701171875    0.0000000000000000
   0.0000000000000000    0.0000000000000000    7.5171852111816406
N V Se
6 3 3
direct
   0.0809887573122978    0.4258295893669128    0.0597579851746559 N
   0.5741704106330872    0.6551591753959656    0.7264246940612793 N
   0.3448408246040344    0.9190112352371216    0.3930913209915161 N
   0.5469747185707092    0.6573546528816223    0.2764686048030853 N
   0.3426453471183777    0.8896200656890869    0.9431352615356445 N
   0.1103799343109131    0.4530252814292908    0.6098019480705261 N
   0.4983434379100800    0.6722688078880310    0.5103404521942139 V
   0.3277311921119690    0.8260746002197266    0.1770071983337402 V
   0.1739253699779510    0.5016565322875977    0.8436738252639771 V
   0.2115298062562943    0.1998824328184128    0.3558217287063599 Se
   0.8001175522804260    0.0116473734378815    0.0224883556365967 Se
   0.9883526563644409    0.7884702086448669    0.6891551017761230 Se
