Br16
1.0
  10.2474594116210938    0.0000000000000000    0.0000000000000000
   0.0000000000000000   10.2474594116210938    0.0000000000000000
   0.0000000000000000    0.0000000000000000    7.2594084739685059
Br
16
direct
   0.4529752135276794    0.3628945946693420    0.7521070837974548 Br
   0.0470247864723206    0.1371054053306580    0.2521071434020996 Br
   0.6371054053306580    0.9529752135276794    0.0021071434020996 Br
   0.8628945946693420    0.5470247864723206    0.5021071434020996 Br
   0.0470247864723206    0.3628945946693420    0.9978929162025452 Br
   0.4529752135276794    0.1371054053306580    0.4978929162025452 Br
   0.8628945946693420    0.9529752135276794    0.7478929162025452 Br
   0.6371054053306580    0.5470247864723206    0.2478929162025452 Br
   0.9529752135276794    0.8628945946693420    0.2521071434020996 Br
   0.5470247864723206    0.6371054053306580    0.7521070837974548 Br
   0.1371054053306580    0.4529752135276794    0.5021071434020996 Br
   0.3628945946693420    0.0470247864723206    0.0021071434020996 Br
   0.5470247864723206    0.8628945946693420    0.4978929162025452 Br
   0.9529752135276794    0.6371054053306580    0.9978929162025452 Br
   0.3628945946693420    0.4529752135276794    0.2478929162025452 Br
   0.1371054053306580    0.0470247864723206    0.7478929162025452 Br
