Cl16
1.0
   8.2808713912963867    0.0000000000000000    0.0000000000000000
   0.0000000000000000    8.2808713912963867    0.0000000000000000
   0.0000000000000000    0.0000000000000000    8.2808713912963867
Cl
16
direct
   0.6745904088020325    0.1679948717355728    0.3002102077007294 Cl
   0.3254095911979675    0.8320051431655884    0.6997897624969482 Cl
   0.1679948717355728    0.3254095911979675    0.6997897624969482 Cl
   0.8320051431655884    0.6745904088020325    0.3002102077007294 Cl
   0.8320051431655884    0.6745904088020325    0.6997897624969482 Cl
   0.1679948717355728    0.3254095911979675    0.3002102077007294 Cl
   0.3254095911979675    0.8320051431655884    0.3002102077007294 Cl
   0.6745904088020325    0.1679948717355728    0.6997897624969482 Cl
   0.0820051282644272    0.4245903491973877    0.0502102375030518 Cl
   0.4179948568344116    0.0754095911979675    0.4497897922992706 Cl
   0.5754095911979675    0.5820051431655884    0.4497897922992706 Cl
   0.9245904088020325    0.9179948568344116    0.0502102375030518 Cl
   0.9245904088020325    0.9179948568344116    0.4497897922992706 Cl
   0.5754095911979675    0.5820051431655884    0.0502102375030518 Cl
   0.4179948568344116    0.0754095911979675    0.0502102375030518 Cl
   0.0820051282644272    0.4245903491973877    0.4497897922992706 Cl
