Bi3 Pb3 O12
1.0
   6.4676265716552734   -1.7329955101013184    0.0000000000000000
  -1.7329955101013184    6.4676265716552734    0.0000000000000000
   0.0000000000000000    0.0000000000000000    7.9489669799804688
Bi Pb O
3 3 12
direct
   0.5449438095092773    0.6569654345512390    0.8506209850311279 Bi
   0.3430345654487610    0.8879783749580383    0.1839543581008911 Bi
   0.1120216250419617    0.4550561904907227    0.5172877311706543 Bi
   0.9251924753189087    0.2320831120014191    0.0406565032899380 Pb
   0.7679169178009033    0.6931093931198120    0.3739898502826691 Pb
   0.3068906068801880    0.0748075246810913    0.7073231935501099 Pb
   0.1697358042001724    0.9907287359237671    0.9944579005241394 O
   0.0092712640762329    0.1790070533752441    0.3277912139892578 O
   0.8209929466247559    0.8302642107009888    0.6611245870590210 O
   0.5968522429466248    0.9391044378280640    0.9959478378295898 O
   0.0608955621719360    0.6577478051185608    0.3292812108993530 O
   0.3422521948814392    0.4031477570533752    0.6626145839691162 O
   0.2411962449550629    0.4872599840164185    0.9910491704940796 O
   0.5127400159835815    0.7539362907409668    0.3243825435638428 O
   0.2460637390613556    0.7588037252426147    0.6577157974243164 O
   0.7162721753120422    0.5281305313110352    0.9762766957283020 O
   0.4718694686889648    0.1881416440010071    0.3096100091934204 O
   0.8118583559989929    0.2837278246879578    0.6429433822631836 O
