W2 O6
1.0
   5.6746496604154189   -0.5197609062452817    0.0062119984192255
  -1.0254272769187798    3.8083217814982619   -0.0000555930201905
   0.0052543615380093    0.0014649533044008    5.9194924419863257
W O
2 6
direct
   0.2835579908407275    0.7042244584497801    0.4136083133675051 W
   0.3337492611117054    0.6099425720432914    0.9135593047057529 W
   0.5456441519745417    0.7740557352392626    0.1696924060244494 O
   0.0716631263301529    0.5401112939198449    0.1574752741457648 O
   0.3249190569499930    0.1474548591088354   -0.0864426570151012 O
   0.0716519881811257    0.5401031926333596    0.6705913423733058 O
   0.2923882073924256    1.1667121354142318    0.4136103099959668 O
   0.5456552539977377    0.7740638218889604    0.6565762899608062 O
