Si4 S8
1.0
   6.5868902206420898    0.0000000000000000    0.0000000000000000
   0.0000000000000000   12.1320877075195312    0.0000000000000000
   0.0000000000000000    0.0000000000000000    5.3913564682006836
S Si
8 4
direct
   0.1856502592563629    0.8990606069564819    0.0727940648794174 S
   0.8143497705459595    0.1009393930435181    0.0727940648794174 S
   0.1856502592563629    0.6009393930435181    0.0727940648794174 S
   0.8143497705459595    0.3990606069564819    0.0727940648794174 S
   0.1856502592563629    0.3990606069564819    0.5727940797805786 S
   0.8143497705459595    0.6009393930435181    0.5727940797805786 S
   0.1856502592563629    0.1009393930435181    0.5727940797805786 S
   0.8143497705459595    0.8990606069564819    0.5727940797805786 S
   0.0009858834091574    0.4983730912208557    0.3237619102001190 Si
   0.9990141391754150    0.9983730912208557    0.3237619102001190 Si
   0.0009858834091574    0.9983730912208557    0.8237619400024414 Si
   0.9990141391754150    0.4983730912208557    0.8237619400024414 Si
