O18
1.0
   6.7084541320800781    0.0000000000000000    0.0000000000000000
   0.0000000000000000    6.7084541320800781    0.0000000000000000
   0.0000000000000000    0.0000000000000000    6.7084541320800781
O
18
direct
   0.4043602347373962    0.6724424958229065    0.1582690626382828 O
   0.5956397652626038    0.3275575041770935    0.8417309522628784 O
   0.1582690626382828    0.4043602347373962    0.6724424958229065 O
   0.8417309522628784    0.5956397652626038    0.3275575041770935 O
   0.6724424958229065    0.1582690626382828    0.4043602347373962 O
   0.3275575041770935    0.8417309522628784    0.5956397652626038 O
   0.1086220815777779    0.3998202979564667    0.8547070026397705 O
   0.6001796722412109    0.1086220815777779    0.8547070026397705 O
   0.8547070026397705    0.6001796722412109    0.1086220815777779 O
   0.1001797020435333    0.6086220741271973    0.3547070026397705 O
   0.6086220741271973    0.8998203277587891    0.3547070026397705 O
   0.3547070026397705    0.1001797020435333    0.6086220741271973 O
   0.4043602347373962    0.1582690626382828    0.3275575041770935 O
   0.5956397652626038    0.8417309522628784    0.6724424958229065 O
   0.3275575041770935    0.4043602347373962    0.1582690626382828 O
   0.6724424958229065    0.5956397652626038    0.8417309522628784 O
   0.1582690626382828    0.3275575041770935    0.4043602347373962 O
   0.8417309522628784    0.6724424958229065    0.5956397652626038 O
