K8 O10
1.0
   7.0204796791076660    0.0000000000000000    0.0000000000000000
   0.0000000000000000    7.0204796791076660    0.0000000000000000
   0.0000000000000000    0.0000000000000000    7.3086500167846680
K O
8 10
direct
   0.3319091796875000    0.1484143882989883    0.5337145328521729 K
   0.1484143882989883    0.6680908203125000    0.4662854671478271 K
   0.6680908203125000    0.8515856266021729    0.4662854671478271 K
   0.8515856266021729    0.3319091796875000    0.5337145328521729 K
   0.8319091796875000    0.6484143733978271    0.0337145328521729 K
   0.6484143733978271    0.1680908203125000    0.9662854671478271 K
   0.1680908203125000    0.3515856266021729    0.9662854671478271 K
   0.3515856266021729    0.8319091796875000    0.0337145328521729 K
   0.0212512519210577    0.0000746250152588    0.7430362105369568 O
   0.9787487387657166    0.9999253749847412    0.2569637894630432 O
   0.5212512612342834    0.5000746250152588    0.2430362701416016 O
   0.4787487387657166    0.4999253749847412    0.7569637894630432 O
   0.1989056468009949    0.5492753982543945    0.2264335155487061 O
   0.8010943531990051    0.4507246017456055    0.7735664844512939 O
   0.5492753982543945    0.8010943531990051    0.7735664844512939 O
   0.4507246017456055    0.1989056468009949    0.2264335155487061 O
   0.3412923514842987    0.3715167343616486    0.2812256217002869 O
   0.8412923812866211    0.8715167045593262    0.7812256217002869 O
