Si6 N4 O6
1.0
   6.6675834655761719   -1.7865736484527588    0.0000000000000000
  -1.7865736484527588    6.6675834655761719    0.0000000000000000
   0.0000000000000000    0.0000000000000000    4.6114110946655273
N O N O Si
1 3 3 3 6
direct
   0.6935741901397705    0.3555071651935577    0.6603743433952332 N
   0.3022343516349792    0.1802544891834259    0.2476220577955246 O
   0.8197455406188965    0.1219798624515533    0.2476220577955246 O
   0.8780201673507690    0.6977656483650208    0.2476220577955246 O
   0.4388986229896545    0.8968239426612854    0.2162271589040756 N
   0.1031760573387146    0.5420746803283691    0.2162271589040756 N
   0.4579253196716309    0.5611013770103455    0.2162271589040756 N
   0.0933855995535851    0.7430484294891357    0.7288330197334290 O
   0.2569515705108643    0.3503371477127075    0.7288330197334290 O
   0.6496628522872925    0.9066144227981567    0.7288330197334290 O
   0.1443857699632645    0.7808859944343567    0.0707684084773064 Si
   0.2191140055656433    0.3634997606277466    0.0707684084773064 Si
   0.6365002393722534    0.8556142449378967    0.0707684084773064 Si
   0.9407315254211426    0.5514602661132812    0.4793559014797211 Si
   0.4485397338867188    0.3892712593078613    0.4793559014797211 Si
   0.6107287406921387    0.0592684745788574    0.4793559014797211 Si
