Sr4 Ga2 N8
1.0
   6.1302657127380371    0.0000000000000000    0.0000000000000000
   0.0000000000000000    6.1302657127380371    0.0000000000000000
   0.0000000000000000    0.0000000000000000    6.2907900810241699
N Sr Ga N
4 4 2 4
direct
   0.5733643770217896    0.9072362184524536    0.9811058044433594 N
   0.0927637815475464    0.5733643770217896    0.9811058044433594 N
   0.0733643770217896    0.4072362184524536    0.4811058044433594 N
   0.5927637815475464    0.0733643770217896    0.4811058044433594 N
   0.1167899295687675    0.0011329496046528    0.2583013176918030 Sr
   0.8832100629806519    0.9988670349121094    0.7416986823081970 Sr
   0.6167899370193481    0.5011329650878906    0.7583013176918030 Sr
   0.3832100629806519    0.4988670647144318    0.2416986823081970 Sr
   0.1327468901872635    0.4940548241138458    0.7446828484535217 Ga
   0.6327468752861023    0.9940547943115234    0.2446827888488770 Ga
   0.2363674193620682    0.7673132419586182    0.7069793343544006 N
   0.2326867580413818    0.2363674193620682    0.7069793343544006 N
   0.7673132419586182    0.7636325955390930    0.2930206656455994 N
   0.7636325955390930    0.2326867580413818    0.2930206656455994 N
