Cr4 S8
1.0
   5.2564077377319336    0.0000000000000000    0.0000000000000000
   0.0000000000000000    7.1008210182189941    0.0000000000000000
   0.0000000000000000    0.0000000000000000    7.0661163330078125
S Cr
8 4
direct
   0.0006545253563672    0.6242167353630066    0.2983767688274384 S
   0.4993454813957214    0.8757832646369934    0.2983767688274384 S
   0.9993454813957214    0.1242167949676514    0.7016232013702393 S
   0.5006545186042786    0.3757832646369934    0.7016232013702393 S
   0.0008279564208351    0.1228709220886230    0.2887891829013824 S
   0.4991720318794250    0.3771290779113770    0.2887891829013824 S
   0.9991720318794250    0.6228709220886230    0.7112108469009399 S
   0.5008279681205750    0.8771290779113770    0.7112108469009399 S
   0.4910835325717926    0.1250180006027222    0.4935123920440674 Cr
   0.0089164674282074    0.3749819993972778    0.4935123920440674 Cr
   0.5089164972305298    0.6250180006027222    0.5064876079559326 Cr
   0.9910835027694702    0.8749819993972778    0.5064876079559326 Cr
