Si2 P2 S12
1.0
   5.9989967346191406    0.0000000000000000    0.0000000000000000
   0.0000000000000000    5.9989967346191406    0.0000000000000000
   0.0000000000000000    0.0000000000000000   11.0468816757202148
P S Si
2 12 2
direct
   0.6586743593215942    0.3833079040050507    0.5121480226516724 P
   0.6166920661926270    0.1586743593215942    0.0121480226516724 P
   0.4894460439682007    0.4324139058589935    0.9890724420547485 S
   0.0105539560317993    0.0675860941410065    0.9890724420547485 S
   0.5675860643386841    0.9894460439682007    0.4890724420547485 S
   0.9324139356613159    0.5105539560317993    0.4890724420547485 S
   0.5406836867332458    0.9637925028800964    0.1645350605249405 S
   0.9593163132667542    0.5362074971199036    0.1645350605249405 S
   0.0362074971199036    0.0406837463378906    0.6645350456237793 S
   0.4637925624847412    0.4593163132667542    0.6645350456237793 S
   0.4593163132667542    0.0362074971199036    0.8354649543762207 S
   0.0406837463378906    0.4637925624847412    0.8354649543762207 S
   0.9637925028800964    0.9593163132667542    0.3354649543762207 S
   0.5362074971199036    0.5406836867332458    0.3354649543762207 S
   0.7232179641723633    0.7778818607330322    0.3457338213920593 Si
   0.2221181392669678    0.2232179641723633    0.8457338213920593 Si
