Sr2 Fe1 P1 S1 N1 O7
1.0
   4.6388359069824219   -0.2331945598125458   -0.3851448297500610
  -0.2331945449113846    5.5290527343750000    0.0953892469406128
  -0.3851448595523834    0.0953892469406128    6.9920630455017090
O P S Sr O Sr O Fe N O
2 1 1 1 2 1 1 1 1 2
direct
   0.7367339134216309    0.7681857347488403    0.5223971605300903 O
   0.7612156271934509    0.8599311709403992    0.1819676011800766 O
   0.4987826049327850    0.2162682712078094    0.8497586846351624 P
   0.8909735679626465    0.6718312501907349    0.3575999140739441 S
   0.2086137831211090    0.2322918474674225    0.1793888807296753 Sr
   0.7195558547973633    0.4043000340461731    0.2566111683845520 O
   0.7465417385101318    0.2493686676025391    0.7780786156654358 O
   0.9324662089347839    0.7034130096435547    0.8661190867424011 Sr
   0.1699692308902740    0.9640683531761169    0.4599389731884003 O
   0.8888536095619202    0.1410457342863083    0.5301570296287537 Fe
   0.3432789146900177    0.9941939711570740    0.9056972265243530 N
   0.3637415170669556    0.4118924736976624    0.8738788962364197 O
   0.0990792736411095    0.4837481975555420    0.4486488103866577 O
