       N       E                     dE             d eps       ncg     rms          rms(c)
DAV:   1     0.445612285286E+03    0.44561E+03   -0.33929E+04 20240   0.125E+03
DAV:   2    -0.279298951443E+02   -0.47354E+03   -0.45572E+03 25600   0.221E+02
DAV:   3    -0.709921190641E+02   -0.43062E+02   -0.41912E+02 24650   0.719E+01
DAV:   4    -0.721880961022E+02   -0.11960E+01   -0.11879E+01 26230   0.133E+01
DAV:   5    -0.722250051225E+02   -0.36909E-01   -0.36874E-01 25945   0.231E+00    0.327E+01
DAV:   6    -0.698879015278E+02    0.23371E+01   -0.79798E+00 24960   0.114E+01    0.182E+01
DAV:   7    -0.699857382780E+02   -0.97837E-01   -0.64418E+00 23845   0.861E+00    0.868E+00
DAV:   8    -0.700433395418E+02   -0.57601E-01   -0.82700E-01 23300   0.356E+00    0.396E+00
DAV:   9    -0.700323509518E+02    0.10989E-01   -0.10263E-01 25955   0.130E+00    0.197E+00
DAV:  10    -0.700336614858E+02   -0.13105E-02   -0.43305E-02 24340   0.731E-01    0.818E-01
DAV:  11    -0.700353035593E+02   -0.16421E-02   -0.11311E-02 23160   0.395E-01    0.358E-01
DAV:  12    -0.700355427166E+02   -0.23916E-03   -0.19025E-03 24980   0.187E-01    0.142E-01
DAV:  13    -0.700356058090E+02   -0.63092E-04   -0.28970E-04 26960   0.631E-02    0.861E-02
DAV:  14    -0.700356261234E+02   -0.20314E-04   -0.46112E-05 23640   0.289E-02    0.497E-02
DAV:  15    -0.700356452377E+02   -0.19114E-04   -0.45796E-05 24490   0.251E-02    0.147E-02
DAV:  16    -0.700356465923E+02   -0.13546E-05   -0.51061E-06 22450   0.105E-02    0.696E-03
DAV:  17    -0.700356473598E+02   -0.76753E-06   -0.12843E-06 12890   0.453E-03
   1 F= -.70035647E+02 E0= -.70034881E+02  d E =-.153349E-02  mag=     1.9842
