  PAW_PBE B 06Sep2000                    
   3.00000000000000     
 parameters from PSCTR are:
   SHA256 =  a32ced30f5ae56fd4d10b4325ff17eb3e4e38ee0f4288bc219fb012fddfa6e97 B/POTCAR
   COPYR  = (c) Copyright 06Sep2000 Georg Kresse
   COPYR  = This file is part of the software VASP. Any use, copying, and all other rights are regulated by the VASP license agreement.
   COPYR  = If you do not have a valid VASP license, you may not use, copy or distribute this file.
   VRHFIN =B: s2p1
   LEXCH  = PE
   EATOM  =    71.1703 eV,    5.2309 Ry

   TITEL  = PAW_PBE B 06Sep2000
   LULTRA =        F    use ultrasoft PP ?
   IUNSCR =        1    unscreen: 0-lin 1-nonlin 2-no
   RPACOR =    1.200    partial core radius
   POMASS =   10.811; ZVAL   =    3.000    mass and valenz
   RCORE  =    1.700    outmost cutoff radius
   RWIGS  =    1.710; RWIGS  =    0.905    wigner-seitz radius (au A)
   ENMAX  =  318.614; ENMIN  =  238.960 eV
   ICORE  =        2    local potential
   LCOR   =        T    correct aug charges
   LPAW   =        T    paw PP
   EAUG   =  535.514
   DEXC   =    0.000
   RMAX   =    1.732    core radius for proj-oper
   RAUG   =    1.300    factor for augmentation sphere
   RDEP   =    1.757    radius for radial grids
   RDEPT  =    1.436    core radius for aug-charge
 
   Atomic configuration
    4 entries
     n  l   j            E        occ.
     1  0  0.50      -180.5896   2.0000
     2  0  0.50        -9.4431   2.0000
     2  1  0.50        -3.6068   1.0000
     3  2  1.50        -4.0817   0.0000
   Description
     l       E           TYP  RCUT    TYP  RCUT
     0     -9.4430752     23  1.500
     0      0.8675899     23  1.500
     1     -3.6067955     23  1.700
     1      6.1086146     23  1.700
     2     -4.0817478      7  1.700
   Error from kinetic energy argument (eV)
   NDATA  =      100
   STEP   =   20.000   1.050
  14.3      13.4      13.0      12.2      11.8      11.1      10.4      10.0
  9.41      8.82      8.54      8.01      7.51      7.04      6.60      6.19
  5.81      5.46      5.12      4.66      4.38      4.11      3.74      3.52
  3.30      3.00      2.73      2.56      2.33      2.11      1.91      1.73
  1.56      1.40      1.26      1.13     0.977     0.871     0.745     0.660
 0.559     0.471     0.395     0.329     0.273     0.224     0.183     0.141
 0.114     0.859E-01 0.642E-01 0.505E-01 0.371E-01 0.269E-01 0.182E-01 0.131E-01
 0.944E-02 0.645E-02 0.454E-02 0.334E-02 0.259E-02 0.213E-02 0.184E-02 0.161E-02
 0.146E-02 0.131E-02 0.118E-02 0.105E-02 0.903E-03 0.786E-03 0.664E-03 0.556E-03
 0.463E-03 0.386E-03 0.318E-03 0.271E-03 0.232E-03 0.204E-03 0.181E-03 0.166E-03
 0.150E-03 0.135E-03 0.119E-03 0.101E-03 0.848E-04 0.710E-04 0.606E-04 0.531E-04
 0.482E-04 0.446E-04 0.407E-04 0.363E-04 0.306E-04 0.256E-04 0.215E-04 0.190E-04
 0.176E-04 0.165E-04 0.148E-04 0.127E-04
END of PSCTR-controll parameters
 local part
   109.604107337578     
  0.22931699E+02  0.22928190E+02  0.22923080E+02  0.22914566E+02  0.22902653E+02
  0.22887345E+02  0.22868648E+02  0.22846567E+02  0.22821108E+02  0.22792275E+02
  0.22760070E+02  0.22724495E+02  0.22685549E+02  0.22643229E+02  0.22597530E+02
  0.22548447E+02  0.22495970E+02  0.22440090E+02  0.22380794E+02  0.22318069E+02
  0.22251898E+02  0.22182263E+02  0.22109143E+02  0.22032515E+02  0.21952352E+02
  0.21868625E+02  0.21781300E+02  0.21690344E+02  0.21595717E+02  0.21497378E+02
  0.21395282E+02  0.21289382E+02  0.21179629E+02  0.21065972E+02  0.20948357E+02
  0.20826729E+02  0.20701033E+02  0.20571211E+02  0.20437205E+02  0.20298960E+02
  0.20156417E+02  0.20009522E+02  0.19858220E+02  0.19702461E+02  0.19542194E+02
  0.19377376E+02  0.19207966E+02  0.19033928E+02  0.18855232E+02  0.18671855E+02
  0.18483779E+02  0.18290996E+02  0.18093505E+02  0.17891313E+02  0.17684440E+02
  0.17472912E+02  0.17256768E+02  0.17036058E+02  0.16810844E+02  0.16581200E+02
  0.16347213E+02  0.16108981E+02  0.15866617E+02  0.15620247E+02  0.15370011E+02
  0.15116062E+02  0.14858566E+02  0.14597704E+02  0.14333669E+02  0.14066667E+02
  0.13796919E+02  0.13524657E+02  0.13250125E+02  0.12973579E+02  0.12695285E+02
  0.12415520E+02  0.12134572E+02  0.11852735E+02  0.11570313E+02  0.11287616E+02
  0.11004961E+02  0.10722667E+02  0.10441062E+02  0.10160472E+02  0.98812278E+01
  0.96036589E+01  0.93280951E+01  0.90548639E+01  0.87842900E+01  0.85166935E+01
  0.82523892E+01  0.79916850E+01  0.77348810E+01  0.74822681E+01  0.72341272E+01
  0.69907277E+01  0.67523269E+01  0.65191686E+01  0.62914826E+01  0.60694833E+01
  0.58533695E+01  0.56433228E+01  0.54395081E+01  0.52420717E+01  0.50511421E+01
  0.48668284E+01  0.46892208E+01  0.45183901E+01  0.43543873E+01  0.41972440E+01
  0.40469721E+01  0.39035640E+01  0.37669928E+01  0.36372130E+01  0.35141600E+01
  0.33977515E+01  0.32878875E+01  0.31844512E+01  0.30873096E+01  0.29963143E+01
  0.29113024E+01  0.28320972E+01  0.27585098E+01  0.26903392E+01  0.26273741E+01
  0.25693936E+01  0.25161685E+01  0.24674626E+01  0.24230334E+01  0.23826336E+01
  0.23460126E+01  0.23129170E+01  0.22830921E+01  0.22562835E+01  0.22322375E+01
  0.22107025E+01  0.21914306E+01  0.21741776E+01  0.21587051E+01  0.21447806E+01
  0.21321788E+01  0.21206826E+01  0.21100833E+01  0.21001819E+01  0.20907893E+01
  0.20817273E+01  0.20728288E+01  0.20639381E+01  0.20549116E+01  0.20456181E+01
  0.20359385E+01  0.20257664E+01  0.20150079E+01  0.20035818E+01  0.19914191E+01
  0.19784633E+01  0.19646699E+01  0.19500061E+01  0.19344505E+01  0.19179926E+01
  0.19006325E+01  0.18823803E+01  0.18632554E+01  0.18432861E+01  0.18225088E+01
  0.18009675E+01  0.17787128E+01  0.17558018E+01  0.17322965E+01  0.17082638E+01
  0.16837745E+01  0.16589024E+01  0.16337238E+01  0.16083167E+01  0.15827601E+01
  0.15571333E+01  0.15315152E+01  0.15059837E+01  0.14806150E+01  0.14554833E+01
  0.14306598E+01  0.14062128E+01  0.13822065E+01  0.13587015E+01  0.13357535E+01
  0.13134137E+01  0.12917282E+01  0.12707377E+01  0.12504777E+01  0.12309780E+01
  0.12122627E+01  0.11943504E+01  0.11772539E+01  0.11609806E+01  0.11455321E+01
  0.11309049E+01  0.11170904E+01  0.11040748E+01  0.10918397E+01  0.10803624E+01
  0.10696161E+01  0.10595700E+01  0.10501900E+01  0.10414391E+01  0.10332775E+01
  0.10256629E+01  0.10185514E+01  0.10118977E+01  0.10056550E+01  0.99977617E+00
  0.99421374E+00  0.98892028E+00  0.98384885E+00  0.97895336E+00  0.97418888E+00
  0.96951198E+00  0.96488103E+00  0.96025648E+00  0.95560109E+00  0.95088017E+00
  0.94606179E+00  0.94111693E+00  0.93601964E+00  0.93074713E+00  0.92527989E+00
  0.91960169E+00  0.91369967E+00  0.90756426E+00  0.90118921E+00  0.89457150E+00
  0.88771126E+00  0.88061167E+00  0.87327880E+00  0.86572151E+00  0.85795122E+00
  0.84998177E+00  0.84182918E+00  0.83351146E+00  0.82504839E+00  0.81646122E+00
  0.80777253E+00  0.79900587E+00  0.79018561E+00  0.78133661E+00  0.77248403E+00
  0.76365306E+00  0.75486868E+00  0.74615545E+00  0.73753728E+00  0.72903722E+00
  0.72067727E+00  0.71247822E+00  0.70445945E+00  0.69663879E+00  0.68903241E+00
  0.68165471E+00  0.67451818E+00  0.66763336E+00  0.66100882E+00  0.65465103E+00
  0.64856444E+00  0.64275143E+00  0.63721233E+00  0.63194551E+00  0.62694735E+00
  0.62221238E+00  0.61773335E+00  0.61350132E+00  0.60950578E+00  0.60573475E+00
  0.60217498E+00  0.59881200E+00  0.59563038E+00  0.59261379E+00  0.58974521E+00
  0.58700711E+00  0.58438156E+00  0.58185046E+00  0.57939565E+00  0.57699909E+00
  0.57464303E+00  0.57231015E+00  0.56998367E+00  0.56764754E+00  0.56528654E+00
  0.56288639E+00  0.56043385E+00  0.55791685E+00  0.55532453E+00  0.55264734E+00
  0.54987706E+00  0.54700687E+00  0.54403139E+00  0.54094665E+00  0.53775013E+00
  0.53444073E+00  0.53101876E+00  0.52748591E+00  0.52384516E+00  0.52010079E+00
  0.51625824E+00  0.51232408E+00  0.50830593E+00  0.50421233E+00  0.50005264E+00
  0.49583698E+00  0.49157607E+00  0.48728113E+00  0.48296378E+00  0.47863590E+00
  0.47430951E+00  0.46999670E+00  0.46570945E+00  0.46145956E+00  0.45725851E+00
  0.45311742E+00  0.44904687E+00  0.44505686E+00  0.44115672E+00  0.43735502E+00
  0.43365950E+00  0.43007704E+00  0.42661356E+00  0.42327405E+00  0.42006246E+00
  0.41698173E+00  0.41403377E+00  0.41121945E+00  0.40853861E+00  0.40599009E+00
  0.40357172E+00  0.40128040E+00  0.39911212E+00  0.39706199E+00  0.39512434E+00
  0.39329276E+00  0.39156015E+00  0.38991883E+00  0.38836062E+00  0.38687688E+00
  0.38545864E+00  0.38409665E+00  0.38278150E+00  0.38150368E+00  0.38025369E+00
  0.37902209E+00  0.37779963E+00  0.37657730E+00  0.37534640E+00  0.37409864E+00
  0.37282619E+00  0.37152175E+00  0.37017859E+00  0.36879062E+00  0.36735243E+00
  0.36585933E+00  0.36430735E+00  0.36269331E+00  0.36101478E+00  0.35927016E+00
  0.35745859E+00  0.35558001E+00  0.35363515E+00  0.35162544E+00  0.34955308E+00
  0.34742091E+00  0.34523245E+00  0.34299180E+00  0.34070363E+00  0.33837310E+00
  0.33600581E+00  0.33360776E+00  0.33118525E+00  0.32874484E+00  0.32629328E+00
  0.32383744E+00  0.32138426E+00  0.31894064E+00  0.31651345E+00  0.31410938E+00
  0.31173495E+00  0.30939642E+00  0.30709971E+00  0.30485040E+00  0.30265368E+00
  0.30051425E+00  0.29843633E+00  0.29642363E+00  0.29447931E+00  0.29260595E+00
  0.29080554E+00  0.28907949E+00  0.28742859E+00  0.28585305E+00  0.28435246E+00
  0.28292585E+00  0.28157168E+00  0.28028785E+00  0.27907176E+00  0.27792031E+00
  0.27682997E+00  0.27579679E+00  0.27481644E+00  0.27388427E+00  0.27299537E+00
  0.27214457E+00  0.27132656E+00  0.27053588E+00  0.26976699E+00  0.26901435E+00
  0.26827241E+00  0.26753574E+00  0.26679900E+00  0.26605704E+00  0.26530494E+00
  0.26453800E+00  0.26375185E+00  0.26294244E+00  0.26210609E+00  0.26123951E+00
  0.26033982E+00  0.25940458E+00  0.25843180E+00  0.25741995E+00  0.25636796E+00
  0.25527524E+00  0.25414166E+00  0.25296757E+00  0.25175373E+00  0.25050137E+00
  0.24921214E+00  0.24788804E+00  0.24653150E+00  0.24514524E+00  0.24373231E+00
  0.24229604E+00  0.24083998E+00  0.23936789E+00  0.23788371E+00  0.23639147E+00
  0.23489530E+00  0.23339939E+00  0.23190790E+00  0.23042496E+00  0.22895465E+00
  0.22750090E+00  0.22606751E+00  0.22465808E+00  0.22327602E+00  0.22192447E+00
  0.22060631E+00  0.21932411E+00  0.21808014E+00  0.21687634E+00  0.21571428E+00
  0.21459520E+00  0.21351995E+00  0.21248904E+00  0.21150259E+00  0.21056037E+00
  0.20966178E+00  0.20880590E+00  0.20799144E+00  0.20721682E+00  0.20648015E+00
  0.20577928E+00  0.20511178E+00  0.20447503E+00  0.20386618E+00  0.20328222E+00
  0.20272002E+00  0.20217633E+00  0.20164781E+00  0.20113109E+00  0.20062279E+00
  0.20011955E+00  0.19961804E+00  0.19911505E+00  0.19860745E+00  0.19809225E+00
  0.19756664E+00  0.19702799E+00  0.19647388E+00  0.19590211E+00  0.19531074E+00
  0.19469810E+00  0.19406276E+00  0.19340361E+00  0.19271979E+00  0.19201078E+00
  0.19127631E+00  0.19051643E+00  0.18973146E+00  0.18892202E+00  0.18808897E+00
  0.18723347E+00  0.18635688E+00  0.18546080E+00  0.18454706E+00  0.18361765E+00
  0.18267474E+00  0.18172062E+00  0.18075773E+00  0.17978857E+00  0.17881573E+00
  0.17784184E+00  0.17686953E+00  0.17590144E+00  0.17494015E+00  0.17398820E+00
  0.17304804E+00  0.17212202E+00  0.17121233E+00  0.17032105E+00  0.16945008E+00
  0.16860113E+00  0.16777572E+00  0.16697517E+00  0.16620056E+00  0.16545277E+00
  0.16473242E+00  0.16403992E+00  0.16337542E+00  0.16273885E+00  0.16212990E+00
  0.16154804E+00  0.16099251E+00  0.16046234E+00  0.15995637E+00  0.15947326E+00
  0.15901149E+00  0.15856940E+00  0.15814517E+00  0.15773688E+00  0.15734251E+00
  0.15695998E+00  0.15658711E+00  0.15622174E+00  0.15586164E+00  0.15550462E+00
  0.15514852E+00  0.15479122E+00  0.15443065E+00  0.15406486E+00  0.15369199E+00
  0.15331029E+00  0.15291815E+00  0.15251413E+00  0.15209693E+00  0.15166542E+00
  0.15121866E+00  0.15075590E+00  0.15027658E+00  0.14978031E+00  0.14926694E+00
  0.14873649E+00  0.14818917E+00  0.14762539E+00  0.14704572E+00  0.14645094E+00
  0.14584197E+00  0.14521988E+00  0.14458589E+00  0.14394135E+00  0.14328772E+00
  0.14262654E+00  0.14195945E+00  0.14128816E+00  0.14061441E+00  0.13993998E+00
  0.13926665E+00  0.13859621E+00  0.13793042E+00  0.13727100E+00  0.13661961E+00
  0.13597783E+00  0.13534719E+00  0.13472908E+00  0.13412479E+00  0.13353549E+00
  0.13296221E+00  0.13240585E+00  0.13186714E+00  0.13134668E+00  0.13084488E+00
  0.13036202E+00  0.12989818E+00  0.12945330E+00  0.12902717E+00  0.12861939E+00
  0.12822943E+00  0.12785662E+00  0.12750013E+00  0.12715902E+00  0.12683222E+00
  0.12651857E+00  0.12621680E+00  0.12592556E+00  0.12564345E+00  0.12536900E+00
  0.12510069E+00  0.12483702E+00  0.12457643E+00  0.12431739E+00  0.12405840E+00
  0.12379798E+00  0.12353470E+00  0.12326720E+00  0.12299419E+00  0.12271447E+00
  0.12242693E+00  0.12213057E+00  0.12182451E+00  0.12150798E+00  0.12118035E+00
  0.12084112E+00  0.12048992E+00  0.12012652E+00  0.11975084E+00  0.11936293E+00
  0.11896296E+00  0.11855127E+00  0.11812830E+00  0.11769462E+00  0.11725092E+00
  0.11679799E+00  0.11633673E+00  0.11586813E+00  0.11539325E+00  0.11491321E+00
  0.11442922E+00  0.11394249E+00  0.11345429E+00  0.11296592E+00  0.11247865E+00
  0.11199377E+00  0.11151255E+00  0.11103623E+00  0.11056598E+00  0.11010296E+00
  0.10964823E+00  0.10920279E+00  0.10876756E+00  0.10834336E+00  0.10793090E+00
  0.10753081E+00  0.10714359E+00  0.10676964E+00  0.10640922E+00  0.10606250E+00
  0.10572950E+00  0.10541013E+00  0.10510420E+00  0.10481139E+00  0.10453126E+00
  0.10426329E+00  0.10400683E+00  0.10376116E+00  0.10352546E+00  0.10329886E+00
  0.10308038E+00  0.10286904E+00  0.10266375E+00  0.10246343E+00  0.10226696E+00
  0.10207320E+00  0.10188101E+00  0.10168927E+00  0.10149685E+00  0.10130267E+00
  0.10110569E+00  0.10090492E+00  0.10069941E+00  0.10048829E+00  0.10027077E+00
  0.10004614E+00  0.99813754E-01  0.99573092E-01  0.99323712E-01  0.99065276E-01
  0.98797550E-01  0.98520404E-01  0.98233816E-01  0.97937863E-01  0.97632731E-01
  0.97318701E-01  0.96996155E-01  0.96665566E-01  0.96327491E-01  0.95982572E-01
  0.95631523E-01  0.95275124E-01  0.94914213E-01  0.94549679E-01  0.94182451E-01
  0.93813490E-01  0.93443777E-01  0.93074306E-01  0.92706076E-01  0.92340073E-01
  0.91977269E-01  0.91618610E-01  0.91265003E-01  0.90917312E-01  0.90576349E-01
  0.90242864E-01  0.89917540E-01  0.89600990E-01  0.89293744E-01  0.88996251E-01
  0.88708874E-01  0.88431882E-01  0.88165456E-01  0.87909682E-01  0.87664552E-01
  0.87429966E-01  0.87205731E-01  0.86991568E-01  0.86787110E-01  0.86591910E-01
  0.86405442E-01  0.86227112E-01  0.86056259E-01  0.85892166E-01  0.85734063E-01
  0.85581137E-01  0.85432541E-01  0.85287398E-01  0.85144815E-01  0.85003889E-01
  0.84863712E-01  0.84723387E-01  0.84582032E-01  0.84438789E-01  0.84292832E-01
  0.84143376E-01  0.83989682E-01  0.83831066E-01  0.83666904E-01  0.83496637E-01
  0.83319778E-01  0.83135913E-01  0.82944709E-01  0.82745910E-01  0.82539348E-01
  0.82324935E-01  0.82102671E-01  0.81872637E-01  0.81634998E-01  0.81390002E-01
  0.81137970E-01  0.80879301E-01  0.80614461E-01  0.80343982E-01  0.80068454E-01
  0.79788520E-01  0.79504869E-01  0.79218231E-01  0.78929367E-01  0.78639062E-01
  0.78348118E-01  0.78057349E-01  0.77767566E-01  0.77479577E-01  0.77194173E-01
  0.76912124E-01  0.76634172E-01  0.76361021E-01  0.76093332E-01  0.75831721E-01
  0.75576746E-01  0.75328908E-01  0.75088644E-01  0.74856325E-01  0.74632251E-01
  0.74416648E-01  0.74209670E-01  0.74011393E-01  0.73821819E-01  0.73640874E-01
  0.73468408E-01  0.73304201E-01  0.73147960E-01  0.72999327E-01  0.72857881E-01
  0.72723142E-01  0.72594575E-01  0.72471597E-01  0.72353583E-01  0.72239871E-01
  0.72129768E-01  0.72022558E-01  0.71917508E-01  0.71813874E-01  0.71710913E-01
  0.71607883E-01  0.71504055E-01  0.71398719E-01  0.71291191E-01  0.71180815E-01
  0.71066978E-01  0.70949105E-01  0.70826673E-01  0.70699208E-01  0.70566298E-01
  0.70427586E-01  0.70282783E-01  0.70131663E-01  0.69974067E-01  0.69809906E-01
  0.69639160E-01  0.69461876E-01  0.69278170E-01  0.69088223E-01  0.68892279E-01
  0.68690644E-01  0.68483682E-01  0.68271807E-01  0.68055486E-01  0.67835228E-01
  0.67611582E-01  0.67385130E-01  0.67156484E-01  0.66926276E-01  0.66695155E-01
  0.66463780E-01  0.66232814E-01  0.66002916E-01  0.65774736E-01  0.65548910E-01
  0.65326052E-01  0.65106749E-01  0.64891557E-01  0.64680993E-01  0.64475534E-01
  0.64275609E-01  0.64081601E-01  0.63893836E-01  0.63712585E-01  0.63538063E-01
  0.63370422E-01  0.63209757E-01  0.63056096E-01  0.62909410E-01  0.62769608E-01
  0.62636539E-01  0.62509993E-01  0.62389708E-01  0.62275366E-01  0.62166603E-01
  0.62063008E-01  0.61964130E-01  0.61869481E-01  0.61778542E-01  0.61690767E-01
  0.61605589E-01  0.61522425E-01  0.61440685E-01  0.61359771E-01  0.61279090E-01
  0.61198052E-01  0.61116084E-01  0.61032630E-01  0.60947156E-01  0.60859156E-01
  0.60768160E-01  0.60673729E-01  0.60575470E-01  0.60473031E-01  0.60366106E-01
  0.60254440E-01  0.60137829E-01  0.60016120E-01  0.59889217E-01  0.59757075E-01
  0.59619706E-01  0.59477175E-01  0.59329598E-01  0.59177145E-01  0.59020034E-01
  0.58858528E-01  0.58692937E-01  0.58523609E-01  0.58350931E-01  0.58175320E-01
  0.57997226E-01  0.57817121E-01  0.57635496E-01  0.57452860E-01  0.57269730E-01
  0.57086627E-01  0.56904075E-01  0.56722590E-01  0.56542679E-01  0.56364834E-01
  0.56189527E-01  0.56017207E-01  0.55848293E-01  0.55683174E-01  0.55522203E-01
  0.55365694E-01  0.55213920E-01  0.55067111E-01  0.54925450E-01  0.54789075E-01
  0.54658074E-01  0.54532489E-01  0.54412310E-01  0.54297483E-01  0.54187905E-01
  0.54083426E-01  0.53983856E-01  0.53888960E-01  0.53798465E-01  0.53712064E-01
  0.53629415E-01  0.53550148E-01  0.53473866E-01  0.53400152E-01  0.53328572E-01
  0.53258677E-01  0.53190009E-01  0.53122108E-01  0.53054513E-01  0.52986766E-01
  0.52918420E-01  0.52849039E-01  0.52778205E-01  0.52705522E-01  0.52630616E-01
  0.52553141E-01  0.52472785E-01  0.52389265E-01  0.52302337E-01  0.52211793E-01
  0.52117466E-01  0.52019231E-01  0.51917003E-01  0.51810741E-01  0.51700445E-01
  0.51586161E-01  0.51467973E-01  0.51346006E-01  0.51220426E-01  0.51091435E-01
  0.50959269E-01  0.50824196E-01  0.50686515E-01  0.50546550E-01  0.50404647E-01
  0.50261174E-01  0.50116513E-01  0.49971057E-01  0.49825208E-01  0.49679371E-01
  0.49533953E-01  0.49389352E-01  0.49245963E-01  0.49104165E-01  0.48964325E-01
  0.48826787E-01  0.48691876E-01  0.48559892E-01  0.48431104E-01  0.48305755E-01
  0.48184053E-01  0.48066173E-01  0.47952255E-01  0.47842402E-01  0.47736680E-01
  0.47635117E-01  0.47537704E-01  0.47444394E-01  0.47355105E-01  0.47269719E-01
  0.47188083E-01  0.47110013E-01  0.47035296E-01  0.46963689E-01  0.46894924E-01
  0.46828711E-01  0.46764739E-01  0.46702682E-01  0.46642199E-01  0.46582940E-01
  0.46524547E-01  0.46466660E-01  0.46408918E-01  0.46350966E-01  0.46292454E-01
  0.46233045E-01  0.46172414E-01  0.46110254E-01  0.46046278E-01  0.45980221E-01
  0.45911844E-01  0.45840933E-01  0.45767306E-01  0.45690809E-01  0.45611322E-01
 gradient corrections used for XC
           5
 core charge-density (partial)
  0.14908602E+00  0.14904416E+00  0.14891865E+00  0.14870969E+00  0.14841761E+00
  0.14804289E+00  0.14758614E+00  0.14704809E+00  0.14642960E+00  0.14573166E+00
  0.14495539E+00  0.14410203E+00  0.14317292E+00  0.14216953E+00  0.14109345E+00
  0.13994635E+00  0.13873002E+00  0.13744634E+00  0.13609729E+00  0.13468493E+00
  0.13321139E+00  0.13167891E+00  0.13008976E+00  0.12844631E+00  0.12675097E+00
  0.12500621E+00  0.12321455E+00  0.12137854E+00  0.11950078E+00  0.11758389E+00
  0.11563053E+00  0.11364334E+00  0.11162503E+00  0.10957826E+00  0.10750573E+00
  0.10541011E+00  0.10329407E+00  0.10116028E+00  0.99011351E-01  0.96849903E-01
  0.94678510E-01  0.92499712E-01  0.90316010E-01  0.88129861E-01  0.85943672E-01
  0.83759801E-01  0.81580546E-01  0.79408150E-01  0.77244792E-01  0.75092584E-01
  0.72953572E-01  0.70829733E-01  0.68722968E-01  0.66635105E-01  0.64567898E-01
  0.62523019E-01  0.60502064E-01  0.58506548E-01  0.56537905E-01  0.54597488E-01
  0.52686568E-01  0.50806335E-01  0.48957894E-01  0.47142273E-01  0.45360414E-01
  0.43613181E-01  0.41901359E-01  0.40225651E-01  0.38586685E-01  0.36985012E-01
  0.35421105E-01  0.33895368E-01  0.32408129E-01  0.30959647E-01  0.29550114E-01
  0.28179654E-01  0.26848326E-01  0.25556129E-01  0.24303000E-01  0.23088819E-01
  0.21913410E-01  0.20776543E-01  0.19677939E-01  0.18617268E-01  0.17594158E-01
  0.16608189E-01  0.15658902E-01  0.14745800E-01  0.13868348E-01  0.13025978E-01
  0.12218091E-01  0.11444058E-01  0.10703225E-01  0.99949111E-02  0.93184155E-02
  0.86730167E-02  0.80579757E-02  0.74725383E-02  0.69159364E-02  0.63873911E-02
  0.58861139E-02  0.54113088E-02  0.49621744E-02  0.45379054E-02  0.41376946E-02
  0.37607341E-02  0.34062174E-02  0.30733408E-02  0.27613044E-02  0.24693140E-02
  0.21965824E-02  0.19423300E-02  0.17057868E-02  0.14861927E-02  0.12827992E-02
  0.10948698E-02  0.92168125E-03  0.76252407E-03  0.61670346E-03  0.48353994E-03
  0.36236991E-03  0.25254621E-03  0.15343861E-03  0.64434213E-04 -0.15062179E-04
 -0.85627764E-04 -0.14782149E-03 -0.20218388E-03 -0.24923684E-03 -0.28948364E-03
 -0.32340879E-03 -0.35147808E-03 -0.37413864E-03 -0.39181896E-03 -0.40492907E-03
 -0.41386065E-03 -0.41898727E-03 -0.42066457E-03 -0.41923054E-03 -0.41500577E-03
 -0.40829381E-03 -0.39938146E-03 -0.38853913E-03 -0.37602124E-03 -0.36206657E-03
 -0.34689871E-03 -0.33072646E-03 -0.31374427E-03 -0.29613269E-03 -0.27805884E-03
 -0.25967685E-03 -0.24112833E-03 -0.22254287E-03 -0.20403852E-03 -0.18572222E-03
 -0.16769035E-03 -0.15002917E-03 -0.13281529E-03 -0.11611618E-03 -0.99990609E-04
 -0.84489141E-04 -0.69654564E-04 -0.55522365E-04 -0.42121167E-04 -0.29473164E-04
 -0.17594555E-04 -0.64959560E-05  0.38171924E-05  0.13344227E-04  0.22088880E-04
  0.30058903E-04  0.37265713E-04  0.43724039E-04  0.49451589E-04  0.54468733E-04
  0.58798186E-04  0.62464724E-04  0.65494893E-04  0.67916747E-04  0.69759593E-04
  0.71053750E-04  0.71830320E-04  0.72120977E-04  0.71957765E-04  0.71372910E-04
  0.70398646E-04  0.69067052E-04  0.67409900E-04  0.65458525E-04  0.63243687E-04
  0.60795467E-04  0.58143158E-04  0.55315173E-04  0.52338964E-04  0.49240950E-04
  0.46046451E-04  0.42779639E-04  0.39463492E-04  0.36119757E-04  0.32768925E-04
  0.29430205E-04  0.26121519E-04  0.22859490E-04  0.19659444E-04  0.16535416E-04
  0.13500163E-04  0.10565179E-04  0.77407195E-05  0.50358245E-05  0.24583515E-05
  0.15007738E-07 -0.22886121E-05 -0.44479859E-05 -0.64596218E-05 -0.83210133E-05
 -0.10030592E-04 -0.11587681E-04 -0.12992443E-04 -0.14245833E-04 -0.15349542E-04
 -0.16305951E-04 -0.17118076E-04 -0.17789517E-04 -0.18324406E-04 -0.18727356E-04
 -0.19003412E-04 -0.19157999E-04 -0.19196875E-04 -0.19126085E-04 -0.18951911E-04
 -0.18680832E-04 -0.18319477E-04 -0.17874588E-04 -0.17352977E-04 -0.16761489E-04
 -0.16106965E-04 -0.15396213E-04 -0.14635971E-04 -0.13832878E-04 -0.12993448E-04
 -0.12124045E-04 -0.11230855E-04 -0.10319870E-04 -0.93968644E-05 -0.84673796E-05
 -0.75367079E-05 -0.66098793E-05 -0.56916497E-05 -0.47864920E-05 -0.38985873E-05
 -0.30318196E-05 -0.21897716E-05 -0.13757215E-05 -0.59264221E-06  0.15679804E-06
  0.87023410E-06  0.15456006E-05  0.21811275E-05  0.27753344E-05  0.33270238E-05
  0.38352736E-05  0.42994278E-05  0.47190876E-05  0.50941009E-05  0.54245510E-05
  0.57107456E-05  0.59532040E-05  0.61526455E-05  0.63099755E-05  0.64262732E-05
  0.65027775E-05  0.65408743E-05  0.65420820E-05  0.65080385E-05  0.64404878E-05
  0.63412659E-05  0.62122882E-05  0.60555361E-05  0.58730445E-05  0.56668893E-05
  0.54391751E-05  0.51920238E-05  0.49275635E-05  0.46479173E-05  0.43551933E-05
  0.40514751E-05  0.37388120E-05  0.34192110E-05  0.30946284E-05  0.27669623E-05
  0.24380462E-05  0.21096419E-05  0.17834349E-05  0.14610284E-05  0.11439395E-05
  0.83359506E-06  0.53132863E-06  0.23837766E-06 -0.44118535E-07 -0.31512031E-06
 -0.57368869E-06 -0.81898583E-06 -0.10502750E-05 -0.12669200E-05 -0.14683844E-05
 -0.16542299E-05 -0.18241145E-05 -0.19777906E-05 -0.21151019E-05 -0.22359811E-05
 -0.23404464E-05 -0.24285977E-05 -0.25006136E-05 -0.25567466E-05 -0.25973196E-05
 -0.26227212E-05 -0.26334013E-05 -0.26298664E-05 -0.26126754E-05 -0.25824339E-05
 -0.25397904E-05 -0.24854309E-05 -0.24200742E-05 -0.23444672E-05 -0.22593800E-05
 -0.21656014E-05 -0.20639344E-05 -0.19551915E-05 -0.18401903E-05 -0.17197497E-05
 -0.15946854E-05 -0.14658062E-05 -0.13339104E-05 -0.11997820E-05 -0.10641876E-05
 -0.92787329E-06 -0.79156154E-06 -0.65594868E-06 -0.52170243E-06 -0.38945959E-06
 -0.25982410E-06 -0.13336523E-06 -0.10616071E-07  0.10792783E-06  0.22180953E-06
  0.33061155E-06  0.43395653E-06  0.53150766E-06  0.62296889E-06  0.70808495E-06
  0.78664119E-06  0.85846316E-06  0.92341613E-06  0.98140431E-06  0.10323700E-05
  0.10762925E-05  0.11131872E-05  0.11431037E-05  0.11661250E-05  0.11823657E-05
  0.11919702E-05  0.11951113E-05  0.11919880E-05  0.11828243E-05  0.11678664E-05
  0.11473814E-05  0.11216550E-05  0.10909897E-05  0.10557025E-05  0.10161229E-05
  0.97259107E-06  0.92545581E-06  0.87507231E-06  0.82180045E-06  0.76600277E-06
  0.70804263E-06  0.64828244E-06  0.58708187E-06  0.52479622E-06  0.46177477E-06
  0.39835932E-06  0.33488274E-06  0.27166760E-06  0.20902496E-06  0.14725321E-06
  0.86636960E-07  0.27446169E-07 -0.30064781E-07 -0.85657806E-07 -0.13911178E-06
 -0.19022310E-06 -0.23880609E-06 -0.28469341E-06 -0.32773626E-06 -0.36780456E-06
 -0.40478697E-06 -0.43859091E-06 -0.46914240E-06 -0.49638586E-06 -0.52028380E-06
 -0.54081649E-06 -0.55798149E-06 -0.57179315E-06 -0.58228202E-06 -0.58949421E-06
 -0.59349070E-06 -0.59434662E-06 -0.59215042E-06 -0.58700306E-06 -0.57901713E-06
 -0.56831600E-06 -0.55503281E-06 -0.53930963E-06 -0.52129643E-06 -0.50115015E-06
 -0.47903371E-06 -0.45511506E-06 -0.42956619E-06 -0.40256219E-06 -0.37428029E-06
 -0.34489895E-06 -0.31459693E-06 -0.28355243E-06 -0.25194222E-06 -0.21994082E-06
 -0.18771974E-06 -0.15544668E-06 -0.12328485E-06 -0.91392296E-07 -0.59921279E-07
 -0.29017683E-07  0.11795080E-08  0.30538697E-07  0.58936109E-07  0.86256175E-07
  0.11239187E-06  0.13724499E-06  0.16072641E-06  0.18275621E-06  0.20326389E-06
  0.22218838E-06  0.23947813E-06  0.25509108E-06  0.26899459E-06  0.28116537E-06
  0.29158932E-06  0.30026135E-06  0.30718518E-06  0.31237304E-06  0.31584543E-06
  0.31763077E-06  0.31776502E-06  0.31629138E-06  0.31325981E-06  0.30872663E-06
  0.30275409E-06  0.29540990E-06  0.28676675E-06  0.27690181E-06  0.26589627E-06
  0.25383481E-06  0.24080509E-06  0.22689727E-06  0.21220350E-06  0.19681740E-06
  0.18083355E-06  0.16434708E-06  0.14745309E-06  0.13024627E-06  0.11282039E-06
  0.95267921E-07  0.77679558E-07  0.60143869E-07  0.42746900E-07  0.25571819E-07
  0.86985874E-08 -0.77963500E-08 -0.23840348E-07 -0.39364817E-07 -0.54305461E-07
 -0.68602474E-07 -0.82200725E-07 -0.95049909E-07 -0.10710467E-06 -0.11832469E-06
 -0.12867477E-06 -0.13812489E-06 -0.14665018E-06 -0.15423095E-06 -0.16085267E-06
 -0.16650587E-06 -0.17118608E-06 -0.17489375E-06 -0.17763410E-06 -0.17941698E-06
 -0.18025674E-06 -0.18017199E-06 -0.17918547E-06 -0.17732379E-06 -0.17461725E-06
 -0.17109956E-06 -0.16680761E-06 -0.16178122E-06 -0.15606288E-06 -0.14969746E-06
 -0.14273194E-06 -0.13521515E-06 -0.12719745E-06 -0.11873050E-06 -0.10986691E-06
 -0.10066003E-06 -0.91163618E-07 -0.81431611E-07 -0.71517824E-07 -0.61475708E-07
 -0.51358094E-07 -0.41216951E-07 -0.31103152E-07 -0.21066252E-07 -0.11154275E-07
 -0.14135217E-08  0.81116246E-08  0.17378863E-07  0.26348138E-07  0.34981777E-07
  0.43244626E-07  0.51104158E-07  0.58530573E-07  0.65496880E-07  0.71978966E-07
  0.77955646E-07  0.83408701E-07  0.88322897E-07  0.92685995E-07  0.96488741E-07
  0.99724842E-07  0.10239093E-06  0.10448653E-06  0.10601395E-06  0.10697826E-06
  0.10738719E-06  0.10725102E-06  0.10658246E-06  0.10539659E-06  0.10371067E-06
  0.10154405E-06  0.98918008E-07  0.95855615E-07  0.92381576E-07  0.88522077E-07
  0.84304624E-07  0.79757880E-07  0.74911500E-07  0.69795967E-07  0.64442422E-07
  0.58882498E-07  0.53148159E-07  0.47271534E-07  0.41284756E-07  0.35219809E-07
  0.29108372E-07  0.22981673E-07  0.16870346E-07  0.10804294E-07  0.48125604E-08
 -0.10767956E-08 -0.68368141E-08 -0.12441742E-07 -0.17867135E-07 -0.23089944E-07
 -0.28088603E-07 -0.32843102E-07 -0.37335048E-07 -0.41547724E-07 -0.45466135E-07
 -0.49077042E-07 -0.52368994E-07 -0.55332342E-07 -0.57959253E-07 -0.60243705E-07
 -0.62181482E-07 -0.63770159E-07 -0.65009071E-07 -0.65899284E-07 -0.66443553E-07
 -0.66646274E-07 -0.66513428E-07 -0.66052519E-07 -0.65272507E-07 -0.64183736E-07
 -0.62797853E-07 -0.61127724E-07 -0.59187350E-07 -0.56991771E-07 -0.54556976E-07
 -0.51899804E-07 -0.49037844E-07 -0.45989336E-07 -0.42773067E-07 -0.39408270E-07
 -0.35914521E-07 -0.32311636E-07 -0.28619570E-07 -0.24858319E-07 -0.21047819E-07
 -0.17207851E-07 -0.13357948E-07 -0.95173039E-08 -0.57046895E-08 -0.19383662E-08
  0.17639915E-08  0.53853702E-08  0.89094881E-08  0.12320859E-07  0.15604854E-07
  0.18747754E-07  0.21736798E-07  0.24560230E-07  0.27207333E-07  0.29668463E-07
  0.31935075E-07  0.33999742E-07  0.35856171E-07  0.37499211E-07  0.38924855E-07
  0.40130240E-07  0.41113636E-07  0.41874436E-07  0.42413133E-07  0.42731301E-07
  0.42831563E-07  0.42717561E-07  0.42393918E-07  0.41866194E-07  0.41140846E-07
  0.40225177E-07  0.39127282E-07  0.37855999E-07  0.36420847E-07  0.34831969E-07
  0.33100072E-07  0.31236362E-07  0.29252480E-07  0.27160440E-07  0.24972559E-07
  0.22701397E-07  0.20359687E-07  0.17960269E-07  0.15516031E-07  0.13039840E-07
  0.10544482E-07  0.80425997E-08  0.55466365E-08  0.30687769E-08  0.62089285E-09
 -0.17855081E-08 -0.41393326E-08 -0.64299474E-08 -0.86472232E-08 -0.10781575E-07
 -0.12823997E-07 -0.14766098E-07 -0.16600132E-07 -0.18319019E-07 -0.19916376E-07
 -0.21386524E-07 -0.22724515E-07 -0.23926135E-07 -0.24987913E-07 -0.25907124E-07
 -0.26681794E-07 -0.27310688E-07 -0.27793308E-07 -0.28129882E-07 -0.28321347E-07
 -0.28369336E-07 -0.28276153E-07 -0.28044755E-07 -0.27678720E-07 -0.27182224E-07
 -0.26560007E-07 -0.25817341E-07 -0.24959996E-07 -0.23994199E-07 -0.22926600E-07
 -0.21764232E-07 -0.20514467E-07 -0.19184976E-07 -0.17783687E-07 -0.16318740E-07
 -0.14798446E-07 -0.13231243E-07 -0.11625650E-07 -0.99902272E-08 -0.83335338E-08
 -0.66640837E-08 -0.49903069E-08 -0.33205092E-08 -0.16628338E-08 -0.25225027E-10
  0.15846075E-08  0.31592222E-08  0.46914769E-08  0.61745591E-08  0.76020129E-08
  0.89677645E-08  0.10266145E-07  0.11491913E-07  0.12640269E-07  0.13706876E-07
  0.14687868E-07  0.15579864E-07  0.16379976E-07  0.17085814E-07  0.17695489E-07
  0.18207615E-07  0.18621305E-07  0.18936170E-07  0.19152311E-07  0.19270308E-07
  0.19291213E-07  0.19216537E-07  0.19048231E-07  0.18788673E-07  0.18440647E-07
  0.18007323E-07  0.17492239E-07  0.16899271E-07  0.16232614E-07  0.15496753E-07
  0.14696440E-07  0.13836661E-07  0.12922613E-07  0.11959674E-07  0.10953371E-07
  0.99093553E-08  0.88333684E-08  0.77312154E-08  0.66087351E-08  0.54717706E-08
  0.43261411E-08  0.31776140E-08  0.20318775E-08  0.89451403E-09 -0.22902469E-09
 -0.13334426E-08 -0.24136222E-08 -0.34646470E-08 -0.44818218E-08 -0.54606922E-08
 -0.63970625E-08 -0.72870118E-08 -0.81269088E-08 -0.89134249E-08 -0.96435455E-08
 -0.10314580E-07 -0.10924168E-07 -0.11470289E-07 -0.11951263E-07 -0.12365757E-07
 -0.12712783E-07 -0.12991698E-07 -0.13202203E-07 -0.13344337E-07 -0.13418475E-07
 -0.13425316E-07 -0.13365878E-07 -0.13241488E-07 -0.13053769E-07 -0.12804627E-07
 -0.12496241E-07 -0.12131045E-07 -0.11711712E-07 -0.11241138E-07 -0.10722426E-07
 -0.10158865E-07 -0.95539131E-08 -0.89111771E-08 -0.82343928E-08 -0.75274048E-08
 -0.67941465E-08 -0.60386189E-08 -0.52648707E-08 -0.44769775E-08 -0.36790217E-08
 -0.28750724E-08 -0.20691660E-08 -0.12652867E-08 -0.46734836E-09  0.32082390E-09
  0.10955107E-08  0.18531152E-08  0.25901783E-08  0.33033937E-08  0.39896218E-08
  0.46459021E-08  0.52694653E-08  0.58577435E-08  0.64083799E-08  0.69192372E-08
  0.73884044E-08  0.78142031E-08  0.81951917E-08  0.85301694E-08  0.88181779E-08
  0.90585029E-08  0.92506738E-08  0.93944622E-08  0.94898796E-08  0.95371738E-08
  0.95368239E-08  0.94895348E-08  0.93962305E-08  0.92580460E-08  0.90763192E-08
  0.88525807E-08  0.85885441E-08  0.82860948E-08  0.79472780E-08  0.75742870E-08
  0.71694497E-08  0.67352157E-08  0.62741424E-08  0.57888812E-08  0.52821630E-08
  0.47567838E-08  0.42155903E-08  0.36614649E-08  0.30973117E-08  0.25260417E-08
  0.19505584E-08  0.13737442E-08  0.79844632E-09  0.22746358E-09 -0.33646654E-09
 -0.89068036E-09 -0.14325999E-08 -0.19597441E-08 -0.24697399E-08 -0.29603315E-08
 -0.34293906E-08 -0.38749240E-08 -0.42950823E-08 -0.46881661E-08 -0.50526323E-08
 -0.53870999E-08 -0.56903538E-08 -0.59613485E-08 -0.61992112E-08 -0.64032429E-08
 -0.65729202E-08 -0.67078945E-08 -0.68079917E-08 -0.68732108E-08 -0.69037209E-08
 -0.68998584E-08 -0.68621228E-08 -0.67911723E-08 -0.66878180E-08 -0.65530178E-08
 -0.63878701E-08 -0.61936062E-08 -0.59715824E-08 -0.57232718E-08 -0.54502554E-08
 -0.51542129E-08 -0.48369134E-08 -0.45002053E-08 -0.41460061E-08 -0.37762923E-08
 -0.33930892E-08 -0.29984597E-08 -0.25944944E-08 -0.21833007E-08 -0.17669924E-08
 -0.13476792E-08 -0.92745676E-09 -0.50839639E-09 -0.92535457E-10  0.31813209E-09
  0.72166484E-09  0.11161827E-08  0.14998751E-08  0.18710091E-08  0.22279363E-08
  0.25691005E-08  0.28930430E-08  0.31984094E-08  0.34839540E-08  0.37485449E-08
  0.39911678E-08  0.42109293E-08  0.44070594E-08  0.45789144E-08  0.47259772E-08
  0.48478592E-08  0.49442997E-08  0.50151658E-08  0.50604512E-08  0.50802747E-08
  0.50748779E-08  0.50446222E-08  0.49899858E-08  0.49115593E-08  0.48100420E-08
  0.46862364E-08  0.45410435E-08  0.43754564E-08  0.41905552E-08  0.39874996E-08
  0.37675230E-08  0.35319251E-08  0.32820646E-08  0.30193522E-08  0.27452428E-08
  0.24612279E-08  0.21688279E-08  0.18695840E-08  0.15650510E-08  0.12567890E-08
  0.94635613E-09  0.63530076E-09  0.32515416E-09  0.17423279E-10 -0.28641630E-09
 -0.58492712E-09 -0.87671635E-09 -0.11604420E-08 -0.14348189E-08 -0.16986239E-08
 -0.19507014E-08 -0.21899680E-08 -0.24154165E-08 -0.26261206E-08 -0.28212374E-08
 -0.30000112E-08 -0.31617757E-08 -0.33059562E-08 -0.34320711E-08 -0.35397333E-08
 -0.36286507E-08 -0.36986263E-08 -0.37495583E-08 -0.37814391E-08 -0.37943541E-08
 -0.37884803E-08 -0.37640843E-08 -0.37215196E-08 -0.36612239E-08 -0.35837161E-08
 -0.34895924E-08 -0.33795228E-08 -0.32542466E-08 -0.31145681E-08 -0.29613516E-08
 -0.27955169E-08 -0.26180337E-08 -0.24299166E-08 -0.22322192E-08 -0.20260288E-08
 -0.18124606E-08 -0.15926519E-08 -0.13677562E-08 -0.11389375E-08 -0.90736462E-09
 -0.67420513E-09 -0.44061991E-09 -0.20775754E-09  0.23251192E-10  0.25129851E-09
  0.47530481E-09  0.69422354E-09  0.90704589E-09  0.11128052E-08  0.13105814E-08
  0.14995044E-08  0.16787581E-08  0.18475839E-08  0.20052830E-08  0.21512198E-08
  0.22848236E-08  0.24055912E-08  0.25130879E-08  0.26069494E-08  0.26868821E-08
  0.27526641E-08  0.28041453E-08  0.28412473E-08  0.28639626E-08  0.28723542E-08
  0.28665542E-08  0.28467624E-08  0.28132446E-08  0.27663302E-08  0.27064100E-08
  0.26339337E-08  0.25494070E-08  0.24533880E-08  0.23464845E-08  0.22293499E-08
 kinetic energy density (partial)
  0.36222048E+02  0.36211961E+02  0.36181713E+02  0.36131354E+02  0.36060965E+02
  0.35970657E+02  0.35860574E+02  0.35730893E+02  0.35581819E+02  0.35413587E+02
  0.35226465E+02  0.35020746E+02  0.34796753E+02  0.34554836E+02  0.34295372E+02
  0.34018763E+02  0.33725433E+02  0.33415833E+02  0.33090433E+02  0.32749727E+02
  0.32394226E+02  0.32024460E+02  0.31640976E+02  0.31244338E+02  0.30835124E+02
  0.30413923E+02  0.29981339E+02  0.29537982E+02  0.29084475E+02  0.28621446E+02
  0.28149529E+02  0.27669364E+02  0.27181593E+02  0.26686859E+02  0.26185808E+02
  0.25679082E+02  0.25167324E+02  0.24651170E+02  0.24131255E+02  0.23608205E+02
  0.23082640E+02  0.22555174E+02  0.22026407E+02  0.21496934E+02  0.20967334E+02
  0.20438177E+02  0.19910019E+02  0.19383402E+02  0.18858852E+02  0.18336882E+02
  0.17817987E+02  0.17302647E+02  0.16791324E+02  0.16284461E+02  0.15782486E+02
  0.15285806E+02  0.14794809E+02  0.14309866E+02  0.13831327E+02  0.13359523E+02
  0.12894766E+02  0.12437348E+02  0.11987541E+02  0.11545599E+02  0.11111753E+02
  0.10686218E+02  0.10269189E+02  0.98608423E+01  0.94613337E+01  0.90708021E+01
  0.86893680E+01  0.83171339E+01  0.79541850E+01  0.76005893E+01  0.72563985E+01
  0.69216480E+01  0.65963576E+01  0.62805318E+01  0.59741607E+01  0.56772201E+01
  0.53896723E+01  0.51114666E+01  0.48425398E+01  0.45828169E+01  0.43322115E+01
  0.40906266E+01  0.38579548E+01  0.36340795E+01  0.34188749E+01  0.32122068E+01
  0.30139334E+01  0.28239054E+01  0.26419671E+01  0.24679565E+01  0.23017061E+01
  0.21430434E+01  0.19917915E+01  0.18477694E+01  0.17107928E+01  0.15806744E+01
  0.14572244E+01  0.13402510E+01  0.12295610E+01  0.11249599E+01  0.10262526E+01
  0.93324383E+00  0.84573826E+00  0.76354115E+00  0.68645857E+00  0.61429779E+00
  0.54686758E+00  0.48397851E+00  0.42544326E+00  0.37107685E+00  0.32069696E+00
  0.27412407E+00  0.23118179E+00  0.19169696E+00  0.15549990E+00  0.12242456E+00
  0.92308668E-01  0.64993878E-01  0.40325890E-01  0.18154555E-01 -0.16660259E-02
 -0.19277424E-01 -0.34816817E-01 -0.48416934E-01 -0.60206016E-01 -0.70307787E-01
 -0.78841434E-01 -0.85921607E-01 -0.91658417E-01 -0.96157457E-01 -0.99519820E-01
 -0.10184214E+00 -0.10321663E+00 -0.10373112E+00 -0.10346916E+00 -0.10251001E+00
 -0.10092880E+00 -0.98796514E-01 -0.96180161E-01 -0.93142805E-01 -0.89743683E-01
 -0.86038295E-01 -0.82078509E-01 -0.77912662E-01 -0.73585671E-01 -0.69139139E-01
 -0.64611471E-01 -0.60037987E-01 -0.55451035E-01 -0.50880107E-01 -0.46351961E-01
 -0.41890732E-01 -0.37518050E-01 -0.33253162E-01 -0.29113041E-01 -0.25112505E-01
 -0.21264332E-01 -0.17579370E-01 -0.14066649E-01 -0.10733493E-01 -0.75856243E-02
 -0.46272688E-02 -0.18612606E-02  0.71085888E-03  0.30887429E-02  0.52731446E-02
  0.72658245E-02  0.90694622E-02  0.10687569E-01  0.12124408E-01  0.13384909E-01
  0.14474598E-01  0.15399521E-01  0.16166171E-01  0.16781429E-01  0.17252495E-01
  0.17586827E-01  0.17792090E-01  0.17876098E-01  0.17846764E-01  0.17712056E-01
  0.17479950E-01  0.17158392E-01  0.16755256E-01  0.16278317E-01  0.15735210E-01
  0.15133409E-01  0.14480196E-01  0.13782640E-01  0.13047575E-01  0.12281582E-01
  0.11490972E-01  0.10681775E-01  0.98597268E-02  0.90302583E-02  0.81984915E-02
  0.73692315E-02  0.65469644E-02  0.57358547E-02  0.49397452E-02  0.41621586E-02
  0.34062998E-02  0.26750603E-02  0.19710228E-02  0.12964681E-02  0.65338200E-03
  0.43463802E-04 -0.53186478E-03 -0.10714497E-02 -0.15743944E-02 -0.20400483E-02
 -0.24679958E-02 -0.28580440E-02 -0.32102106E-02 -0.35247115E-02 -0.38019478E-02
 -0.40424934E-02 -0.42470817E-02 -0.44165931E-02 -0.45520417E-02 -0.46545632E-02
 -0.47254019E-02 -0.47658985E-02 -0.47774778E-02 -0.47616373E-02 -0.47199354E-02
 -0.46539801E-02 -0.45654188E-02 -0.44559274E-02 -0.43272007E-02 -0.41809427E-02
 -0.40188580E-02 -0.38426428E-02 -0.36539774E-02 -0.34545183E-02 -0.32458915E-02
 -0.30296857E-02 -0.28074469E-02 -0.25806724E-02 -0.23508061E-02 -0.21192343E-02
 -0.18872813E-02 -0.16562067E-02 -0.14272017E-02 -0.12013872E-02 -0.97981159E-03
 -0.76344927E-03 -0.55319946E-03 -0.34988552E-03 -0.15425469E-03  0.33021914E-04
  0.21134882E-03  0.38020545E-03  0.53914506E-03  0.68779334E-03  0.82584676E-03
  0.95307065E-03  0.10692971E-02  0.11744224E-02  0.12684049E-02  0.13512619E-02
  0.14230667E-02  0.14839461E-02  0.15340769E-02  0.15736826E-02  0.16030304E-02
  0.16224276E-02  0.16322185E-02  0.16327809E-02  0.16245224E-02  0.16078775E-02
  0.15833039E-02  0.15512795E-02  0.15122985E-02  0.14668692E-02  0.14155098E-02
  0.13587463E-02  0.12971089E-02  0.12311297E-02  0.11613395E-02  0.10882657E-02
  0.10124294E-02  0.93434365E-03  0.85451064E-03  0.77342013E-03  0.69154745E-03
  0.60935171E-03  0.52727431E-03  0.44573744E-03  0.36514288E-03  0.28587085E-03
  0.20827901E-03  0.13270170E-03  0.59449226E-04 -0.11192651E-04 -0.78963124E-04
 -0.14362658E-03 -0.20497273E-03 -0.26281662E-03 -0.31699846E-03 -0.36738347E-03
 -0.41386143E-03 -0.45634633E-03 -0.49477572E-03 -0.52911015E-03 -0.55933241E-03
 -0.58544673E-03 -0.60747791E-03 -0.62547039E-03 -0.63948722E-03 -0.64960909E-03
 -0.65593316E-03 -0.65857201E-03 -0.65765242E-03 -0.65331426E-03 -0.64570923E-03
 -0.63499973E-03 -0.62135757E-03 -0.60496283E-03 -0.58600264E-03 -0.56466996E-03
 -0.54116246E-03 -0.51568133E-03 -0.48843020E-03 -0.45961398E-03 -0.42943788E-03
 -0.39810635E-03 -0.36582210E-03 -0.33278518E-03 -0.29919209E-03 -0.26523497E-03
 -0.23110076E-03 -0.19697054E-03 -0.16301878E-03 -0.12941281E-03 -0.96312163E-04
 -0.63868154E-04 -0.32223384E-04 -0.15113699E-05  0.28143789E-04  0.56627683E-04
  0.83835811E-04  0.10967374E-03  0.13405721E-03  0.15691220E-03  0.17817492E-03
  0.19779176E-03  0.21571923E-03  0.23192377E-03  0.24638163E-03  0.25907857E-03
  0.27000969E-03  0.27917907E-03  0.28659944E-03  0.29229188E-03  0.29628537E-03
  0.29861641E-03  0.29932857E-03  0.29847204E-03  0.29610320E-03  0.29228405E-03
  0.28708182E-03  0.28056837E-03  0.27281976E-03  0.26391569E-03  0.25393900E-03
  0.24297516E-03  0.23111179E-03  0.21843812E-03  0.20504452E-03  0.19102201E-03
  0.17646181E-03  0.16145488E-03  0.14609146E-03  0.13046069E-03  0.11465017E-03
  0.98745612E-04  0.82830465E-04  0.66985577E-04  0.51288886E-04  0.35815131E-04
  0.20635587E-04  0.58178233E-05 -0.85745083E-05 -0.22481863E-04 -0.35848965E-04
 -0.48624948E-04 -0.60763459E-04 -0.72222756E-04 -0.82965758E-04 -0.92960091E-04
 -0.10217810E-03 -0.11059682E-03 -0.11819799E-03 -0.12496795E-03 -0.13089758E-03
 -0.13598224E-03 -0.14022160E-03 -0.14361956E-03 -0.14618407E-03 -0.14792700E-03
 -0.14886394E-03 -0.14901400E-03 -0.14839965E-03 -0.14704648E-03 -0.14498301E-03
 -0.14224041E-03 -0.13885234E-03 -0.13485464E-03 -0.13028516E-03 -0.12518346E-03
 -0.11959059E-03 -0.11354884E-03 -0.10710152E-03 -0.10029267E-03 -0.93166870E-04
 -0.85768985E-04 -0.78143937E-04 -0.70336489E-04 -0.62391027E-04 -0.54351357E-04
 -0.46260504E-04 -0.38160526E-04 -0.30092335E-04 -0.22095529E-04 -0.14208237E-04
 -0.64669734E-05  0.10934964E-05  0.84402744E-05  0.15542440E-04  0.22371146E-04
  0.28899701E-04  0.35103639E-04  0.40960779E-04  0.46451270E-04  0.51557622E-04
  0.56264727E-04  0.60559867E-04  0.64432713E-04  0.67875306E-04  0.70882033E-04
  0.73449592E-04  0.75576941E-04  0.77265247E-04  0.78517816E-04  0.79340022E-04
  0.79739223E-04  0.79724672E-04  0.79307422E-04  0.78500223E-04  0.77317413E-04
  0.75774809E-04  0.73889586E-04  0.71680162E-04  0.69166068E-04  0.66367833E-04
  0.63306846E-04  0.60005239E-04  0.56485753E-04  0.52771614E-04  0.48886404E-04
  0.44853940E-04  0.40698149E-04  0.36442949E-04  0.32112133E-04  0.27729254E-04
  0.23317518E-04  0.18899680E-04  0.14497942E-04  0.10133862E-04  0.58282619E-05
  0.16011457E-05 -0.25283762E-05 -0.65421589E-05 -0.10423087E-04 -0.14155131E-04
 -0.17723401E-04 -0.21114186E-04 -0.24314999E-04 -0.27314596E-04 -0.30103012E-04
 -0.32671568E-04 -0.35012887E-04 -0.37120896E-04 -0.38990823E-04 -0.40619188E-04
 -0.42003788E-04 -0.43143677E-04 -0.44039141E-04 -0.44691661E-04 -0.45103884E-04
 -0.45279575E-04 -0.45223574E-04 -0.44941749E-04 -0.44440936E-04 -0.43728887E-04
 -0.42814211E-04 -0.41706304E-04 -0.40415294E-04 -0.38951967E-04 -0.37327698E-04
 -0.35554389E-04 -0.33644388E-04 -0.31610428E-04 -0.29465547E-04 -0.27223022E-04
 -0.24896300E-04 -0.22498923E-04 -0.20044462E-04 -0.17546454E-04 -0.15018330E-04
 -0.12473357E-04 -0.99245745E-05 -0.73847365E-05 -0.48662572E-05 -0.23811572E-05
  0.58985836E-07  0.24430833E-05  0.47605784E-05  0.70014857E-05  0.91564261E-05
  0.11216659E-04  0.13174111E-04  0.15021399E-04  0.16751849E-04  0.18359517E-04
  0.19839197E-04  0.21186430E-04  0.22397513E-04  0.23469493E-04  0.24400173E-04
  0.25188096E-04  0.25832544E-04  0.26333520E-04  0.26691732E-04  0.26908576E-04
  0.26986113E-04  0.26927042E-04  0.26734676E-04  0.26412909E-04  0.25966187E-04
  0.25399471E-04  0.24718203E-04  0.23928271E-04  0.23035966E-04  0.22047945E-04
  0.20971191E-04  0.19812971E-04  0.18580793E-04  0.17282367E-04  0.15925559E-04
  0.14518355E-04  0.13068812E-04  0.11585025E-04  0.10075079E-04  0.85470178E-05
  0.70087978E-05  0.54682564E-05  0.39330744E-05  0.24107421E-05  0.90852660E-06
 -0.56655841E-06 -0.20077818E-05 -0.34087217E-05 -0.47632903E-05 -0.60657566E-05
 -0.73107662E-05 -0.84933606E-05 -0.96089917E-05 -0.10653536E-04 -0.11623307E-04
 -0.12515062E-04 -0.13326007E-04 -0.14053809E-04 -0.14696586E-04 -0.15252917E-04
 -0.15721834E-04 -0.16102817E-04 -0.16395793E-04 -0.16601118E-04 -0.16719573E-04
 -0.16752352E-04 -0.16701043E-04 -0.16567615E-04 -0.16354401E-04 -0.16064076E-04
 -0.15699642E-04 -0.15264402E-04 -0.14761942E-04 -0.14196102E-04 -0.13570959E-04
 -0.12890797E-04 -0.12160083E-04 -0.11383445E-04 -0.10565642E-04 -0.97115377E-05
 -0.88260799E-05 -0.79142696E-05 -0.69811376E-05 -0.60317191E-05 -0.50710291E-05
 -0.41040382E-05 -0.31356495E-05 -0.21706756E-05 -0.12138174E-05 -0.26964303E-06
  0.65743163E-06  0.15631615E-05  0.24434897E-05  0.32945636E-05  0.41127496E-05
  0.48946465E-05  0.56370976E-05  0.63372015E-05  0.69923207E-05  0.76000900E-05
  0.81584225E-05  0.86655140E-05  0.91198469E-05  0.95201917E-05  0.98656076E-05
  0.10155441E-04  0.10389325E-04  0.10567172E-04  0.10689173E-04  0.10755789E-04
  0.10767743E-04  0.10726013E-04  0.10631823E-04  0.10486629E-04  0.10292110E-04
  0.10050158E-04  0.97628583E-05  0.94324814E-05  0.90614658E-05  0.86524035E-05
  0.82080246E-05  0.77311812E-05  0.72248312E-05  0.66920221E-05  0.61358743E-05
  0.55595644E-05  0.49663090E-05  0.43593480E-05  0.37419284E-05  0.31172885E-05
  0.24886421E-05  0.18591632E-05  0.12319717E-05  0.61011860E-06 -0.34271621E-08
 -0.60579191E-06 -0.11942094E-05 -0.17660324E-05 -0.23187433E-05 -0.28499641E-05
 -0.33574656E-05 -0.38391753E-05 -0.42931848E-05 -0.47177560E-05 -0.51113267E-05
 -0.54725149E-05 -0.58001222E-05 -0.60931366E-05 -0.63507336E-05 -0.65722774E-05
 -0.67573202E-05 -0.69056013E-05 -0.70170447E-05 -0.70917564E-05 -0.71300206E-05
 -0.71322951E-05 -0.70992060E-05 -0.70315415E-05 -0.69302456E-05 -0.67964101E-05
 -0.66312673E-05 -0.64361810E-05 -0.62126378E-05 -0.59622378E-05 -0.56866845E-05
 -0.53877747E-05 -0.50673884E-05 -0.47274780E-05 -0.43700572E-05 -0.39971908E-05
 -0.36109832E-05 -0.32135675E-05 -0.28070948E-05 -0.23937234E-05 -0.19756080E-05
 -0.15548892E-05 -0.11336836E-05 -0.71407350E-06 -0.29809782E-06  0.11225750E-06
  0.51506812E-06  0.90847959E-06  0.12907153E-05  0.16600836E-05  0.20149848E-05
  0.23539175E-05  0.26754839E-05  0.29783949E-05  0.32614749E-05  0.35236653E-05
  0.37640276E-05  0.39817462E-05  0.41761301E-05  0.43466145E-05  0.44927607E-05
  0.46142571E-05  0.47109177E-05  0.47826815E-05  0.48296102E-05  0.48518864E-05
  0.48498103E-05  0.48237964E-05  0.47743695E-05  0.47021603E-05  0.46079009E-05
  0.44924190E-05  0.43566327E-05  0.42015443E-05  0.40282341E-05  0.38378540E-05
  0.36316204E-05  0.34108074E-05  0.31767396E-05  0.29307850E-05  0.26743471E-05
  0.24088580E-05  0.21357709E-05  0.18565524E-05  0.15726751E-05  0.12856109E-05
  0.99682302E-06  0.70775968E-06  0.41984692E-06  0.13448214E-06 -0.14697230E-06
 -0.42319511E-06 -0.69291192E-06 -0.95490064E-06 -0.12079967E-05 -0.14510976E-05
 -0.16831675E-05 -0.19032413E-05 -0.21104276E-05 -0.23039128E-05 -0.24829630E-05
 -0.26469267E-05 -0.27952368E-05 -0.29274114E-05 -0.30430557E-05 -0.31418618E-05
 -0.32236091E-05 -0.32881640E-05 -0.33354794E-05 -0.33655929E-05 -0.33786262E-05
 -0.33747822E-05 -0.33543437E-05 -0.33176700E-05 -0.32651944E-05 -0.31974207E-05
 -0.31149198E-05 -0.30183258E-05 -0.29083319E-05 -0.27856861E-05 -0.26511868E-05
 -0.25056781E-05 -0.23500446E-05 -0.21852073E-05 -0.20121177E-05 -0.18317531E-05
 -0.16451114E-05 -0.14532058E-05 -0.12570600E-05 -0.10577024E-05 -0.85616157E-06
 -0.65346103E-06 -0.45061433E-06 -0.24862027E-06 -0.48458292E-07  0.14891604E-06
  0.34257531E-06  0.53162435E-06  0.71520413E-06  0.89249536E-06  0.10627219E-05
  0.12251540E-05  0.13791108E-05  0.15239635E-05  0.16591371E-05  0.17841125E-05
  0.18984286E-05  0.20016830E-05  0.20935338E-05  0.21736997E-05  0.22419611E-05
  0.22981596E-05  0.23421983E-05  0.23740413E-05  0.23937129E-05  0.24012965E-05
  0.23969335E-05  0.23808216E-05  0.23532131E-05  0.23144129E-05  0.22647760E-05
  0.22047052E-05  0.21346486E-05  0.20550965E-05  0.19665783E-05  0.18696598E-05
  0.17649395E-05  0.16530451E-05  0.15346305E-05  0.14103720E-05  0.12809645E-05
  0.11471180E-05  0.10095539E-05  0.86900139E-06  0.72619366E-06  0.58186434E-06
  0.43674390E-06  0.29155613E-06  0.14701472E-06  0.38199082E-08 -0.13734472E-06
 -0.27581532E-06 -0.41095077E-06 -0.54213545E-06 -0.66878187E-06 -0.79033314E-06
 -0.90626524E-06 -0.10160891E-05 -0.11193526E-05 -0.12156420E-05 -0.13045836E-05
 -0.13858449E-05 -0.14591359E-05 -0.15242093E-05 -0.15808620E-05 -0.16289345E-05
 -0.16683117E-05 -0.16989227E-05 -0.17207404E-05 -0.17337811E-05 -0.17381038E-05
 -0.17338094E-05 -0.17210394E-05 -0.16999748E-05 -0.16708348E-05 -0.16338747E-05
 -0.15893848E-05 -0.15376881E-05 -0.14791382E-05 -0.14141175E-05 -0.13430346E-05
 -0.12663223E-05 -0.11844345E-05 -0.10978447E-05 -0.10070423E-05 -0.91253098E-06
 -0.81482537E-06 -0.71444871E-06 -0.61193010E-06 -0.50780184E-06 -0.40259680E-06
 -0.29684581E-06 -0.19107511E-06 -0.85803824E-07  0.18458450E-07  0.12121400E-06
  0.22197927E-06  0.32028701E-06  0.41568836E-06  0.50775476E-06  0.59607975E-06
  0.68028071E-06  0.76000035E-06  0.83490811E-06  0.90470145E-06  0.96910690E-06
  0.10278810E-05  0.10808112E-05  0.11277163E-05  0.11684469E-05  0.12028861E-05
  0.12309489E-05  0.12525830E-05  0.12677680E-05  0.12765155E-05  0.12788682E-05
  0.12748996E-05  0.12647132E-05  0.12484414E-05  0.12262447E-05  0.11983103E-05
  0.11648512E-05  0.11261044E-05  0.10823296E-05  0.10338078E-05  0.98083940E-06
  0.92374264E-06  0.86285171E-06  0.79851496E-06  0.73109303E-06  0.66095690E-06
  0.58848596E-06  0.51406604E-06  0.43808746E-06  0.36094307E-06  0.28302628E-06
  0.20472914E-06  0.12644048E-06  0.48544014E-07 -0.28583452E-07 -0.10457375E-06
 -0.17906905E-06 -0.25172346E-06 -0.32220457E-06 -0.39019488E-06 -0.45539317E-06
 -0.51751577E-06 -0.57629766E-06 -0.63149360E-06 -0.68287902E-06 -0.73025084E-06
 -0.77342823E-06 -0.81225318E-06 -0.84659097E-06 -0.87633053E-06 -0.90138470E-06
 -0.92169033E-06 -0.93720830E-06 -0.94792336E-06 -0.95384396E-06 -0.95500187E-06
 -0.95145173E-06 -0.94327052E-06 -0.93055686E-06 -0.91343029E-06 -0.89203042E-06
 -0.86651596E-06 -0.83706375E-06 -0.80386765E-06 -0.76713737E-06 -0.72709727E-06
 -0.68398506E-06 -0.63805050E-06 -0.58955400E-06 -0.53876524E-06 -0.48596174E-06
 -0.43142738E-06 -0.37545098E-06 -0.31832479E-06 -0.26034306E-06 -0.20180055E-06
 -0.14299109E-06 -0.84206186E-07 -0.25733595E-07  0.32144010E-07  0.89150365E-07
  0.14501688E-06  0.19948384E-06  0.25230161E-06  0.30323164E-06  0.35204759E-06
  0.39853621E-06  0.44249825E-06  0.48374927E-06  0.52212030E-06  0.55745856E-06
  0.58962795E-06  0.61850950E-06  0.64400177E-06  0.66602115E-06  0.68450199E-06
  0.69939674E-06  0.71067596E-06  0.71832823E-06  0.72236000E-06  0.72279534E-06
  0.71967560E-06  0.71305900E-06  0.70302015E-06  0.68964948E-06  0.67305262E-06
  0.65334969E-06  0.63067454E-06  0.60517394E-06  0.57700670E-06  0.54634276E-06
 atomic pseudo charge-density
  0.30000000E+01  0.29909901E+01  0.29641843E+01  0.29202401E+01  0.28602093E+01
  0.27854774E+01  0.26976879E+01  0.25986612E+01  0.24903129E+01  0.23745793E+01
  0.22533527E+01  0.21284305E+01  0.20014766E+01  0.18739956E+01  0.17473188E+01
  0.16225981E+01  0.15008084E+01  0.13827546E+01  0.12690821E+01  0.11602907E+01
  0.10567485E+01  0.95870705E+00  0.86631612E+00  0.77963794E+00  0.69866054E+00
  0.62330999E+00  0.55346171E+00  0.48895042E+00  0.42957909E+00  0.37512675E+00
  0.32535526E+00  0.28001515E+00  0.23885051E+00  0.20160320E+00  0.16801625E+00
  0.13783670E+00  0.11081782E+00  0.86720862E-01  0.65316467E-01  0.46385592E-01
  0.29720213E-01  0.15123735E-01  0.24111924E-02 -0.85907230E-02 -0.18043791E-01
 -0.26098503E-01 -0.32894389E-01 -0.38560427E-01 -0.43215491E-01 -0.46968842E-01
 -0.49920645E-01 -0.52162487E-01 -0.53777912E-01 -0.54842943E-01 -0.55426593E-01
 -0.55591373E-01 -0.55393765E-01 -0.54884689E-01 -0.54109944E-01 -0.53110618E-01
 -0.51923486E-01 -0.50581375E-01 -0.49113510E-01 -0.47545834E-01 -0.45901303E-01
 -0.44200168E-01 -0.42460222E-01 -0.40697045E-01 -0.38924208E-01 -0.37153481E-01
 -0.35395011E-01 -0.33657486E-01 -0.31948291E-01 -0.30273642E-01 -0.28638713E-01
 -0.27047752E-01 -0.25504182E-01 -0.24010695E-01 -0.22569341E-01 -0.21181599E-01
 -0.19848449E-01 -0.18570437E-01 -0.17347726E-01 -0.16180151E-01 -0.15067262E-01
 -0.14008365E-01 -0.13002560E-01 -0.12048772E-01 -0.11145780E-01 -0.10292244E-01
 -0.94867262E-02 -0.87277129E-02 -0.80136322E-02 -0.73428697E-02 -0.67137821E-02
 -0.61247103E-02 -0.55739891E-02 -0.50599573E-02 -0.45809653E-02 -0.41353822E-02
 -0.37216015E-02 -0.33380465E-02 -0.29831740E-02 -0.26554782E-02 -0.23534933E-02
 -0.20757960E-02 -0.18210071E-02 -0.15877928E-02 -0.13748661E-02 -0.11809867E-02
 -0.10049621E-02 -0.84564692E-03 -0.70194337E-03 -0.57280043E-03 -0.45721355E-03
 -0.35422389E-03 -0.26291756E-03 -0.18242472E-03 -0.11191859E-03 -0.50614394E-04
  0.22317193E-05  0.47323849E-04  0.85327508E-04  0.11687083E-03  0.14254581E-03
  0.16290948E-03  0.17848522E-03  0.18976391E-03  0.19720520E-03  0.20123871E-03
  0.20226524E-03  0.20065792E-03  0.19676343E-03  0.19090309E-03  0.18337401E-03
  0.17445018E-03  0.16438357E-03  0.15340515E-03  0.14172593E-03  0.12953795E-03
  0.11701531E-03  0.10431501E-03  0.91578007E-04  0.78929995E-04  0.66482351E-04
  0.54332953E-04  0.42567003E-04  0.31257825E-04  0.20467637E-04  0.10248289E-04
  0.64198797E-06 -0.83180057E-05 -0.16606711E-04 -0.24206777E-04 -0.31107861E-04
 -0.37306029E-04 -0.42803180E-04 -0.47606497E-04 -0.51727913E-04 -0.55183611E-04
 -0.57993535E-04 -0.60180937E-04 -0.61771931E-04 -0.62795085E-04 -0.63281020E-04
 -0.63262043E-04 -0.62771793E-04 -0.61844915E-04 -0.60516746E-04 -0.58823030E-04
 -0.56799651E-04 -0.54482381E-04 -0.51906653E-04 -0.49107352E-04 -0.46118623E-04
 -0.42973696E-04 -0.39704735E-04 -0.36342694E-04 -0.32917203E-04 -0.29456454E-04
 -0.25987117E-04 -0.22534266E-04 -0.19121312E-04 -0.15769965E-04 -0.12500192E-04
 -0.93302033E-05 -0.62764384E-05 -0.33535697E-05 -0.57451454E-06  0.20495424E-05
  0.45091185E-05  0.67963933E-05  0.89051613E-05  0.10830778E-04  0.12570100E-04
  0.14121418E-04  0.15484386E-04  0.16659948E-04  0.17650256E-04  0.18458592E-04
  0.19089280E-04  0.19547606E-04  0.19839723E-04  0.19972572E-04  0.19953788E-04
  0.19791618E-04  0.19494830E-04  0.19072631E-04  0.18534584E-04  0.17890526E-04
  0.17150491E-04  0.16324633E-04  0.15423156E-04  0.14456241E-04  0.13433988E-04
  0.12366345E-04  0.11263062E-04  0.10133627E-04  0.89872247E-05  0.78326905E-05
  0.66784684E-05  0.55325773E-05  0.44025798E-05  0.32955552E-05  0.22180775E-05
  0.11761971E-05  0.17542746E-06 -0.77926490E-06 -0.16834661E-05 -0.25333168E-05
 -0.33255106E-05 -0.40572891E-05 -0.47264333E-05 -0.53312526E-05 -0.58705700E-05
 -0.63437062E-05 -0.67504596E-05 -0.70910855E-05 -0.73662729E-05 -0.75771191E-05
 -0.77251038E-05 -0.78120617E-05 -0.78401534E-05 -0.78118364E-05 -0.77298354E-05
 -0.75971118E-05 -0.74168337E-05 -0.71923453E-05 -0.69271374E-05 -0.66248175E-05
 -0.62890810E-05 -0.59236828E-05 -0.55324103E-05 -0.51190572E-05 -0.46873977E-05
 -0.42411637E-05 -0.37840213E-05 -0.33195504E-05 -0.28512246E-05 -0.23823936E-05
 -0.19162664E-05 -0.14558968E-05 -0.10041701E-05 -0.56379149E-06 -0.13727634E-06
  0.27305800E-06  0.66509879E-06  0.10369429E-05  0.13869002E-05  0.17134955E-05
  0.20154691E-05  0.22917757E-05  0.25415821E-05  0.27642640E-05  0.29594012E-05
  0.31267715E-05  0.32663443E-05  0.33782729E-05  0.34628856E-05  0.35206767E-05
  0.35522965E-05  0.35585408E-05  0.35403396E-05  0.34987463E-05  0.34349254E-05
  0.33501411E-05  0.32457449E-05  0.31231638E-05  0.29838879E-05  0.28294589E-05
  0.26614577E-05  0.24814936E-05  0.22911923E-05  0.20921852E-05  0.18860994E-05
  0.16745466E-05  0.14591146E-05  0.12413574E-05  0.10227873E-05  0.80486662E-06
  0.58900059E-06  0.37653068E-06  0.16872856E-06 -0.33209217E-07 -0.22816594E-06
 -0.41510871E-06 -0.59309188E-06 -0.76125969E-06 -0.91884837E-06 -0.10651876E-05
 -0.11997012E-05 -0.13219075E-05 -0.14314191E-05 -0.15279415E-05 -0.16112723E-05
 -0.16812987E-05 -0.17379955E-05 -0.17814223E-05 -0.18117199E-05 -0.18291070E-05
 -0.18338764E-05 -0.18263905E-05 -0.18070769E-05 -0.17764237E-05 -0.17349746E-05
 -0.16833238E-05 -0.16221108E-05 -0.15520151E-05 -0.14737510E-05 -0.13880619E-05
 -0.12957152E-05 -0.11974966E-05 -0.10942054E-05 -0.98664885E-06 -0.87563703E-06
 -0.76197819E-06 -0.64647378E-06 -0.52991387E-06 -0.41307279E-06 -0.29670492E-06
 -0.18154074E-06 -0.68283148E-07  0.42395988E-07  0.14985897E-06  0.25350516E-06
  0.35277356E-06  0.44714510E-06  0.53614465E-06  0.61934265E-06  0.69635654E-06
  0.76685184E-06  0.83054287E-06  0.88719332E-06  0.93661632E-06  0.97867444E-06
  0.10132793E-05  0.10403907E-05  0.10600162E-05  0.10722093E-05  0.10770688E-05
  0.10747363E-05  0.10653951E-05  0.10492679E-05  0.10266145E-05  0.99772940E-06
  0.96293951E-06  0.92260126E-06  0.87709786E-06  0.82683650E-06  0.77224531E-06
  0.71377035E-06  0.65187257E-06  0.58702471E-06  0.51970814E-06  0.45040985E-06
  0.37961929E-06  0.30782540E-06  0.23551359E-06  0.16316289E-06  0.91243071E-07
  0.20212010E-07 -0.49486961E-07 -0.11742749E-06 -0.18320252E-06 -0.24642647E-06
 -0.30673723E-06 -0.36379800E-06 -0.41729892E-06 -0.46695854E-06 -0.51252510E-06
 -0.55377757E-06 -0.59052655E-06 -0.62261489E-06 -0.64991820E-06 -0.67234501E-06
 -0.68983692E-06 -0.70236836E-06 -0.70994625E-06 -0.71260946E-06 -0.71042804E-06
 -0.70350233E-06 -0.69196181E-06 -0.67596387E-06 -0.65569234E-06 -0.63135597E-06
 -0.60318667E-06 -0.57143772E-06 -0.53638180E-06 -0.49830895E-06 -0.45752445E-06
 -0.41434663E-06 -0.36910464E-06 -0.32213610E-06 -0.27378484E-06 -0.22439855E-06
 -0.17432646E-06 -0.12391703E-06 -0.73515680E-07 -0.23462567E-07  0.25909578E-07
  0.74277543E-07  0.12132964E-06  0.16676760E-06  0.21030838E-06  0.25168582E-06
  0.29065220E-06  0.32697965E-06  0.36046135E-06  0.39091273E-06  0.41817231E-06
  0.44210254E-06  0.46259041E-06  0.47954784E-06  0.49291202E-06  0.50264545E-06
  0.50873586E-06  0.51119605E-06  0.51006337E-06  0.50539924E-06  0.49728838E-06
  0.48583795E-06  0.47117655E-06  0.45345304E-06  0.43283530E-06  0.40950880E-06
  0.38367517E-06  0.35555056E-06  0.32536400E-06  0.29335565E-06  0.25977502E-06
  0.22487914E-06  0.18893067E-06  0.15219603E-06  0.11494349E-06  0.77441347E-07
  0.39955979E-07  0.27500869E-08 -0.33919117E-07 -0.69801624E-07 -0.10465628E-06
 -0.13825236E-06 -0.17037104E-06 -0.20080681E-06 -0.22936871E-06 -0.25588149E-06
 -0.28018667E-06 -0.30214344E-06 -0.32162941E-06 -0.33854124E-06 -0.35279517E-06
 -0.36432730E-06 -0.37309389E-06 -0.37907131E-06 -0.38225603E-06 -0.38266438E-06
 -0.38033217E-06 -0.37531419E-06 -0.36768363E-06 -0.35753127E-06 -0.34496466E-06
 -0.33010711E-06 -0.31309665E-06 -0.29408484E-06 -0.27323552E-06 -0.25072351E-06
 -0.22673319E-06 -0.20145709E-06 -0.17509439E-06 -0.14784942E-06 -0.11993014E-06
 -0.91546584E-07 -0.62909348E-07 -0.34228052E-07 -0.57098562E-08  0.22442000E-07
  0.50029611E-07  0.76861762E-07  0.10275522E-06  0.12753597E-06  0.15104033E-06
  0.17311600E-06  0.19362305E-06  0.21243475E-06  0.22943832E-06  0.24453557E-06
  0.25764341E-06  0.26869431E-06  0.27763652E-06  0.28443430E-06  0.28906792E-06
  0.29153367E-06  0.29184361E-06  0.29002531E-06  0.28612145E-06  0.28018930E-06
  0.27230012E-06  0.26253849E-06  0.25100146E-06  0.23779772E-06  0.22304664E-06
  0.20687728E-06  0.18942730E-06  0.17084185E-06  0.15127238E-06  0.13087553E-06
  0.10981182E-06  0.88244485E-07  0.66338232E-07  0.44258003E-07  0.22167773E-07
  0.22935990E-09 -0.21398736E-07 -0.42562449E-07 -0.63113217E-07 -0.82909003E-07
 -0.10181525E-06 -0.11970576E-06 -0.13646353E-06 -0.15198147E-06 -0.16616306E-06
 -0.17892293E-06 -0.19018732E-06 -0.19989450E-06 -0.20799501E-06 -0.21445191E-06
 -0.21924085E-06 -0.22235008E-06 -0.22378040E-06 -0.22354495E-06 -0.22166894E-06
 -0.21818932E-06 -0.21315436E-06 -0.20662309E-06 -0.19866476E-06 -0.18935818E-06
 -0.17879099E-06 -0.16705891E-06 -0.15426491E-06 -0.14051835E-06 -0.12593409E-06
 -0.11063155E-06 -0.94733772E-07 -0.78366477E-07 -0.61657066E-07 -0.44733675E-07
 -0.27724206E-07 -0.10755392E-07  0.60481300E-08  0.22564712E-07  0.38676552E-07
  0.54270512E-07  0.69238892E-07  0.83480151E-07  0.96899568E-07  0.10940985E-06
  0.12093169E-06  0.13139419E-06  0.14073535E-06  0.14890230E-06  0.15585167E-06
  0.16154968E-06  0.16597231E-06  0.16910533E-06  0.17094425E-06  0.17149422E-06
  0.17076988E-06  0.16879506E-06  0.16560253E-06  0.16123358E-06  0.15573763E-06
  0.14917170E-06  0.14159995E-06  0.13309301E-06  0.12372743E-06  0.11358499E-06
  0.10275206E-06  0.91318830E-07  0.79378625E-07  0.67027164E-07  0.54361807E-07
  0.41480808E-07  0.28482576E-07  0.15464942E-07  0.25244367E-08 -0.10244399E-07
 -0.22749695E-07 -0.34902886E-07 -0.46619326E-07 -0.57818856E-07 -0.68426331E-07
 -0.78372107E-07 -0.87592469E-07 -0.96030022E-07 -0.10363402E-06 -0.11036064E-06
 -0.11617321E-06 -0.12104237E-06 -0.12494617E-06 -0.12787014E-06 -0.12980728E-06
 -0.13075799E-06 -0.13072996E-06 -0.12973800E-06 -0.12780385E-06 -0.12495586E-06
 -0.12122872E-06 -0.11666312E-06 -0.11130531E-06 -0.10520671E-06 -0.98423442E-07
 -0.91015829E-07 -0.83047906E-07 -0.74586875E-07 -0.65702567E-07 -0.56466876E-07
 -0.46953204E-07 -0.37235890E-07 -0.27389647E-07 -0.17489003E-07 -0.76077514E-08
  0.21815812E-08  0.11808254E-07  0.21203806E-07  0.30302530E-07  0.39041912E-07
  0.47363047E-07  0.55211016E-07  0.62535231E-07  0.69289744E-07  0.75433509E-07
  0.80930614E-07  0.85750461E-07  0.89867916E-07  0.93263399E-07  0.95922952E-07
  0.97838247E-07  0.99006563E-07  0.99430715E-07  0.99118947E-07  0.98084790E-07
  0.96346872E-07  0.93928707E-07  0.90858442E-07  0.87168577E-07  0.82895656E-07
  0.78079938E-07  0.72765039E-07  0.66997559E-07  0.60826693E-07  0.54303830E-07
  0.47482136E-07  0.40416142E-07  0.33161317E-07  0.25773647E-07  0.18309220E-07
  0.10823807E-07  0.33724628E-08 -0.39908676E-08 -0.11213728E-07 -0.18245508E-07
 -0.25037790E-07 -0.31544662E-07 -0.37723019E-07 -0.43532831E-07 -0.48937387E-07
 -0.53903511E-07 -0.58401748E-07 -0.62406519E-07 -0.65896246E-07 -0.68853446E-07
 -0.71264792E-07 -0.73121144E-07 -0.74417548E-07 -0.75153206E-07 -0.75331414E-07
 -0.74959472E-07 -0.74048565E-07 -0.72613623E-07 -0.70673145E-07 -0.68249015E-07
 -0.65366283E-07 -0.62052930E-07 -0.58339625E-07 -0.54259450E-07 -0.49847626E-07
 -0.45141225E-07 -0.40178862E-07 -0.35000402E-07 -0.29646643E-07 -0.24159007E-07
 -0.18579233E-07 -0.12949066E-07 -0.73099593E-08 -0.17027765E-08  0.38324927E-08
  0.92570070E-08  0.14533336E-07  0.19625705E-07  0.24500231E-07  0.29125130E-07
  0.33470916E-07  0.37510577E-07  0.41219725E-07  0.44576735E-07  0.47562849E-07
  0.50162273E-07  0.52362233E-07  0.54153028E-07  0.55528041E-07  0.56483745E-07
  0.57019672E-07  0.57138371E-07  0.56845341E-07  0.56148940E-07  0.55060286E-07
  0.53593128E-07  0.51763708E-07  0.49590602E-07  0.47094554E-07  0.44298288E-07
  0.41226321E-07  0.37904752E-07  0.34361055E-07  0.30623861E-07  0.26722735E-07
  0.22687951E-07  0.18550263E-07  0.14340684E-07  0.10090258E-07  0.58298404E-08
  0.15898804E-08 -0.25997853E-08 -0.67101357E-08 -0.10713158E-07 -0.14582029E-07
 -0.18291286E-07 -0.21816987E-07 -0.25136851E-07 -0.28230394E-07 -0.31079045E-07
 -0.33666240E-07 -0.35977516E-07 -0.38000576E-07 -0.39725339E-07 -0.41143982E-07
 -0.42250955E-07 -0.43042988E-07 -0.43519075E-07 -0.43680450E-07 -0.43530542E-07
 -0.43074917E-07 -0.42321205E-07 -0.41279017E-07 -0.39959847E-07 -0.38376963E-07
 -0.36545283E-07 -0.34481253E-07 -0.32202704E-07 -0.29728706E-07 -0.27079419E-07
 -0.24275934E-07 -0.21340111E-07 -0.18294421E-07 -0.15161770E-07 -0.11965344E-07
 -0.87284345E-08 -0.54742821E-08 -0.22259110E-08  0.99402533E-09  0.41633965E-08
  0.72607406E-08  0.10265404E-07  0.13157670E-07  0.15918885E-07  0.18531570E-07
  0.20979523E-07  0.23247915E-07  0.25323370E-07  0.27194038E-07  0.28849655E-07
  0.30281588E-07  0.31482874E-07  0.32448243E-07  0.33174131E-07  0.33658679E-07
  0.33901723E-07  0.33904771E-07  0.33670967E-07  0.33205051E-07  0.32513302E-07
  0.31603472E-07  0.30484716E-07  0.29167508E-07  0.27663552E-07  0.25985683E-07
  0.24147768E-07  0.22164595E-07  0.20051757E-07  0.17825540E-07  0.15502798E-07
  0.13100832E-07  0.10637264E-07  0.81299178E-08  0.55966869E-08  0.30554174E-08
  0.52378461E-09 -0.19808257E-08 -0.44414317E-08 -0.68415663E-08 -0.91653826E-08
 -0.11397754E-07 -0.13524369E-07 -0.15531816E-07 -0.17407667E-07 -0.19140547E-07
 -0.20720201E-07 -0.22137545E-07 -0.23384719E-07 -0.24455122E-07 -0.25343442E-07
 -0.26045679E-07 -0.26559152E-07 -0.26882505E-07 -0.27015699E-07 -0.26959996E-07
 -0.26717936E-07 -0.26293305E-07 -0.25691094E-07 -0.24917452E-07 -0.23979632E-07
 -0.22885926E-07 -0.21645601E-07 -0.20268820E-07 -0.18766568E-07 -0.17150570E-07
 -0.15433194E-07 -0.13627372E-07 -0.11746495E-07 -0.98043274E-08 -0.78149010E-08
 -0.57924231E-08 -0.37511754E-08 -0.17054171E-08  0.33071170E-09  0.23432853E-08
  0.43186840E-08  0.62436836E-08  0.81055410E-08  0.98920756E-08  0.11591747E-07
  0.13193726E-07  0.14687962E-07  0.16065244E-07  0.17317253E-07  0.18436610E-07
  0.19416918E-07  0.20252796E-07  0.20939904E-07  0.21474964E-07  0.21855772E-07
  0.22081202E-07  0.22151203E-07  0.22066789E-07  0.21830023E-07  0.21443995E-07
  0.20912787E-07  0.20241440E-07  0.19435907E-07  0.18503008E-07  0.17450374E-07
  0.16286386E-07  0.15020114E-07  0.13661249E-07  0.12220030E-07  0.10707169E-07
  0.91337750E-08  0.75112748E-08  0.58513315E-08  0.41657635E-08  0.24664627E-08
  0.76531250E-09 -0.92589374E-09 -0.25955325E-08 -0.42322285E-08 -0.58249299E-08
 -0.73629816E-08 -0.88361947E-08 -0.10234912E-07 -0.11550073E-07 -0.12773265E-07
 -0.13896784E-07 -0.14913676E-07 -0.15817779E-07 -0.16603764E-07 -0.17267159E-07
 -0.17804374E-07 -0.18212725E-07 -0.18490438E-07 -0.18636658E-07 -0.18651449E-07
 -0.18535781E-07 -0.18291523E-07 -0.17921417E-07 -0.17429059E-07 -0.16818862E-07
 -0.16096022E-07 -0.15266480E-07 -0.14336866E-07 -0.13314457E-07 -0.12207117E-07
 -0.11023241E-07 -0.97716907E-08 -0.84617320E-08 -0.71029674E-08 -0.57052667E-08
 -0.42786963E-08 -0.28334487E-08 -0.13797704E-08  0.72108710E-10  0.15120461E-08
  0.29300568E-08  0.43163811E-08  0.56615518E-08  0.69564578E-08  0.81924048E-08
  0.93611728E-08  0.10455070E-07  0.11466982E-07  0.12390420E-07  0.13219557E-07
  0.13949271E-07  0.14575172E-07  0.15093625E-07  0.15501778E-07  0.15797569E-07
  0.15979738E-07  0.16047832E-07  0.16002201E-07  0.15843992E-07  0.15575134E-07
  0.15198321E-07  0.14716986E-07  0.14135274E-07  0.13458004E-07  0.12690637E-07
  0.11839229E-07  0.10910388E-07  0.99112208E-08  0.88492804E-08  0.77325114E-08
  0.65691898E-08  0.53678631E-08  0.41372892E-08  0.28863729E-08  0.16241032E-08
  0.35948840E-09 -0.89850720E-09 -0.21410267E-08 -0.33593822E-08 -0.45451149E-08
 -0.56900529E-08 -0.67863670E-08 -0.78266235E-08 -0.88038346E-08 -0.97115054E-08
 -0.10543677E-07 -0.11294964E-07 -0.11960592E-07 -0.12536424E-07 -0.13018986E-07
 -0.13405490E-07 -0.13693847E-07 -0.13882678E-07 -0.13971323E-07 -0.13959836E-07
 -0.13848985E-07 -0.13640237E-07 -0.13335747E-07 -0.12938338E-07 -0.12451471E-07
   22.1097940663734      T
 Non local Part
           0           2  0.916659224328131     
   4.53102003261633        6.76129173839084        6.76129173839084     
   10.0673509645738     
 Reciprocal Space Part
  0.22148571E+02  0.21923386E+02  0.21250500E+02  0.20137897E+02  0.18598786E+02
  0.16651454E+02  0.14319067E+02  0.11629411E+02  0.86145815E+01  0.53106171E+01
  0.17570887E+01 -0.20033611E+01 -0.59255191E+01 -0.99621417E+01 -0.14064527E+02
 -0.18183116E+02 -0.22268109E+02 -0.26270101E+02 -0.30140721E+02 -0.33833264E+02
 -0.37303316E+02 -0.40509354E+02 -0.43413318E+02 -0.45981141E+02 -0.48183231E+02
 -0.49994895E+02 -0.51396693E+02 -0.52374723E+02 -0.52920824E+02 -0.53032690E+02
 -0.52713899E+02 -0.51973849E+02 -0.50827598E+02 -0.49295616E+02 -0.47403447E+02
 -0.45181286E+02 -0.42663474E+02 -0.39887936E+02 -0.36895540E+02 -0.33729422E+02
 -0.30434269E+02 -0.27055571E+02 -0.23638875E+02 -0.20229036E+02 -0.16869483E+02
 -0.13601530E+02 -0.10463717E+02 -0.74912242E+01 -0.47153467E+01 -0.21630540E+01
  0.14336334E+00  0.21865524E+01  0.39542564E+01  0.54393728E+01  0.66399096E+01
  0.75588424E+01  0.82038774E+01  0.85871262E+01  0.87247005E+01  0.86362381E+01
  0.83443710E+01  0.78741478E+01  0.72524252E+01  0.65072421E+01  0.56671904E+01
  0.47607972E+01  0.38159312E+01  0.28592466E+01  0.19156761E+01  0.10079826E+01
  0.15637851E+00 -0.62178036E+00 -0.13122227E+01 -0.19039075E+01 -0.23890879E+01
 -0.27632943E+01 -0.30252405E+01 -0.31766570E+01 -0.32220602E+01 -0.31684640E+01
 -0.30250442E+01 -0.28027659E+01 -0.25139851E+01 -0.21720352E+01 -0.17908103E+01
 -0.13843559E+01 -0.96647738E+00 -0.55037574E+00 -0.14831946E+00  0.22864118E+00
  0.57091087E+00  0.87053339E+00  0.11213203E+01  0.13189234E+01  0.14608514E+01
  0.15464330E+01  0.15767306E+01  0.15544080E+01  0.14835595E+01  0.13695063E+01
 Real Space Part
 -0.49474910E+03 -0.49448948E+03 -0.49371085E+03 -0.49241403E+03 -0.49060033E+03
 -0.48827164E+03 -0.48543033E+03 -0.48207935E+03 -0.47822214E+03 -0.47386272E+03
 -0.46900563E+03 -0.46365596E+03 -0.45781936E+03 -0.45150203E+03 -0.44471076E+03
 -0.43745294E+03 -0.42973654E+03 -0.42157019E+03 -0.41296316E+03 -0.40392540E+03
 -0.39446758E+03 -0.38460113E+03 -0.37433823E+03 -0.36369192E+03 -0.35267608E+03
 -0.34130551E+03 -0.32959596E+03 -0.31756420E+03 -0.30522802E+03 -0.29260630E+03
 -0.27971909E+03 -0.26658759E+03 -0.25323421E+03 -0.23968262E+03 -0.22595777E+03
 -0.21208591E+03 -0.19809458E+03 -0.18401268E+03 -0.16987039E+03 -0.15569921E+03
 -0.14153192E+03 -0.12740251E+03 -0.11334618E+03 -0.99399225E+02 -0.85598960E+02
 -0.71983635E+02 -0.58592294E+02 -0.45464644E+02 -0.32640893E+02 -0.20161571E+02
 -0.80673330E+01  0.36012602E+01  0.14803981E+02  0.25501189E+02  0.35654110E+02
  0.45225120E+02  0.54178059E+02  0.62478543E+02  0.70094300E+02  0.76995498E+02
  0.83155094E+02  0.88549169E+02  0.93157268E+02  0.96962725E+02  0.99952983E+02
  0.10211989E+03  0.10345995E+03  0.10397461E+03  0.10367043E+03  0.10255925E+03
  0.10065832E+03  0.97990388E+02  0.94583664E+02  0.90471811E+02  0.85693817E+02
  0.80293831E+02  0.74320906E+02  0.67828691E+02  0.60875071E+02  0.53521705E+02
  0.45833543E+02  0.37878276E+02  0.29725738E+02  0.21447138E+02  0.13113214E+02
  0.48027383E+01 -0.33506228E+01 -0.11720629E+02 -0.14071829E+02 -0.15751529E+02
 -0.16772133E+02 -0.17216390E+02 -0.17031524E+02 -0.16179288E+02 -0.14630315E+02
 -0.12357074E+02 -0.93386236E+01 -0.56605325E+01 -0.72839536E+00  0.00000000E+00
 Reciprocal Space Part
 -0.94901155E+01 -0.93540953E+01 -0.89476770E+01 -0.82757703E+01 -0.73464982E+01
 -0.61711087E+01 -0.47638508E+01 -0.31418168E+01 -0.13247509E+01  0.66517396E+00
  0.28036100E+01  0.50643171E+01  0.74194721E+01  0.98400012E+01  0.12295934E+02
  0.14756773E+02  0.17191880E+02  0.19570864E+02  0.21863983E+02  0.24042533E+02
  0.26079240E+02  0.27948632E+02  0.29627396E+02  0.31094712E+02  0.32332550E+02
  0.33325937E+02  0.34063181E+02  0.34536048E+02  0.34739889E+02  0.34673714E+02
  0.34340208E+02  0.33745693E+02  0.32900027E+02  0.31816444E+02  0.30511350E+02
  0.29004045E+02  0.27316417E+02  0.25472575E+02  0.23498455E+02  0.21421387E+02
  0.19269642E+02  0.17071966E+02  0.14857103E+02  0.12653319E+02  0.10487949E+02
  0.83869484E+01  0.63744882E+01  0.44725784E+01  0.27007396E+01  0.10757259E+01
 -0.38869772E+00 -0.16819158E+01 -0.27965606E+01 -0.37285459E+01 -0.44770353E+01
 -0.50443483E+01 -0.54358064E+01 -0.56595222E+01 -0.57261388E+01 -0.56485248E+01
 -0.54414324E+01 -0.51211277E+01 -0.47050002E+01 -0.42111627E+01 -0.36580481E+01
 -0.30640152E+01 -0.24469697E+01 -0.18240089E+01 -0.12110996E+01 -0.62279218E+00
 -0.71979511E-01  0.43029689E+00  0.87499003E+00  0.12551382E+01  0.15659029E+01
  0.18045552E+01  0.19704126E+01  0.20647292E+01  0.20905453E+01  0.20524997E+01
  0.19566119E+01  0.18100418E+01  0.16208312E+01  0.13976382E+01  0.11494675E+01
  0.88540772E+00  0.61437924E+00  0.34490031E+00  0.84876376E-01 -0.15858275E+00
 -0.37931431E+00 -0.57221988E+00 -0.73334691E+00 -0.85993390E+00 -0.95041973E+00
 -0.10044186E+01 -0.10226625E+01 -0.10069155E+01 -0.95986150E+00 -0.88497270E+00
 Real Space Part
  0.31957985E+03  0.31942169E+03  0.31894730E+03  0.31815702E+03  0.31705135E+03
  0.31563106E+03  0.31389709E+03  0.31185065E+03  0.30949315E+03  0.30682626E+03
  0.30385190E+03  0.30057226E+03  0.29698980E+03  0.29310728E+03  0.28892778E+03
  0.28445470E+03  0.27969182E+03  0.27464328E+03  0.26931364E+03  0.26370787E+03
  0.25783145E+03  0.25169030E+03  0.24529092E+03  0.23864035E+03  0.23174623E+03
  0.22461683E+03  0.21726109E+03  0.20968868E+03  0.20190998E+03  0.19393616E+03
  0.18577921E+03  0.17745193E+03  0.16896803E+03  0.16034206E+03  0.15158952E+03
  0.14272683E+03  0.13377134E+03  0.12474136E+03  0.11565613E+03  0.10653581E+03
  0.97401502E+02  0.88275177E+02  0.79179664E+02  0.70138594E+02  0.61176348E+02
  0.52317984E+02  0.43589159E+02  0.35016036E+02  0.26625176E+02  0.18443419E+02
  0.10497754E+02  0.28151715E+01 -0.45774924E+01 -0.11653728E+02 -0.18387535E+02
 -0.24753614E+02 -0.30727571E+02 -0.36286131E+02 -0.41407352E+02 -0.46070857E+02
 -0.50258053E+02 -0.53952363E+02 -0.57139450E+02 -0.59807436E+02 -0.61947114E+02
 -0.63552148E+02 -0.64619254E+02 -0.65148367E+02 -0.65142779E+02 -0.64609257E+02
 -0.63558125E+02 -0.62003315E+02 -0.59962383E+02 -0.57456478E+02 -0.54510279E+02
 -0.51151890E+02 -0.47412675E+02 -0.43327065E+02 -0.38932325E+02 -0.34268255E+02
 -0.29376877E+02 -0.24302080E+02 -0.19089228E+02 -0.13784662E+02 -0.84344992E+01
 -0.30901219E+01  0.21615903E+01  0.75612381E+01  0.90826367E+01  0.10171825E+02
  0.10836136E+02  0.11128346E+02  0.11013808E+02  0.10467241E+02  0.94691072E+01
  0.80010560E+01  0.60490166E+01  0.36679898E+01  0.47211579E+00  0.00000000E+00
 Non local Part
           1           2  0.916659224328131     
  -1.28468783454265       -1.94336176422407       -1.94336176422407     
  -2.68107424521736     
 Reciprocal Space Part
  0.00000000E+00  0.20959513E+01  0.41464868E+01  0.61070647E+01  0.79348733E+01
  0.95896512E+01  0.11034456E+02  0.12236364E+02  0.13167088E+02  0.13803503E+02
  0.14128063E+02  0.14129109E+02  0.13801055E+02  0.13144458E+02  0.12165961E+02
  0.10878124E+02  0.92991262E+01  0.74523810E+01  0.53660348E+01  0.30723889E+01
  0.60724486E+00 -0.19908099E+01 -0.46811592E+01 -0.74219442E+01 -0.10170859E+02
 -0.12885943E+02 -0.15526350E+02 -0.18053080E+02 -0.20429662E+02 -0.22622773E+02
 -0.24602776E+02 -0.26344184E+02 -0.27826021E+02 -0.29032090E+02 -0.29951143E+02
 -0.30576948E+02 -0.30908252E+02 -0.30948656E+02 -0.30706392E+02 -0.30194018E+02
 -0.29428042E+02 -0.28428478E+02 -0.27218347E+02 -0.25823145E+02 -0.24270273E+02
 -0.22588460E+02 -0.20807175E+02 -0.18956054E+02 -0.17064350E+02 -0.15160408E+02
 -0.13271188E+02 -0.11421832E+02 -0.96352992E+01 -0.79320475E+01 -0.63297952E+01
 -0.48433438E+01 -0.34844717E+01 -0.22618953E+01 -0.11812955E+01 -0.24540572E+00
  0.54584442E+00  0.11951347E+01  0.17075170E+01  0.20901430E+01  0.23519636E+01
  0.25034101E+01  0.25560642E+01  0.25223255E+01  0.24150836E+01  0.22474036E+01
  0.20322289E+01  0.17821095E+01  0.15089594E+01  0.12238466E+01  0.93681918E+00
  0.65676884E+00  0.39133265E+00  0.14683259E+00 -0.71748088E-01 -0.26075393E+00
 -0.41781449E+00 -0.54177312E+00 -0.63259121E+00 -0.69123224E+00 -0.71953013E+00
 -0.72004647E+00 -0.69592133E+00 -0.65072194E+00 -0.58829362E+00 -0.51261668E+00
 -0.42767269E+00 -0.33732312E+00 -0.24520265E+00 -0.15462891E+00 -0.68529938E-01
  0.10610137E-01  0.80787010E-01  0.14049429E+00  0.18872464E+00  0.22495540E+00
 Real Space Part
  0.00000000E+00 -0.13665053E+02 -0.27275912E+02 -0.40778648E+02 -0.54119860E+02
 -0.67246934E+02 -0.80108298E+02 -0.92653671E+02 -0.10483430E+03 -0.11660319E+03
 -0.12791532E+03 -0.13872787E+03 -0.14900036E+03 -0.15869490E+03 -0.16777631E+03
 -0.17621228E+03 -0.18397349E+03 -0.19103376E+03 -0.19737014E+03 -0.20296296E+03
 -0.20779595E+03 -0.21185629E+03 -0.21513462E+03 -0.21762506E+03 -0.21932527E+03
 -0.22023641E+03 -0.22036311E+03 -0.21971346E+03 -0.21829895E+03 -0.21613443E+03
 -0.21323801E+03 -0.20963101E+03 -0.20533781E+03 -0.20038581E+03 -0.19480526E+03
 -0.18862914E+03 -0.18189302E+03 -0.17463491E+03 -0.16689508E+03 -0.15871591E+03
 -0.15014167E+03 -0.14121831E+03 -0.13199332E+03 -0.12251542E+03 -0.11283439E+03
 -0.10300080E+03 -0.93065782E+02 -0.83080727E+02 -0.73097055E+02 -0.63165914E+02
 -0.53337902E+02 -0.43662771E+02 -0.34189130E+02 -0.24964139E+02 -0.16033210E+02
 -0.74396963E+01  0.77540742E+00  0.85737675E+01  0.15920003E+02  0.22781972E+02
  0.29131040E+02  0.34942338E+02  0.40195001E+02  0.44872375E+02  0.48962213E+02
  0.52456823E+02  0.55353195E+02  0.57653084E+02  0.59363050E+02  0.60494452E+02
  0.61063404E+02  0.61090668E+02  0.60601497E+02  0.59625426E+02  0.58196012E+02
  0.56350517E+02  0.54129532E+02  0.51576554E+02  0.48737530E+02  0.45660330E+02
  0.42394205E+02  0.38989207E+02  0.35495575E+02  0.31963123E+02  0.28440598E+02
  0.24975056E+02  0.21611244E+02  0.18390988E+02  0.15352635E+02  0.12530503E+02
  0.99544017E+01  0.76491983E+01  0.56344222E+01  0.39239890E+01  0.25259323E+01
  0.14422603E+01  0.66887907E+00  0.19501056E+00  0.59958329E-02  0.00000000E+00
 Reciprocal Space Part
  0.00000000E+00 -0.10451160E+01 -0.20649745E+01 -0.30348132E+01 -0.39308500E+01
 -0.47307476E+01 -0.54140485E+01 -0.59625709E+01 -0.63607584E+01 -0.65959755E+01
 -0.66587432E+01 -0.65429111E+01 -0.62457618E+01 -0.57680460E+01 -0.51139493E+01
 -0.42909900E+01 -0.33098525E+01 -0.21841596E+01 -0.93018846E+00  0.43346191E+00
  0.18862456E+01  0.34060777E+01  0.49697677E+01  0.65534669E+01  0.81331237E+01
  0.96849336E+01  0.11185777E+02  0.12613638E+02  0.13947989E+02  0.15170140E+02
  0.16263551E+02  0.17214083E+02  0.18010208E+02  0.18643157E+02  0.19107012E+02
  0.19398736E+02  0.19518157E+02  0.19467883E+02  0.19253173E+02  0.18881761E+02
  0.18363632E+02  0.17710765E+02  0.16936850E+02  0.16056968E+02  0.15087273E+02
  0.14044650E+02  0.12946381E+02  0.11809814E+02  0.10652044E+02  0.94896137E+01
  0.83382354E+01  0.72125476E+01  0.61258997E+01  0.50901746E+01  0.41156499E+01
  0.32108977E+01  0.23827249E+01  0.16361518E+01  0.97442951E+00  0.39909136E+00
 -0.89962118E-01 -0.49434991E+00 -0.81707223E+00 -0.10623518E+01 -0.12354596E+01
 -0.13425289E+01 -0.13903641E+01 -0.13862474E+01 -0.13377484E+01 -0.12525414E+01
 -0.11382327E+01 -0.10022025E+01 -0.85146409E+00 -0.69254132E+00 -0.53136723E+00
 -0.37320434E+00 -0.22258691E+00 -0.83285249E-01  0.41708800E-01  0.15017627E+00
  0.24064701E+00  0.31235914E+00  0.36520422E+00  0.39966066E+00  0.41671794E+00
  0.41779432E+00  0.40465071E+00  0.37930319E+00  0.34393670E+00  0.30082212E+00
  0.25223864E+00  0.20040314E+00  0.14740799E+00  0.95168321E-01  0.45379359E-01
 -0.51562266E-03 -0.41346852E-01 -0.76229268E-01 -0.10456396E+00 -0.12603057E+00
 Real Space Part
  0.00000000E+00  0.90485869E+01  0.18059591E+02  0.26995639E+02  0.35819777E+02
  0.44495675E+02  0.52987827E+02  0.61261742E+02  0.69284130E+02  0.77023073E+02
  0.84448194E+02  0.91530801E+02  0.98244029E+02  0.10456296E+03  0.11046475E+03
  0.11592870E+03  0.12093634E+03  0.12547152E+03  0.12952044E+03  0.13307169E+03
  0.13611629E+03  0.13864768E+03  0.14066173E+03  0.14215673E+03  0.14313337E+03
  0.14359469E+03  0.14354604E+03  0.14299504E+03  0.14195151E+03  0.14042739E+03
  0.13843669E+03  0.13599538E+03  0.13312130E+03  0.12983410E+03  0.12615508E+03
  0.12210715E+03  0.11771466E+03  0.11300334E+03  0.10800011E+03  0.10273302E+03
  0.97231088E+02  0.91524178E+02  0.85642850E+02  0.79618228E+02  0.73481850E+02
  0.67265521E+02  0.61001155E+02  0.54720621E+02  0.48455581E+02  0.42237328E+02
  0.36096616E+02  0.30063494E+02  0.24167136E+02  0.18435668E+02  0.12895998E+02
  0.75736492E+01  0.24925843E+01 -0.23249524E+01 -0.68585980E+01 -0.11090025E+02
 -0.15003085E+02 -0.18583948E+02 -0.21821223E+02 -0.24706074E+02 -0.27232306E+02
 -0.29396450E+02 -0.31197816E+02 -0.32638528E+02 -0.33723531E+02 -0.34460580E+02
 -0.34860194E+02 -0.34935584E+02 -0.34702549E+02 -0.34179343E+02 -0.33386512E+02
 -0.32346702E+02 -0.31084428E+02 -0.29625823E+02 -0.27998366E+02 -0.26230568E+02
 -0.24351657E+02 -0.22391231E+02 -0.20378905E+02 -0.18343956E+02 -0.16314943E+02
 -0.14319354E+02 -0.12383246E+02 -0.10530895E+02 -0.87844744E+01 -0.71637436E+01
 -0.56857747E+01 -0.43647092E+01 -0.32115336E+01 -0.22339290E+01 -0.14361230E+01
 -0.81881419E+00 -0.37913686E+00 -0.11035310E+00 -0.33111851E-02  0.00000000E+00
 PAW radial sets
         349  0.767152376481001     
(5E20.12)                                
 augmentation charges (non sperical)
 -0.625207073093E-01 -0.998103638523E-01 -0.375433201241E-01 -0.624051651388E-01 -0.998103638523E-01
 -0.159398238329E+00 -0.574337361378E-01 -0.954180788670E-01 -0.375433201241E-01 -0.574337361378E-01
  0.304004010670E-01  0.596980002141E-01 -0.624051651388E-01 -0.954180788670E-01  0.596980002141E-01
  0.115635334751E+00
 uccopancies in atom
  0.199999999934E+01  0.000000000000E+00  0.000000000000E+00  0.000000000000E+00  0.000000000000E+00
  0.000000000000E+00  0.000000000000E+00  0.000000000000E+00  0.000000000000E+00  0.000000000000E+00
  0.333333332824E+00  0.000000000000E+00  0.000000000000E+00  0.000000000000E+00  0.000000000000E+00
  0.000000000000E+00
 grid
  0.256987082033E-04  0.265343660836E-04  0.273971974735E-04  0.282880859877E-04  0.292079439739E-04
  0.301577134470E-04  0.311383670540E-04  0.321509090698E-04  0.331963764261E-04  0.342758397726E-04
  0.353904045743E-04  0.365412122428E-04  0.377294413057E-04  0.389563086136E-04  0.402230705856E-04
  0.415310244967E-04  0.428815098061E-04  0.442759095287E-04  0.457156516517E-04  0.472022105968E-04
  0.487371087303E-04  0.503219179220E-04  0.519582611550E-04  0.536478141878E-04  0.553923072702E-04
  0.571935269157E-04  0.590533177306E-04  0.609735843032E-04  0.629562931543E-04  0.650034747509E-04
  0.671172255860E-04  0.692997103250E-04  0.715531640232E-04  0.738798944139E-04  0.762822842725E-04
  0.787627938560E-04  0.813239634230E-04  0.839684158351E-04  0.866988592424E-04  0.895180898578E-04
  0.924289948197E-04  0.954345551491E-04  0.985378488024E-04  0.101742053824E-03  0.105050451599E-03
  0.108466430216E-03  0.111993487936E-03  0.115635236774E-03  0.119395406199E-03  0.123277846954E-03
  0.127286534996E-03  0.131425575573E-03  0.135699207424E-03  0.140111807121E-03  0.144667893552E-03
  0.149372132548E-03  0.154229341661E-03  0.159244495097E-03  0.164422728811E-03  0.169769345767E-03
  0.175289821369E-03  0.180989809065E-03  0.186875146142E-03  0.192951859698E-03  0.199226172819E-03
  0.205704510951E-03  0.212393508477E-03  0.219300015515E-03  0.226431104933E-03  0.233794079589E-03
  0.241396479813E-03  0.249246091126E-03  0.257350952216E-03  0.265719363170E-03  0.274359893971E-03
  0.283281393279E-03  0.292492997488E-03  0.302004140086E-03  0.311824561313E-03  0.321964318140E-03
  0.332433794563E-03  0.343243712241E-03  0.354405141475E-03  0.365929512543E-03  0.377828627408E-03
  0.390114671805E-03  0.402800227715E-03  0.415898286256E-03  0.429422260986E-03  0.443386001636E-03
  0.457803808296E-03  0.472690446061E-03  0.488061160148E-03  0.503931691513E-03  0.520318292965E-03
  0.537237745817E-03  0.554707377067E-03  0.572745077143E-03  0.591369318228E-03  0.610599173170E-03
  0.630454335023E-03  0.650955137207E-03  0.672122574335E-03  0.693978323711E-03  0.716544767534E-03
  0.739845015814E-03  0.763902930040E-03  0.788743147621E-03  0.814391107108E-03  0.840873074253E-03
  0.868216168906E-03  0.896448392785E-03  0.925598658153E-03  0.955696817430E-03  0.986773693761E-03
  0.101886111258E-02  0.105199193422E-02  0.108620008752E-02  0.112152060463E-02  0.115798965684E-02
  0.119564459165E-02  0.123452397100E-02  0.127466761077E-02  0.131611662157E-02  0.135891345079E-02
  0.140310192614E-02  0.144872730047E-02  0.149583629815E-02  0.154447716291E-02  0.159469970724E-02
  0.164655536343E-02  0.170009723620E-02  0.175538015710E-02  0.181246074067E-02  0.187139744242E-02
  0.193225061868E-02  0.199508258842E-02  0.205995769708E-02  0.212694238242E-02  0.219610524262E-02
  0.226751710650E-02  0.234125110604E-02  0.241738275130E-02  0.249599000774E-02  0.257715337606E-02
  0.266095597464E-02  0.274748362466E-02  0.283682493800E-02  0.292907140797E-02  0.302431750302E-02
  0.312266076347E-02  0.322420190141E-02  0.332904490385E-02  0.343729713917E-02  0.354906946713E-02
  0.366447635235E-02  0.378363598158E-02  0.390667038468E-02  0.403370555964E-02  0.416487160158E-02
  0.430030283598E-02  0.444013795626E-02  0.458452016581E-02  0.473359732462E-02  0.488752210074E-02
  0.504645212658E-02  0.521055016037E-02  0.537998425286E-02  0.555492791934E-02  0.573556031743E-02
  0.592206643048E-02  0.611463725705E-02  0.631347000649E-02  0.651876830092E-02  0.673074238373E-02
  0.694960933490E-02  0.717559329332E-02  0.740892568630E-02  0.764984546661E-02  0.789859935715E-02
  0.815544210365E-02  0.842063673552E-02  0.869445483524E-02  0.897717681647E-02  0.926909221123E-02
  0.957049996638E-02  0.988170874981E-02  0.102030372665E-01  0.105348145849E-01  0.108773804741E-01
  0.112310857514E-01  0.115962926419E-01  0.119733751494E-01  0.123627194393E-01  0.127647242343E-01
  0.131798012223E-01  0.136083754784E-01  0.140508859003E-01  0.145077856571E-01  0.149795426541E-01
  0.154666400119E-01  0.159695765605E-01  0.164888673510E-01  0.170250441826E-01  0.175786561471E-01
  0.181502701916E-01  0.187404716989E-01  0.193498650868E-01  0.199790744274E-01  0.206287440861E-01
  0.212995393813E-01  0.219921472661E-01  0.227072770315E-01  0.234456610329E-01  0.242080554399E-01
  0.249952410111E-01  0.258080238933E-01  0.266472364471E-01  0.275137380997E-01  0.284084162243E-01
  0.293321870496E-01  0.302859965976E-01  0.312708216526E-01  0.322876707616E-01  0.333375852669E-01
  0.344216403726E-01  0.355409462461E-01  0.366966491542E-01  0.378899326377E-01  0.391220187233E-01
  0.403941691747E-01  0.417076867851E-01  0.430639167114E-01  0.444642478515E-01  0.459101142669E-01
  0.474029966512E-01  0.489444238462E-01  0.505359744083E-01  0.521792782242E-01  0.538760181807E-01
  0.556279318877E-01  0.574368134580E-01  0.593045153443E-01  0.612329502366E-01  0.632240930208E-01
  0.652799828010E-01  0.674027249881E-01  0.695944934555E-01  0.718575327656E-01  0.741941604685E-01
  0.766067694752E-01  0.790978305080E-01  0.816698946312E-01  0.843255958631E-01  0.870676538739E-01
  0.898988767707E-01  0.928221639730E-01  0.958405091824E-01  0.989570034482E-01  0.102174838333E+00
  0.105497309180E+00  0.108927818491E+00  0.112469879407E+00  0.116127119307E+00  0.119903283525E+00
  0.123802239184E+00  0.127827979153E+00  0.131984626143E+00  0.136276436924E+00  0.140707806685E+00
  0.145283273535E+00  0.150007523153E+00  0.154885393583E+00  0.159921880190E+00  0.165122140778E+00
  0.170491500867E+00  0.176035459150E+00  0.181759693127E+00  0.187670064913E+00  0.193772627244E+00
  0.200073629679E+00  0.206579524993E+00  0.213296975793E+00  0.220232861335E+00  0.227394284572E+00
  0.234788579427E+00  0.242423318304E+00  0.250306319843E+00  0.258445656926E+00  0.266849664946E+00
  0.275526950342E+00  0.284486399411E+00  0.293737187413E+00  0.303288787964E+00  0.313150982735E+00
  0.323333871477E+00  0.333847882359E+00  0.344703782644E+00  0.355912689725E+00  0.367486082501E+00
  0.379435813139E+00  0.391774119205E+00  0.404513636205E+00  0.417667410516E+00  0.431248912754E+00
  0.445272051562E+00  0.459751187861E+00  0.474701149551E+00  0.490137246700E+00  0.506075287220E+00
  0.522531593057E+00  0.539523016906E+00  0.557066959470E+00  0.575181387280E+00  0.593884851093E+00
  0.613196504889E+00  0.633136125489E+00  0.653724132809E+00  0.674981610766E+00  0.696930328875E+00
  0.719592764541E+00  0.742992126080E+00  0.767152376481E+00  0.792098257953E+00  0.817855317258E+00
  0.844449931876E+00  0.871909337016E+00  0.900261653508E+00  0.929535916602E+00  0.959762105701E+00
  0.990971175065E+00  0.102319508551E+01  0.105646683713E+01  0.109082050311E+01  0.112629126461E+01
  0.116291544678E+01  0.120073055599E+01  0.123977531821E+01  0.128008971870E+01  0.132171504292E+01
  0.136469391884E+01  0.140907036058E+01  0.145488981351E+01  0.150219920074E+01  0.155104697122E+01
  0.160148314933E+01  0.165355938614E+01  0.170732901225E+01  0.176284709246E+01
 aepotential
  0.389786815177E+05  0.375324444328E+05  0.361081269603E+05  0.347087148684E+05  0.333375539309E+05
  0.319973573466E+05  0.306906765101E+05  0.294194548666E+05  0.281853054024E+05  0.269894801784E+05
  0.258328858350E+05  0.247161072016E+05  0.236394485835E+05  0.226029544114E+05  0.216064484029E+05
  0.206495289587E+05  0.197316714585E+05  0.188521121318E+05  0.180100604807E+05  0.172045459291E+05
  0.164346305673E+05  0.156990432417E+05  0.149968372864E+05  0.143268106667E+05  0.136875935346E+05
  0.130782034468E+05  0.124973342506E+05  0.119438181504E+05  0.114164022557E+05  0.109140962125E+05
  0.104355716265E+05  0.997990112916E+04  0.954595507350E+04  0.913265138685E+04  0.873908142719E+04
  0.836418563538E+04  0.800717524165E+04  0.766703439111E+04  0.734303755549E+04  0.703432382441E+04
  0.674019174836E+04  0.645979346872E+04  0.619255529209E+04  0.593773220836E+04  0.569467490350E+04
  0.546296632998E+04  0.524179933801E+04  0.503080360672E+04  0.482939741024E+04  0.463714183289E+04
  0.445354795334E+04  0.427820000967E+04  0.411066513588E+04  0.395057185256E+04  0.379758525271E+04
  0.365126417509E+04  0.351139206300E+04  0.337758013111E+04  0.324953464164E+04  0.312702680212E+04
  0.300973464786E+04  0.289744774983E+04  0.278990053269E+04  0.268690902038E+04  0.258818595504E+04
  0.249360136014E+04  0.240292220016E+04  0.231598802401E+04  0.223259798816E+04  0.215261058181E+04
  0.207588160292E+04  0.200221731094E+04  0.193152394262E+04  0.186365836389E+04  0.179847352449E+04
  0.173587510710E+04  0.167573960442E+04  0.161795406229E+04  0.156241347929E+04  0.150903442185E+04
  0.145770579520E+04  0.140835193843E+04  0.136088263529E+04  0.131522402871E+04  0.127129209383E+04
  0.122901423210E+04  0.118833145795E+04  0.114915657193E+04  0.111145098803E+04  0.107514634807E+04
  0.104017036338E+04  0.100649338535E+04  0.974038467745E+03  0.942780740601E+03  0.912647505070E+03
  0.883614989271E+03  0.855628263807E+03  0.828642637009E+03  0.802630284078E+03  0.777547052357E+03
  0.753353738559E+03  0.730018193820E+03  0.707511305458E+03  0.685795875246E+03  0.664844206854E+03
  0.644626144748E+03  0.625110683863E+03  0.606283681427E+03  0.588101551614E+03  0.570553046337E+03
  0.553611015741E+03  0.537254121303E+03  0.521454663248E+03  0.506196893081E+03  0.491462805272E+03
  0.477229760981E+03  0.463479867603E+03  0.450197738345E+03  0.437362331352E+03  0.424962917468E+03
  0.412978625229E+03  0.401398740593E+03  0.390206087502E+03  0.379387003795E+03  0.368930128006E+03
  0.358820406910E+03  0.349046516760E+03  0.339596729141E+03  0.330459871420E+03  0.321624029437E+03
  0.313079650596E+03  0.304815420229E+03  0.296822760469E+03  0.289091195664E+03  0.281612991179E+03
  0.274378466022E+03  0.267377041652E+03  0.260605028403E+03  0.254052030079E+03  0.247709891379E+03
  0.241573625483E+03  0.235633520057E+03  0.229884323212E+03  0.224319270792E+03  0.218932103362E+03
  0.213716359050E+03  0.208666517358E+03  0.203777294988E+03  0.199041985667E+03  0.194456492511E+03
  0.190015243301E+03  0.185713061958E+03  0.181545826238E+03  0.177508019287E+03  0.173596059188E+03
  0.169805105401E+03  0.166131251974E+03  0.162570393909E+03  0.159118645849E+03  0.155772206954E+03
  0.152527576634E+03  0.149381073143E+03  0.146329339339E+03  0.143369156506E+03  0.140497291312E+03
  0.137710647561E+03  0.135006231462E+03  0.132381137475E+03  0.129832610045E+03  0.127357919746E+03
  0.124954435516E+03  0.122619473268E+03  0.120350928306E+03  0.118145915011E+03  0.116002418184E+03
  0.113918252972E+03  0.111890964112E+03  0.109918645899E+03  0.107999132556E+03  0.106130459749E+03
  0.104310672452E+03  0.102537930175E+03  0.100810340559E+03  0.991261898435E+02  0.974836708886E+02
  0.958811636739E+02  0.943170450479E+02  0.927896591371E+02  0.912975203975E+02  0.898391025019E+02
  0.884129361651E+02  0.870175971875E+02  0.856517088219E+02  0.843139125930E+02  0.830028881418E+02
  0.817173385546E+02  0.804560319383E+02  0.792177330022E+02  0.780012595475E+02  0.768054365409E+02
  0.756291576592E+02  0.744712787894E+02  0.733307459492E+02  0.722064972695E+02  0.710974998957E+02
  0.700027461228E+02  0.689212644498E+02  0.678520804490E+02  0.667942648237E+02  0.657468994503E+02
  0.647090890084E+02  0.636799616208E+02  0.626586440120E+02  0.616443538148E+02  0.606362027091E+02
  0.596334485341E+02  0.586352898819E+02  0.576409885675E+02  0.566497826005E+02  0.556609672478E+02
  0.546738260001E+02  0.536876842004E+02  0.527018636462E+02  0.517157338087E+02  0.507286486349E+02
  0.497400054667E+02  0.487492006080E+02  0.477556675442E+02  0.467588519440E+02  0.457582061220E+02
  0.447532220325E+02  0.437433965362E+02  0.427282495845E+02  0.417073250495E+02  0.406801805775E+02
  0.396463994068E+02  0.386055845493E+02  0.375573593130E+02  0.365013678047E+02  0.354372788398E+02
  0.343647806250E+02  0.332835864973E+02  0.321934295224E+02  0.310940691671E+02  0.299852867536E+02
  0.288668891982E+02  0.277387038308E+02  0.266005891555E+02  0.254524212169E+02  0.242941060086E+02
  0.231255745697E+02  0.219467820875E+02  0.207577109463E+02  0.195583710355E+02  0.183487982399E+02
  0.171290575597E+02  0.158992413130E+02  0.146594728356E+02  0.134099061763E+02  0.121507270202E+02
  0.108821570588E+02  0.960445437016E+01  0.831791767754E+01  0.702289102586E+01  0.571976784795E+01
  0.440899898249E+01  0.309109965335E+01  0.176666081918E+01  0.436361259261E+00 -0.899017406289E+00
 -0.223857159500E+01 -0.358125389972E+01 -0.492584753732E+01 -0.627093590693E+01 -0.761486890093E+01
 -0.895572571481E+01 -0.102912750722E+02 -0.116189354921E+02 -0.129357378903E+02 -0.142382953320E+02
 -0.155227851492E+02 -0.167849505068E+02 -0.180201292096E+02 -0.192233177635E+02 -0.203892779445E+02
 -0.215126897543E+02 -0.225883539240E+02 -0.236114361458E+02 -0.245777486375E+02 -0.254840586672E+02
 -0.263284254361E+02 -0.271105909125E+02 -0.278324992187E+02 -0.284990963783E+02 -0.291196564973E+02
 -0.297099346692E+02 -0.302952938947E+02 -0.309142147444E+02 -0.316196434195E+02 -0.324720301888E+02
 -0.335142991509E+02 -0.347227746347E+02 -0.359521532405E+02 -0.369339802005E+02 -0.373898403409E+02
 -0.372147834110E+02 -0.365620438469E+02 -0.357269871683E+02 -0.349507426845E+02 -0.343295077798E+02
 -0.338522041907E+02 -0.334705857491E+02 -0.331403276133E+02 -0.328323749319E+02 -0.325310795812E+02
 -0.322295143358E+02 -0.319255378504E+02 -0.316191493121E+02 -0.313109112410E+02 -0.310011687479E+02
 -0.306897544317E+02 -0.303760148927E+02 -0.300589366783E+02 -0.297373574317E+02 -0.294101089290E+02
 -0.290761527534E+02 -0.287346506905E+02 -0.283850154502E+02 -0.280269116519E+02 -0.276602489574E+02
 -0.272851680004E+02 -0.269020204809E+02 -0.265112977547E+02 -0.261136475851E+02 -0.257097788601E+02
 -0.253004648263E+02 -0.248864629335E+02 -0.244684845634E+02 -0.240471522154E+02 -0.236229570564E+02
 -0.231962279143E+02 -0.227671240279E+02 -0.223356381498E+02 -0.219016255587E+02 -0.214648549321E+02
 -0.210250768393E+02 -0.205821022512E+02 -0.201358811719E+02 -0.196865707576E+02
 core charge-density
  0.110588858805E-05  0.117890890384E-05  0.125674999748E-05  0.133973007009E-05  0.142818831956E-05
  0.152248632539E-05  0.162300952478E-05  0.173016878602E-05  0.184440208553E-05  0.196617629546E-05
  0.209598908899E-05  0.223437097123E-05  0.238188744387E-05  0.253914131240E-05  0.270677514536E-05
  0.288547389549E-05  0.307596769351E-05  0.327903482587E-05  0.349550490860E-05  0.372626226999E-05
  0.397224955605E-05  0.423447157325E-05  0.451399938415E-05  0.481197467254E-05  0.512961439577E-05
  0.546821574329E-05  0.582916142112E-05  0.621392528410E-05  0.662407833844E-05  0.706129513904E-05
  0.752736060720E-05  0.802417729678E-05  0.855377313766E-05  0.911830968815E-05  0.972009092971E-05
  0.103615726392E-04  0.110453723768E-04  0.117742801301E-04  0.125512696562E-04  0.133795105696E-04
  0.142623812220E-04  0.152034824284E-04  0.162066520932E-04  0.172759807953E-04  0.184158283955E-04
  0.196308417331E-04  0.209259734807E-04  0.223065022367E-04  0.237780539323E-04  0.253466246411E-04
  0.270186048819E-04  0.288008055127E-04  0.307004853180E-04  0.327253804017E-04  0.348837355016E-04
  0.371843373506E-04  0.396365502193E-04  0.422503537786E-04  0.450363834365E-04  0.480059733068E-04
  0.511712019825E-04  0.545449412944E-04  0.581409082483E-04  0.619737203491E-04  0.660589545243E-04
  0.704132098913E-04  0.750541746020E-04  0.800006970419E-04  0.852728616545E-04  0.908920696956E-04
  0.968811252314E-04  0.103264326717E-03  0.110067564522E-03  0.117318424774E-03  0.125046299928E-03
  0.133282506511E-03  0.142060410464E-03  0.151415560608E-03  0.161385830728E-03  0.172011570831E-03
  0.183335768165E-03  0.195404218625E-03  0.208265709194E-03  0.221972212138E-03  0.236579091679E-03
  0.252145323955E-03  0.268733731108E-03  0.286411230363E-03  0.305249099105E-03  0.325323256880E-03
  0.346714565453E-03  0.369509148038E-03  0.393798728851E-03  0.419680994372E-03  0.447259977510E-03
  0.476646466280E-03  0.507958438335E-03  0.541321523116E-03  0.576869493219E-03  0.614744786821E-03
  0.655099063104E-03  0.698093792664E-03  0.743900885070E-03  0.792703355825E-03  0.844696035175E-03
  0.900086321247E-03  0.959094980255E-03  0.102195699662E-02  0.108892247588E-02  0.116025760381E-02
  0.123624566486E-02  0.131718812357E-02  0.140340577266E-02  0.149523995182E-02  0.159305384118E-02
  0.169723383401E-02  0.180819099318E-02  0.192636259627E-02  0.205221377435E-02  0.218623925008E-02
  0.232896518031E-02  0.248095110978E-02  0.264279204145E-02  0.281512063062E-02  0.299860950937E-02
  0.319397374857E-02  0.340197346524E-02  0.362341658276E-02  0.385916175262E-02  0.411012144592E-02
  0.437726522418E-02  0.466162319807E-02  0.496428968482E-02  0.528642707345E-02  0.562926990949E-02
  0.599412920900E-02  0.638239701412E-02  0.679555120274E-02  0.723516056099E-02  0.770289013587E-02
  0.820050687820E-02  0.872988558765E-02  0.929301517860E-02  0.989200527455E-02  0.105290931503E-01
  0.112066510332E-01  0.119271937795E-01  0.126933869408E-01  0.135080552333E-01  0.143741914291E-01
  0.152949656781E-01  0.162737352811E-01  0.173140549254E-01  0.184196873950E-01  0.195946147756E-01
  0.208430501575E-01  0.221694498570E-01  0.235785261616E-01  0.250752606114E-01  0.266649178229E-01
  0.283530598631E-01  0.301455611762E-01  0.320486240680E-01  0.340687947434E-01  0.362129798949E-01
  0.384884638355E-01  0.409029261633E-01  0.434644599415E-01  0.461815903748E-01  0.490632939530E-01
  0.521190180320E-01  0.553587008087E-01  0.587927916518E-01  0.624322717073E-01  0.662886747583E-01
  0.703741082189E-01  0.747012741880E-01  0.792834904936E-01  0.841347115715E-01  0.892695490774E-01
  0.947032920888E-01  0.100451926734E+00  0.106532155058E+00  0.112961412962E+00  0.119757886956E+00
  0.126940529527E+00  0.134529072815E+00  0.142544040347E+00  0.151006756491E+00  0.159939353286E+00
  0.169364774284E+00  0.179306774989E+00  0.189789919461E+00  0.200839572619E+00  0.212481887727E+00
  0.224743788529E+00  0.237652945466E+00  0.251237745344E+00  0.265527253831E+00  0.280551170071E+00
  0.296339772741E+00  0.312923856732E+00  0.330334659776E+00  0.348603778095E+00  0.367763070338E+00
  0.387844548888E+00  0.408880257723E+00  0.430902135899E+00  0.453941865853E+00  0.478030705595E+00
  0.503199303993E+00  0.529477498309E+00  0.556894093224E+00  0.585476620745E+00  0.615251080004E+00
  0.646241657190E+00  0.678470424119E+00  0.711957016252E+00  0.746718289277E+00  0.782767954822E+00
  0.820116195316E+00  0.858769258831E+00  0.898729034453E+00  0.939992609805E+00  0.982551811675E+00
  0.102639273227E+01  0.107149524296E+01  0.111783249876E+01  0.116537043636E+01  0.121406726993E+01
  0.126387298909E+01  0.131472886360E+01  0.136656696084E+01  0.141930968190E+01  0.147286932324E+01
  0.152714767142E+01  0.158203563858E+01  0.163741294765E+01  0.169314787617E+01  0.174909706847E+01
  0.180510542607E+01  0.186100608681E+01  0.191662050302E+01  0.197175862969E+01  0.202621923268E+01
  0.207979032772E+01  0.213224975951E+01  0.218336593080E+01  0.223289868851E+01  0.228060037526E+01
  0.232621705083E+01  0.236948988778E+01  0.241015674317E+01  0.244795390562E+01  0.248261801439E+01
  0.251388814469E+01  0.254150804942E+01  0.256522854512E+01  0.258481002497E+01  0.260002507902E+01
  0.261066119738E+01  0.261652352779E+01  0.261743765572E+01  0.261325237105E+01  0.260384238122E+01
  0.258911092871E+01  0.256899226633E+01  0.254345394306E+01  0.251249885034E+01  0.247616697844E+01
  0.243453683306E+01  0.238772646272E+01  0.233589405015E+01  0.227923802491E+01  0.221799665871E+01
  0.215244711149E+01  0.208290390453E+01  0.200971680523E+01  0.193326811988E+01  0.185396940194E+01
  0.177225759762E+01  0.168859066424E+01  0.160344271278E+01  0.151729874154E+01  0.143064904325E+01
  0.134398338271E+01  0.125778506183E+01  0.117252497847E+01  0.108865582372E+01  0.100660653999E+01
  0.926777170435E+00  0.849534221242E+00  0.775206647494E+00  0.704082560065E+00  0.636406737656E+00
  0.572379015912E+00  0.512153612844E+00  0.455839427296E+00  0.403501292408E+00  0.355162040053E+00
  0.310804998111E+00  0.270376237901E+00  0.233785763970E+00  0.200907394327E+00  0.171578578703E+00
  0.145602852031E+00  0.122756949166E+00  0.102801455856E+00  0.854912754166E-01  0.705829711291E-01
  0.578388441160E-01  0.470292430696E-01  0.379343582016E-01  0.303459373391E-01  0.240688832141E-01
  0.189225802258E-01  0.147418412103E-01  0.113774303307E-01  0.869616818135E-02  0.658065640721E-02
  0.492867651634E-02  0.365232565920E-02  0.267695427074E-02  0.193996870717E-02  0.138955760040E-02
  0.983394401420E-03  0.687361038118E-03  0.474329251040E-03  0.323027485359E-03  0.217012668278E-03
  0.143758218938E-03  0.938625713477E-04  0.603765861581E-04  0.382436142754E-04  0.238426774130E-04
  0.146231715410E-04  0.881853421807E-05  0.522625038568E-05  0.304219043900E-05  0.173836466581E-05
  0.974545187751E-06  0.535685890206E-06  0.288534767363E-06  0.152191460600E-06  0.785602301812E-07
  0.396591204972E-07  0.195663533204E-07  0.942741158248E-08  0.443271989495E-08
 kinetic energy-density
  0.552328845802E-02  0.561770439297E-02  0.571593049069E-02  0.581812119414E-02  0.592445285339E-02
  0.603514776259E-02  0.615041025527E-02  0.627046898997E-02  0.639556019433E-02  0.652593980159E-02
  0.666187098460E-02  0.680363361631E-02  0.695152296066E-02  0.710584914424E-02  0.726694135420E-02
  0.743514291930E-02  0.761082146779E-02  0.779436075282E-02  0.798616385043E-02  0.818665458546E-02
  0.839630096574E-02  0.861556276685E-02  0.884494342038E-02  0.908499331512E-02  0.933626073417E-02
  0.959933851933E-02  0.987485536532E-02  0.101634827252E-01  0.104659102290E-01  0.107828898485E-01
  0.111152082688E-01  0.114636810904E-01  0.118292097111E-01  0.122127109665E-01  0.126151798400E-01
  0.130376523027E-01  0.134812463398E-01  0.139471283847E-01  0.144365277685E-01  0.149507678839E-01
  0.154912578525E-01  0.160594621644E-01  0.166569533514E-01  0.172854032719E-01  0.179465473793E-01
  0.186422905727E-01  0.193746017307E-01  0.201455806464E-01  0.209574670274E-01  0.218126271783E-01
  0.227135782033E-01  0.236630044656E-01  0.246637164084E-01  0.257187381113E-01  0.268312794045E-01
  0.280047004182E-01  0.292426211921E-01  0.305488822998E-01  0.319275368104E-01  0.333828830613E-01
  0.349195622819E-01  0.365423743770E-01  0.382565560433E-01  0.400676034687E-01  0.419813321038E-01
  0.440039918202E-01  0.461421565096E-01  0.484028782627E-01  0.507936022664E-01  0.533222565609E-01
  0.559972853630E-01  0.588276306099E-01  0.618228387739E-01  0.649930431207E-01  0.683489972219E-01
  0.719021675054E-01  0.756647432754E-01  0.796496714145E-01  0.838707352269E-01  0.883425567430E-01
  0.930807594191E-01  0.981018448296E-01  0.103423477609E+00  0.109064411827E+00  0.115044542960E+00
  0.121385126511E+00  0.128108679820E+00  0.135239140370E+00  0.142802129886E+00  0.150824687431E+00
  0.159335799120E+00  0.168366053406E+00  0.177948180016E+00  0.188116926915E+00  0.198909253424E+00
  0.210364444919E+00  0.222524387979E+00  0.235433566701E+00  0.249139184643E+00  0.263691765097E+00
  0.279144731503E+00  0.295555096275E+00  0.312983379229E+00  0.331494140725E+00  0.351155779000E+00
  0.372041328784E+00  0.394228160380E+00  0.417798862844E+00  0.442841174908E+00  0.469448157255E+00
  0.497719128456E+00  0.527759713372E+00  0.559681842354E+00  0.593604826606E+00  0.629655429628E+00
  0.667968701148E+00  0.708687613446E+00  0.751964941894E+00  0.797962337866E+00  0.846852215896E+00
  0.898817498471E+00  0.954052754796E+00  0.101276480785E+01  0.107517321678E+01  0.114151154792E+01
  0.121202789561E+01  0.128698572509E+01  0.136666508449E+01  0.145136339869E+01  0.154139656485E+01
  0.163710018774E+01  0.173883045637E+01  0.184696573121E+01  0.196190769990E+01  0.208408277966E+01
  0.221394395437E+01  0.235197074763E+01  0.249867401735E+01  0.265459338344E+01  0.282030416219E+01
  0.299641382714E+01  0.318356883223E+01  0.338245313240E+01  0.359379239980E+01  0.381835699502E+01
  0.405696090669E+01  0.431046926180E+01  0.457979705138E+01  0.486591413691E+01  0.516984718893E+01
  0.549268345948E+01  0.583557418155E+01  0.619973701608E+01  0.658646085966E+01  0.699710852180E+01
  0.743312210093E+01  0.789602478042E+01  0.838742802204E+01  0.890903305223E+01  0.946263788567E+01
  0.100501401433E+02  0.106735438232E+02  0.113349627292E+02  0.120366269485E+02  0.127808878877E+02
  0.135702240405E+02  0.144072462809E+02  0.152947046199E+02  0.162354933465E+02  0.172326583398E+02
  0.182894025345E+02  0.194090917062E+02  0.205952646208E+02  0.218516320529E+02  0.231820925372E+02
  0.245907344714E+02  0.260818371161E+02  0.276598905794E+02  0.293295896265E+02  0.310958428801E+02
  0.329637866228E+02  0.349387782911E+02  0.370264101500E+02  0.392325128424E+02  0.415631576173E+02
  0.440246608486E+02  0.466235893427E+02  0.493667600672E+02  0.522612420166E+02  0.553143581103E+02
  0.585336831458E+02  0.619270410175E+02  0.655025021149E+02  0.692683793113E+02  0.732332181638E+02
  0.774057882533E+02  0.817950738420E+02  0.864102581659E+02  0.912607077532E+02  0.963559518500E+02
  0.101705662180E+03  0.107319624690E+03  0.113207709218E+03  0.119379840958E+03  0.125845954848E+03
  0.132615959714E+03  0.139699688429E+03  0.147106846186E+03  0.154846951047E+03  0.162929275315E+03
  0.171362772253E+03  0.180156003476E+03  0.189317056957E+03  0.198853458488E+03  0.208772083626E+03
  0.219079049777E+03  0.229779599278E+03  0.240878024906E+03  0.252377496761E+03  0.264279974667E+03
  0.276586061524E+03  0.289294861699E+03  0.302403844951E+03  0.315908701144E+03  0.329803184364E+03
  0.344078951584E+03  0.358725433593E+03  0.373729642079E+03  0.389076055118E+03  0.404746435064E+03
  0.420719697959E+03  0.436971770391E+03  0.453475454831E+03  0.470200313160E+03  0.487112559025E+03
  0.504174970871E+03  0.521346813401E+03  0.538583803148E+03  0.555838070600E+03  0.573058177343E+03
  0.590189150158E+03  0.607172550502E+03  0.623946590575E+03  0.640446277126E+03  0.656603615227E+03
  0.672347839987E+03  0.687605708945E+03  0.702301842480E+03  0.716359106596E+03  0.729699056217E+03
  0.742242422643E+03  0.753909661301E+03  0.764621523918E+03  0.774299713051E+03  0.782867536784E+03
  0.790250635349E+03  0.796377715119E+03  0.801181318814E+03  0.804598611776E+03  0.806572168538E+03
  0.807050767447E+03  0.805990164973E+03  0.803353852717E+03  0.799113774720E+03  0.793250999019E+03
  0.785756333529E+03  0.776630858739E+03  0.765886392213E+03  0.753545843642E+03  0.739643468340E+03
  0.724225006212E+03  0.707347691430E+03  0.689080127412E+03  0.669502029676E+03  0.648703815976E+03
  0.626786056343E+03  0.603858774571E+03  0.580040602962E+03  0.555457795893E+03  0.530243105184E+03
  0.504534525491E+03  0.478473918268E+03  0.452205526902E+03  0.425874397267E+03  0.399624726600E+03
  0.373598138869E+03  0.347931981852E+03  0.322757582743E+03  0.298198585510E+03  0.274369373049E+03
  0.251373630350E+03  0.229303090081E+03  0.208236494273E+03  0.188238790942E+03  0.169360566030E+03
  0.151637695729E+03  0.135091206275E+03  0.119727373410E+03  0.105538214974E+03  0.925027421808E+02
  0.805895435436E+02  0.697611302018E+02  0.599793786033E+02  0.512093077427E+02  0.434173352280E+02
  0.365633994593E+02  0.305927192349E+02  0.254346288688E+02  0.210092990695E+02  0.172363357952E+02
  0.140400227345E+02  0.113508089787E+02  0.910503795033E+01  0.724441243527E+01  0.571567029738E+01
  0.447044908624E+01  0.346522022964E+01  0.266120663723E+01  0.202424280764E+01  0.152456727155E+01
  0.113655345533E+01  0.838392653492E+00  0.611744816307E+00  0.441372486616E+00  0.314771364593E+00
  0.221808900591E+00  0.154380017641E+00  0.106086892448E+00  0.719476163957E-01  0.481366365737E-01
  0.317581457646E-01  0.206521151062E-01  0.132314695184E-01  0.834802655309E-02  0.518421975463E-02
  0.316731871507E-02  0.190277250083E-02  0.112341286154E-02  0.651497174480E-03  0.370904229239E-03
  0.207173761157E-03  0.113467381156E-03  0.608978716689E-04  0.320074652927E-04  0.164639302614E-04
  0.828238404929E-05  0.407206536327E-05  0.195524260451E-05  0.916205323007E-06
 mkinetic energy-density pseudized
  0.452232176042E-06  0.482121285184E-06  0.513985837223E-06  0.547956393916E-06  0.584172146157E-06
  0.622781484303E-06  0.663942606184E-06  0.707824165301E-06  0.754605961871E-06  0.804479679539E-06
  0.857649670778E-06  0.914333794207E-06  0.974764307241E-06  0.103918881775E-05  0.110787129858E-05
  0.118109316921E-05  0.125915444876E-05  0.134237498538E-05  0.143109576671E-05  0.152568031709E-05
  0.162651618706E-05  0.173401654129E-05  0.184862185150E-05  0.197080170124E-05  0.210105670993E-05
  0.223992058417E-05  0.238796230445E-05  0.254578845657E-05  0.271404571703E-05  0.289342350271E-05
  0.308465679570E-05  0.328852915479E-05  0.350587592606E-05  0.373758766558E-05  0.398461378840E-05
  0.424796645865E-05  0.452872473679E-05  0.482803900097E-05  0.514713566053E-05  0.548732218112E-05
  0.584999244187E-05  0.623663244672E-05  0.664882641306E-05  0.708826326299E-05  0.755674354343E-05
  0.805618680369E-05  0.858863946060E-05  0.915628318348E-05  0.976144383330E-05  0.104066009926E-04
  0.110943981254E-04  0.118276534082E-04  0.126093712777E-04  0.134427547405E-04  0.143312184974E-04
  0.152784029347E-04  0.162881890404E-04  0.173647143055E-04  0.185123896777E-04  0.197359176342E-04
  0.210403114494E-04  0.224309157367E-04  0.239134283469E-04  0.254939237148E-04  0.271788777480E-04
  0.289751943615E-04  0.308902337652E-04  0.329318426218E-04  0.351083861970E-04  0.374287826353E-04
  0.399025395008E-04  0.425397927327E-04  0.453513481767E-04  0.483487258592E-04  0.515442071900E-04
  0.549508852823E-04  0.585827186008E-04  0.624545881533E-04  0.665823584635E-04  0.709829425735E-04
  0.756743713412E-04  0.806758673193E-04  0.860079235155E-04  0.916923873591E-04  0.977525502162E-04
  0.104213242821E-03  0.111100937016E-03  0.118443854213E-03  0.126272081023E-03  0.134617692533E-03
  0.143514883721E-03  0.153000109566E-03  0.163112234406E-03  0.173892691183E-03  0.185385651196E-03
  0.197638205081E-03  0.210700555752E-03  0.224626224089E-03  0.239472268224E-03  0.255299517314E-03
  0.272172820769E-03  0.290161313944E-03  0.309338701395E-03  0.329783558851E-03  0.351579655144E-03
  0.374816295409E-03  0.399588686972E-03  0.425998329409E-03  0.454153430384E-03  0.484169348972E-03
  0.516169068265E-03  0.550283699223E-03  0.586653017804E-03  0.625426037603E-03  0.666761620317E-03
  0.710829126556E-03  0.757809109649E-03  0.807894055304E-03  0.861289170132E-03  0.918213222275E-03
  0.978899437573E-03  0.104359645494E-02  0.111256934488E-02  0.118610069524E-02  0.126449176876E-02
  0.134806373708E-02  0.143715899620E-02  0.153214256893E-02  0.163340359995E-02  0.174135694961E-02
  0.185644489298E-02  0.197913893125E-02  0.210994172256E-02  0.224938914058E-02  0.239805246885E-02
  0.255654074016E-02  0.272550323033E-02  0.290563211667E-02  0.309766531206E-02  0.330238948595E-02
  0.352064328503E-02  0.375332076632E-02  0.400137505693E-02  0.426582225543E-02  0.454774559060E-02
  0.484829985467E-02  0.516871612906E-02  0.551030682187E-02  0.587447103777E-02  0.626270030197E-02
  0.667658466173E-02  0.711781919029E-02  0.758821091945E-02  0.808968622930E-02  0.862429872487E-02
  0.919423763193E-02  0.980183674588E-02  0.104495839701E-01  0.111401314823E-01  0.118763065709E-01
  0.126611231832E-01  0.134977942355E-01  0.143897447313E-01  0.153406257428E-01  0.163543293122E-01
  0.174350043314E-01  0.185870734654E-01  0.198152511870E-01  0.211245629951E-01  0.225203658945E-01
  0.240083702176E-01  0.255946628780E-01  0.272857321457E-01  0.290884940460E-01  0.310103204838E-01
  0.330590692085E-01  0.352431157357E-01  0.375713873529E-01  0.400533993440E-01  0.426992935746E-01
  0.455198795888E-01  0.485266783811E-01  0.517319690103E-01  0.551488382406E-01  0.587912333999E-01
  0.626740186597E-01  0.668130349536E-01  0.712251637645E-01  0.759283950207E-01  0.809418993620E-01
  0.862861050454E-01  0.919827797801E-01  0.980551177961E-01  0.104527832468E+00  0.111427254838E+00
  0.118781438386E+00  0.126620270443E+00  0.134975590632E+00  0.143881316757E+00  0.153373578593E+00
  0.163490860028E+00  0.174274150050E+00  0.185767103087E+00  0.198016209236E+00  0.211070974931E+00
  0.224984114637E+00  0.239811754177E+00  0.255613646310E+00  0.272453399215E+00  0.290398718562E+00
  0.309521663840E+00  0.329898919674E+00  0.351612082841E+00  0.374747965731E+00  0.399398916993E+00
  0.425663160117E+00  0.453645150707E+00  0.483455953170E+00  0.515213637556E+00  0.549043697232E+00
  0.585079488053E+00  0.623462689631E+00  0.664343789235E+00  0.707882588774E+00  0.754248735202E+00
  0.803622274549E+00  0.856194229627E+00  0.912167201267E+00  0.971755992692E+00  0.103518825638E+01
  0.110270516242E+01  0.117456208704E+01  0.125102931940E+01  0.133239278442E+01  0.141895477864E+01
  0.151103471553E+01  0.160896987575E+01  0.171311615703E+01  0.182384881733E+01  0.194156320347E+01
  0.206667545649E+01  0.219962318290E+01  0.234086607971E+01  0.249088649880E+01  0.265018993406E+01
  0.281930541210E+01  0.299878576466E+01  0.318920775744E+01  0.339117204664E+01  0.360530293054E+01
  0.383224785899E+01  0.407267665894E+01  0.432728042882E+01  0.459677004851E+01  0.488187424574E+01
  0.518333715244E+01  0.550191527747E+01  0.583837381399E+01  0.619348219157E+01  0.656800877421E+01
  0.696271459627E+01  0.737834601910E+01  0.781562618169E+01  0.827524510966E+01  0.875784833819E+01
  0.926402389682E+01  0.979428749788E+01  0.103490657658E+02  0.109286773435E+02  0.115333117137E+02
  0.121630055807E+02  0.128176166705E+02  0.134967948304E+02  0.141999503347E+02  0.149262193537E+02
  0.156744265898E+02  0.164430451680E+02  0.172301539545E+02  0.180333925990E+02  0.188499147399E+02
  0.196763399891E+02  0.205087055231E+02  0.213424183621E+02  0.221722097081E+02  0.229920930585E+02
  0.237953281931E+02  0.245743935693E+02  0.253209701355E+02  0.260259400842E+02  0.266794046038E+02
  0.272707252258E+02  0.277885938803E+02  0.282211372241E+02  0.285560611420E+02  0.287808414681E+02
  0.288829668536E+02  0.288502391954E+02  0.286711360150E+02  0.283352374778E+02  0.278337181811E+02
  0.271599002278E+02  0.263098592122E+02  0.252830683821E+02  0.240830582043E+02  0.227180587353E+02
  0.212015805465E+02  0.195528766169E+02  0.177972129558E+02  0.159658604767E+02  0.140957059743E+02
  0.122283677145E+02  0.104086936032E+02  0.868252045816E+01  0.709358579962E+01  0.567951393537E+01
  0.446685186722E+01  0.346521402621E+01  0.266120663723E+01  0.202424280764E+01  0.152456727155E+01
  0.113655345533E+01  0.838392653492E+00  0.611744816307E+00  0.441372486616E+00  0.314771364593E+00
  0.221808900591E+00  0.154380017641E+00  0.106086892448E+00  0.719476163957E-01  0.481366365737E-01
  0.317581457646E-01  0.206521151062E-01  0.132314695184E-01  0.834802655309E-02  0.518421975463E-02
  0.316731871507E-02  0.190277250083E-02  0.112341286154E-02  0.651497174480E-03  0.370904229239E-03
  0.207173761157E-03  0.113467381156E-03  0.608978716689E-04  0.320074652927E-04  0.164639302614E-04
  0.828238404929E-05  0.407206536327E-05  0.195524260451E-05  0.916205323007E-06
 local pseudopotential core
 -0.306829200379E+02 -0.306840650363E+02 -0.306851739784E+02 -0.306862479994E+02 -0.306872881994E+02
 -0.306882956434E+02 -0.306892713634E+02 -0.306902163593E+02 -0.306911315986E+02 -0.306920180184E+02
 -0.306928765270E+02 -0.306937080041E+02 -0.306945133008E+02 -0.306952932423E+02 -0.306960486274E+02
 -0.306967802298E+02 -0.306974887993E+02 -0.306981750616E+02 -0.306988397196E+02 -0.306994834546E+02
 -0.307001069260E+02 -0.307007107725E+02 -0.307012956130E+02 -0.307018620467E+02 -0.307024106540E+02
 -0.307029419976E+02 -0.307034566216E+02 -0.307039550537E+02 -0.307044378047E+02 -0.307049053697E+02
 -0.307053582281E+02 -0.307057968442E+02 -0.307062216679E+02 -0.307066331350E+02 -0.307070316676E+02
 -0.307074176745E+02 -0.307077915522E+02 -0.307081536841E+02 -0.307085044424E+02 -0.307088441870E+02
 -0.307091732673E+02 -0.307094920211E+02 -0.307098007765E+02 -0.307100998508E+02 -0.307103895517E+02
 -0.307106701775E+02 -0.307109420171E+02 -0.307112053507E+02 -0.307114604498E+02 -0.307117075777E+02
 -0.307119469895E+02 -0.307121789327E+02 -0.307124036471E+02 -0.307126213654E+02 -0.307128323134E+02
 -0.307130367099E+02 -0.307132347674E+02 -0.307134266920E+02 -0.307136126837E+02 -0.307137929368E+02
 -0.307139676398E+02 -0.307141369759E+02 -0.307143011231E+02 -0.307144602542E+02 -0.307146145375E+02
 -0.307147641364E+02 -0.307149092100E+02 -0.307150499131E+02 -0.307151863964E+02 -0.307153188069E+02
 -0.307154472876E+02 -0.307155719783E+02 -0.307156930152E+02 -0.307158105314E+02 -0.307159246571E+02
 -0.307160355196E+02 -0.307161432435E+02 -0.307162479510E+02 -0.307163497619E+02 -0.307164487940E+02
 -0.307165451630E+02 -0.307166389830E+02 -0.307167303663E+02 -0.307168194239E+02 -0.307169062656E+02
 -0.307169910000E+02 -0.307170737350E+02 -0.307171545778E+02 -0.307172336352E+02 -0.307173110136E+02
 -0.307173868195E+02 -0.307174611596E+02 -0.307175341409E+02 -0.307176058712E+02 -0.307176764590E+02
 -0.307177460142E+02 -0.307178146480E+02 -0.307178824732E+02 -0.307179496047E+02 -0.307180161598E+02
 -0.307180822582E+02 -0.307181480225E+02 -0.307182135790E+02 -0.307182790572E+02 -0.307183445909E+02
 -0.307184103183E+02 -0.307184763825E+02 -0.307185429319E+02 -0.307186101210E+02 -0.307186781102E+02
 -0.307187470673E+02 -0.307188171670E+02 -0.307188885926E+02 -0.307189615358E+02 -0.307190361978E+02
 -0.307191127898E+02 -0.307191915341E+02 -0.307192726645E+02 -0.307193564275E+02 -0.307194430830E+02
 -0.307195329055E+02 -0.307196261849E+02 -0.307197232277E+02 -0.307198243584E+02 -0.307199299202E+02
 -0.307200402771E+02 -0.307201558146E+02 -0.307202769417E+02 -0.307204040922E+02 -0.307205377266E+02
 -0.307206783339E+02 -0.307208264334E+02 -0.307209825771E+02 -0.307211473514E+02 -0.307213213800E+02
 -0.307215053259E+02 -0.307216998944E+02 -0.307219058359E+02 -0.307221239488E+02 -0.307223550827E+02
 -0.307226001420E+02 -0.307228600896E+02 -0.307231359506E+02 -0.307234288163E+02 -0.307237398491E+02
 -0.307240702871E+02 -0.307244214488E+02 -0.307247947387E+02 -0.307251916530E+02 -0.307256137859E+02
 -0.307260628357E+02 -0.307265406117E+02 -0.307270490422E+02 -0.307275901816E+02 -0.307281662192E+02
 -0.307287794882E+02 -0.307294324749E+02 -0.307301278289E+02 -0.307308683743E+02 -0.307316571208E+02
 -0.307324972760E+02 -0.307333922589E+02 -0.307343457134E+02 -0.307353615232E+02 -0.307364438282E+02
 -0.307375970407E+02 -0.307388258637E+02 -0.307401353103E+02 -0.307415307238E+02 -0.307430177997E+02
 -0.307446026089E+02 -0.307462916224E+02 -0.307480917377E+02 -0.307500103072E+02 -0.307520551677E+02
 -0.307542346725E+02 -0.307565577256E+02 -0.307590338179E+02 -0.307616730657E+02 -0.307644862518E+02
 -0.307674848698E+02 -0.307706811702E+02 -0.307740882108E+02 -0.307777199092E+02 -0.307815910998E+02
 -0.307857175934E+02 -0.307901162420E+02 -0.307948050065E+02 -0.307998030296E+02 -0.308051307134E+02
 -0.308108098017E+02 -0.308168634680E+02 -0.308233164086E+02 -0.308301949427E+02 -0.308375271180E+02
 -0.308453428236E+02 -0.308536739101E+02 -0.308625543174E+02 -0.308720202105E+02 -0.308821101245E+02
 -0.308928651180E+02 -0.309043289372E+02 -0.309165481899E+02 -0.309295725305E+02 -0.309434548570E+02
 -0.309582515198E+02 -0.309740225445E+02 -0.309908318678E+02 -0.310087475883E+02 -0.310278422334E+02
 -0.310481930417E+02 -0.310698822635E+02 -0.310929974793E+02 -0.311176319381E+02 -0.311438849149E+02
 -0.311718620917E+02 -0.312016759586E+02 -0.312334462411E+02 -0.312673003506E+02 -0.313033738619E+02
 -0.313418110176E+02 -0.313827652619E+02 -0.314263998038E+02 -0.314728882111E+02 -0.315224150380E+02
 -0.315751764855E+02 -0.316313810967E+02 -0.316912504887E+02 -0.317550201211E+02 -0.318229401030E+02
 -0.318952760384E+02 -0.319723099118E+02 -0.320543410133E+02 -0.321416869045E+02 -0.322346844243E+02
 -0.323336907352E+02 -0.324390844080E+02 -0.325512665444E+02 -0.326706619363E+02 -0.327977202577E+02
 -0.329329172870E+02 -0.330767561558E+02 -0.332297686178E+02 -0.333925163328E+02 -0.335655921576E+02
 -0.337496214340E+02 -0.339452632643E+02 -0.341532117603E+02 -0.343741972514E+02 -0.346089874343E+02
 -0.348583884437E+02 -0.351232458209E+02 -0.354044453537E+02 -0.357029137569E+02 -0.360196191581E+02
 -0.363555713504E+02 -0.367118217671E+02 -0.370894631277E+02 -0.374896287003E+02 -0.379134911168E+02
 -0.383622606722E+02 -0.388371830304E+02 -0.393395362512E+02 -0.398706270465E+02 -0.404317861620E+02
 -0.410243627741E+02 -0.416497177827E+02 -0.423092158683E+02 -0.430042161775E+02 -0.437360614874E+02
 -0.445060656956E+02 -0.453154994720E+02 -0.461655739040E+02 -0.470574219637E+02 -0.479920776203E+02
 -0.489704524250E+02 -0.499933093973E+02 -0.510612340492E+02 -0.521746023989E+02 -0.533335458385E+02
 -0.545379127508E+02 -0.557872267943E+02 -0.570806418218E+02 -0.584168934415E+02 -0.597942472920E+02
 -0.612104441705E+02 -0.626626422408E+02 -0.641473566415E+02 -0.656603969366E+02 -0.671968029780E+02
 -0.687507799156E+02 -0.703156332664E+02 -0.718837051782E+02 -0.734463132733E+02 -0.749936937644E+02
 -0.765149508958E+02 -0.779980151964E+02 -0.794296135535E+02 -0.807952547443E+02 -0.820792348144E+02
 -0.832646675908E+02 -0.843335466749E+02 -0.852668464903E+02 -0.860446713491E+02 -0.866464630316E+02
 -0.870512789655E+02 -0.872381546463E+02 -0.871865652492E+02 -0.868770021862E+02 -0.862916802320E+02
 -0.854153892649E+02 -0.842365009264E+02 -0.827481338043E+02 -0.809494702133E+02 -0.788472026145E+02
 -0.764570679387E+02 -0.738053349894E+02 -0.709402756863E+02 -0.679384778636E+02 -0.648710199237E+02
 -0.618197414061E+02 -0.588753989028E+02 -0.561297103548E+02 -0.535774942640E+02 -0.514612224381E+02
 -0.497897922650E+02 -0.486223738517E+02 -0.479888263113E+02 -0.464741046891E+02 -0.450104464265E+02
 -0.435929029151E+02 -0.422200058459E+02 -0.408903534892E+02 -0.396025719088E+02 -0.383553531508E+02
 -0.371474156315E+02 -0.359775186683E+02 -0.348444659049E+02 -0.337470949143E+02 -0.326842876448E+02
 -0.316549501808E+02 -0.306580288959E+02 -0.296925047080E+02 -0.287573880274E+02 -0.278517212712E+02
 -0.269745769390E+02 -0.261250567835E+02 -0.253022908271E+02 -0.245054364793E+02
 pspotential valence only
 -0.344440375742E+02 -0.344451825409E+02 -0.344462914493E+02 -0.344473654344E+02 -0.344484055960E+02
 -0.344494129993E+02 -0.344503886758E+02 -0.344513336252E+02 -0.344522488150E+02 -0.344531351821E+02
 -0.344539936344E+02 -0.344548250516E+02 -0.344556302843E+02 -0.344564101577E+02 -0.344571654701E+02
 -0.344578969950E+02 -0.344586054820E+02 -0.344592916563E+02 -0.344599562204E+02 -0.344605998554E+02
 -0.344612232201E+02 -0.344618269529E+02 -0.344624116722E+02 -0.344629779766E+02 -0.344635264462E+02
 -0.344640576429E+02 -0.344645721103E+02 -0.344650703754E+02 -0.344655529485E+02 -0.344660203237E+02
 -0.344664729798E+02 -0.344669113803E+02 -0.344673359741E+02 -0.344677471961E+02 -0.344681454674E+02
 -0.344685311958E+02 -0.344689047764E+02 -0.344692665918E+02 -0.344696170125E+02 -0.344699563973E+02
 -0.344702850939E+02 -0.344706034388E+02 -0.344709117582E+02 -0.344712103677E+02 -0.344714995730E+02
 -0.344717796705E+02 -0.344720509469E+02 -0.344723136801E+02 -0.344725681391E+02 -0.344728145845E+02
 -0.344730532688E+02 -0.344732844364E+02 -0.344735083238E+02 -0.344737251607E+02 -0.344739351689E+02
 -0.344741385635E+02 -0.344743355528E+02 -0.344745263387E+02 -0.344747111164E+02 -0.344748900753E+02
 -0.344750633986E+02 -0.344752312637E+02 -0.344753938428E+02 -0.344755513021E+02 -0.344757038031E+02
 -0.344758515019E+02 -0.344759945499E+02 -0.344761330934E+02 -0.344762672744E+02 -0.344763972304E+02
 -0.344765230945E+02 -0.344766449955E+02 -0.344767630585E+02 -0.344768774041E+02 -0.344769881498E+02
 -0.344770954088E+02 -0.344771992910E+02 -0.344772999030E+02 -0.344773973476E+02 -0.344774917249E+02
 -0.344775831315E+02 -0.344776716610E+02 -0.344777574042E+02 -0.344778404490E+02 -0.344779208804E+02
 -0.344779987808E+02 -0.344780742302E+02 -0.344781473059E+02 -0.344782180828E+02 -0.344782866335E+02
 -0.344783530282E+02 -0.344784173351E+02 -0.344784796201E+02 -0.344785399471E+02 -0.344785983780E+02
 -0.344786549727E+02 -0.344787097895E+02 -0.344787628845E+02 -0.344788143123E+02 -0.344788641258E+02
 -0.344789123760E+02 -0.344789591126E+02 -0.344790043838E+02 -0.344790482359E+02 -0.344790907143E+02
 -0.344791318626E+02 -0.344791717232E+02 -0.344792103372E+02 -0.344792477445E+02 -0.344792839837E+02
 -0.344793190922E+02 -0.344793531063E+02 -0.344793860613E+02 -0.344794179913E+02 -0.344794489295E+02
 -0.344794789079E+02 -0.344795079578E+02 -0.344795361095E+02 -0.344795633923E+02 -0.344795898348E+02
 -0.344796154647E+02 -0.344796403089E+02 -0.344796643935E+02 -0.344796877441E+02 -0.344797103853E+02
 -0.344797323412E+02 -0.344797536353E+02 -0.344797742902E+02 -0.344797943283E+02 -0.344798137712E+02
 -0.344798326400E+02 -0.344798509552E+02 -0.344798687371E+02 -0.344798860053E+02 -0.344799027790E+02
 -0.344799190771E+02 -0.344799349180E+02 -0.344799503199E+02 -0.344799653004E+02 -0.344799798771E+02
 -0.344799940673E+02 -0.344800078878E+02 -0.344800213554E+02 -0.344800344867E+02 -0.344800472980E+02
 -0.344800598057E+02 -0.344800720258E+02 -0.344800839746E+02 -0.344800956679E+02 -0.344801071218E+02
 -0.344801183525E+02 -0.344801293759E+02 -0.344801402084E+02 -0.344801508662E+02 -0.344801613658E+02
 -0.344801717240E+02 -0.344801819576E+02 -0.344801920840E+02 -0.344802021208E+02 -0.344802120858E+02
 -0.344802219975E+02 -0.344802318747E+02 -0.344802417370E+02 -0.344802516042E+02 -0.344802614972E+02
 -0.344802714372E+02 -0.344802814466E+02 -0.344802915483E+02 -0.344803017663E+02 -0.344803121257E+02
 -0.344803226526E+02 -0.344803333742E+02 -0.344803443192E+02 -0.344803555176E+02 -0.344803670008E+02
 -0.344803788020E+02 -0.344803909558E+02 -0.344804034991E+02 -0.344804164703E+02 -0.344804299104E+02
 -0.344804438624E+02 -0.344804583717E+02 -0.344804734865E+02 -0.344804892578E+02 -0.344805057394E+02
 -0.344805229884E+02 -0.344805410655E+02 -0.344805600346E+02 -0.344805799639E+02 -0.344806009256E+02
 -0.344806229964E+02 -0.344806462575E+02 -0.344806707954E+02 -0.344806967019E+02 -0.344807240744E+02
 -0.344807530165E+02 -0.344807836384E+02 -0.344808160569E+02 -0.344808503963E+02 -0.344808867890E+02
 -0.344809253753E+02 -0.344809663045E+02 -0.344810097355E+02 -0.344810558371E+02 -0.344811047886E+02
 -0.344811567807E+02 -0.344812120163E+02 -0.344812707107E+02 -0.344813330931E+02 -0.344813994066E+02
 -0.344814699101E+02 -0.344815448781E+02 -0.344816246026E+02 -0.344817093934E+02 -0.344817995796E+02
 -0.344818955107E+02 -0.344819975576E+02 -0.344821061136E+02 -0.344822215963E+02 -0.344823444483E+02
 -0.344824751389E+02 -0.344826141653E+02 -0.344827620546E+02 -0.344829193644E+02 -0.344830866852E+02
 -0.344832646415E+02 -0.344834538937E+02 -0.344836551393E+02 -0.344838691153E+02 -0.344840965990E+02
 -0.344843384101E+02 -0.344845954122E+02 -0.344848685144E+02 -0.344851586725E+02 -0.344854668906E+02
 -0.344857942222E+02 -0.344861417711E+02 -0.344865106922E+02 -0.344869021922E+02 -0.344873175293E+02
 -0.344877580132E+02 -0.344882250043E+02 -0.344887199120E+02 -0.344892441929E+02 -0.344897993473E+02
 -0.344903869159E+02 -0.344910084739E+02 -0.344916656251E+02 -0.344923599932E+02 -0.344930932126E+02
 -0.344938669155E+02 -0.344946827184E+02 -0.344955422040E+02 -0.344964469013E+02 -0.344973982611E+02
 -0.344983976280E+02 -0.344994462070E+02 -0.345005450248E+02 -0.345016948852E+02 -0.345028963170E+02
 -0.345041495136E+02 -0.345054542639E+02 -0.345068098725E+02 -0.345082150682E+02 -0.345096678983E+02
 -0.345111656088E+02 -0.345127045062E+02 -0.345142798002E+02 -0.345158854242E+02 -0.345175138296E+02
 -0.345191557531E+02 -0.345207999490E+02 -0.345224328871E+02 -0.345240384060E+02 -0.345255973199E+02
 -0.345270869699E+02 -0.345284807135E+02 -0.345297473411E+02 -0.345308504126E+02 -0.345317474989E+02
 -0.345323893166E+02 -0.345327187398E+02 -0.345326696702E+02 -0.345321657465E+02 -0.345311188680E+02
 -0.345294275087E+02 -0.345269747910E+02 -0.345236262897E+02 -0.345192275316E+02 -0.345136011580E+02
 -0.345065437160E+02 -0.344978220476E+02 -0.344871692545E+02 -0.344742802225E+02 -0.344588067108E+02
 -0.344403520331E+02 -0.344184653884E+02 -0.343926359448E+02 -0.343622868278E+02 -0.343267692268E+02
 -0.342853568955E+02 -0.342372413856E+02 -0.341815283980E+02 -0.341172356506E+02 -0.340432926187E+02
 -0.339585423797E+02 -0.338617455550E+02 -0.337515859730E+02 -0.336266771920E+02 -0.334855684694E+02
 -0.333267483046E+02 -0.331486436089E+02 -0.329496133651E+02 -0.327279381516E+02 -0.324818123028E+02
 -0.322093554256E+02 -0.319086071261E+02 -0.315876849194E+02 -0.312701699408E+02 -0.309610050115E+02
 -0.306634468622E+02 -0.303791794728E+02 -0.301038607243E+02 -0.297344480154E+02 -0.294205359580E+02
 -0.290911176097E+02 -0.287468803407E+02 -0.283884746605E+02 -0.280269116519E+02 -0.276602489574E+02
 -0.272851680004E+02 -0.269020204809E+02 -0.265112977547E+02 -0.261136475851E+02 -0.257097788601E+02
 -0.253004648263E+02 -0.248864629335E+02 -0.244684845634E+02 -0.240471522154E+02 -0.236229570564E+02
 -0.231962279143E+02 -0.227671240279E+02 -0.223356381498E+02 -0.219016255587E+02 -0.214648549321E+02
 -0.210250768393E+02 -0.205821022512E+02 -0.201358811719E+02 -0.196865707576E+02
 core charge-density (pseudized)
  0.184603815318E-08  0.196804724224E-08  0.209812020457E-08  0.223679000089E-08  0.238462481657E-08
  0.254223038969E-08  0.271025249304E-08  0.288937958007E-08  0.308034560576E-08  0.328393303394E-08
  0.350097604334E-08  0.373236394557E-08  0.397904482896E-08  0.424202944328E-08  0.452239534117E-08
  0.482129129327E-08  0.513994199527E-08  0.547965308588E-08  0.584181649664E-08  0.622791615512E-08
  0.663953406524E-08  0.707835678935E-08  0.754618235871E-08  0.804492764077E-08  0.857663619331E-08
  0.914348663775E-08  0.974780158576E-08  0.103920571560E-07  0.110788931196E-07  0.118111237167E-07
  0.125917491870E-07  0.134239680633E-07  0.143111902770E-07  0.152570511301E-07  0.162654261902E-07
  0.173404471704E-07  0.184865188587E-07  0.197083371656E-07  0.210109083659E-07  0.223995696106E-07
  0.238800107959E-07  0.254582978764E-07  0.271408977203E-07  0.289347046061E-07  0.308470684716E-07
  0.328858250290E-07  0.350593278716E-07  0.373764827009E-07  0.398467838171E-07  0.424803530212E-07
  0.452879810874E-07  0.482811719775E-07  0.514721899768E-07  0.548741099457E-07  0.585008708925E-07
  0.623673330869E-07  0.664893389478E-07  0.708837779563E-07  0.755686558579E-07  0.805631684390E-07
  0.858877801795E-07  0.915643081031E-07  0.976160111699E-07  0.104067685577E-06  0.110945766359E-06
  0.118278435699E-06  0.126095738405E-06  0.134429705012E-06  0.143314483024E-06  0.152786476828E-06
  0.162884496856E-06  0.173649918605E-06  0.185126852168E-06  0.197362322967E-06  0.210406464435E-06
  0.224312723425E-06  0.239138079207E-06  0.254943276924E-06  0.271793076490E-06  0.289756517933E-06
  0.308907204269E-06  0.329323603083E-06  0.351089368032E-06  0.374293681600E-06  0.399031620507E-06
  0.425404545266E-06  0.453520515484E-06  0.483494732616E-06  0.515450011976E-06  0.549517285942E-06
  0.585836140421E-06  0.624555386769E-06  0.665833671501E-06  0.709840126309E-06  0.756755061026E-06
  0.806770702391E-06  0.860091981644E-06  0.916937374162E-06  0.977539794587E-06  0.104214755111E-05
  0.111102536284E-05  0.118445544436E-05  0.126273866199E-05  0.134619576649E-05  0.143516870715E-05
  0.153002203281E-05  0.163114438538E-05  0.173895009210E-05  0.185388086305E-05  0.197640760079E-05
  0.210703232956E-05  0.224629025204E-05  0.239475194199E-05  0.255302568171E-05  0.272175995407E-05
  0.290164609913E-05  0.309342114630E-05  0.329787083370E-05  0.351583282692E-05  0.374820015056E-05
  0.399592484643E-05  0.426002187344E-05  0.454157326522E-05  0.484173256237E-05  0.516172953748E-05
  0.550287523246E-05  0.586656732847E-05  0.625429587071E-05  0.666764937128E-05  0.710832131529E-05
  0.757811709658E-05  0.807896141166E-05  0.861290614194E-05  0.918213875655E-05  0.978899127013E-05
  0.104359497921E-04  0.111256647066E-04  0.118609615246E-04  0.126448524525E-04  0.134805487244E-04
  0.143714737490E-04  0.153212771236E-04  0.163338495739E-04  0.174133388794E-04  0.185641668495E-04
  0.197910474212E-04  0.210990059490E-04  0.224933997691E-04  0.239799401192E-04  0.255647155047E-04
  0.272542166056E-04  0.290553628257E-04  0.309755305924E-04  0.330225835225E-04  0.352049045750E-04
  0.375314303241E-04  0.400116874891E-04  0.426558318712E-04  0.454746898544E-04  0.484798026385E-04
  0.516834733841E-04  0.550988174599E-04  0.587398159952E-04  0.626213729548E-04  0.667593759663E-04
  0.711707611445E-04  0.758735821751E-04  0.808870839350E-04  0.862317809453E-04  0.919295409713E-04
  0.980036741061E-04  0.104479027692E-03  0.111382087462E-03  0.118741085300E-03  0.126586114056E-03
  0.134949249868E-03  0.143864682469E-03  0.153368854014E-03  0.163500606954E-03  0.174301341548E-03
  0.185815183643E-03  0.198089163350E-03  0.211173405350E-03  0.225121331536E-03  0.239989876804E-03
  0.255839718808E-03  0.272735522571E-03  0.290746200890E-03  0.309945191519E-03  0.330410752195E-03
  0.352226274600E-03  0.375480618461E-03  0.400268467008E-03  0.426690705123E-03  0.454854821565E-03
  0.484875336727E-03  0.516874257492E-03  0.550981560792E-03  0.587335707610E-03  0.626084189206E-03
  0.667384107476E-03  0.711402791429E-03  0.758318451863E-03  0.808320876413E-03  0.861612167263E-03
  0.918407523883E-03  0.978936073265E-03  0.104344175023E-02  0.111218423047E-02  0.118543991901E-02
  0.126350299707E-02  0.134668653001E-02  0.143532363958E-02  0.152976874320E-02  0.163039886367E-02
  0.173761501201E-02  0.185184364686E-02  0.197353821315E-02  0.210318076322E-02  0.224128366314E-02
  0.238839138696E-02  0.254508240134E-02  0.271197114288E-02  0.288971008982E-02  0.307899192973E-02
  0.328055182396E-02  0.349516976909E-02  0.372367305490E-02  0.396693881722E-02  0.422589668321E-02
  0.450153150495E-02  0.479488617596E-02  0.510706452333E-02  0.543923426599E-02  0.579263002728E-02
  0.616855638707E-02  0.656839095562E-02  0.699358744717E-02  0.744567872761E-02  0.792627980499E-02
  0.843709072656E-02  0.897989933945E-02  0.955658386482E-02  0.101691152274E-01  0.108195590729E-01
  0.115100773954E-01  0.122429296863E-01  0.130204735004E-01  0.138451643251E-01  0.147195546172E-01
  0.156462918586E-01  0.166281154586E-01  0.176678523125E-01  0.187684107987E-01  0.199327729747E-01
  0.211639847001E-01  0.224651433879E-01  0.238393830517E-01  0.252898562822E-01  0.268197127499E-01
  0.284320737954E-01  0.301300026283E-01  0.319164696194E-01  0.337943121319E-01  0.357661883030E-01
  0.378345241551E-01  0.400014533906E-01  0.422687492043E-01  0.446377474434E-01  0.471092604523E-01
  0.496834809653E-01  0.523598754675E-01  0.551370665223E-01  0.580127036943E-01  0.609833228584E-01
  0.640441939232E-01  0.671891572875E-01  0.704104497335E-01  0.736985209332E-01  0.770418423341E-01
  0.804267109059E-01  0.838370510879E-01  0.872542192979E-01  0.906568165577E-01  0.940205161689E-01
  0.973179149453E-01  0.100518418271E+00  0.103588171191E+00  0.106490049827E+00  0.109183729597E+00
  0.111625848932E+00  0.113770289267E+00  0.115568593978E+00  0.116970550300E+00  0.117924958933E+00
  0.118380615549E+00  0.118287526468E+00  0.117598376608E+00  0.116270261053E+00  0.114266681248E+00
  0.111559792280E+00  0.108132867960E+00  0.103982924685E+00  0.991234125455E-01  0.935868422968E-01
  0.874271695445E-01  0.807217032811E-01  0.735722462767E-01  0.661051126194E-01  0.584696076157E-01
  0.508345043577E-01  0.433820194987E-01  0.362987915266E-01  0.297634151876E-01  0.239302065505E-01
  0.189090885878E-01  0.147418229298E-01  0.113774303307E-01  0.869616818135E-02  0.658065640721E-02
  0.492867651634E-02  0.365232565920E-02  0.267695427074E-02  0.193996870717E-02  0.138955760040E-02
  0.983394401420E-03  0.687361038118E-03  0.474329251040E-03  0.323027485359E-03  0.217012668278E-03
  0.143758218938E-03  0.938625713477E-04  0.603765861581E-04  0.382436142754E-04  0.238426774130E-04
  0.146231715410E-04  0.881853421807E-05  0.522625038568E-05  0.304219043900E-05  0.173836466581E-05
  0.974545187751E-06  0.535685890206E-06  0.288534767363E-06  0.152191460600E-06  0.785602301812E-07
  0.396591204972E-07  0.195663533204E-07  0.942741158248E-08  0.443271989495E-08
 pseudo wavefunction
  0.502227797087E-04  0.518558992130E-04  0.535421236893E-04  0.552831799788E-04  0.570808510753E-04
  0.589369779510E-04  0.608534614421E-04  0.628322641950E-04  0.648754126767E-04  0.669849992498E-04
  0.691631843151E-04  0.714121985246E-04  0.737343450651E-04  0.761320020178E-04  0.786076247927E-04
  0.811637486438E-04  0.838029912654E-04  0.865280554723E-04  0.893417319684E-04  0.922469022042E-04
  0.952465413278E-04  0.983437212317E-04  0.101541613699E-03  0.104843493650E-03  0.108252742499E-03
  0.111772851614E-03  0.115407425895E-03  0.119160187463E-03  0.123034979473E-03  0.127035770051E-03
  0.131166656357E-03  0.135431868777E-03  0.139835775262E-03  0.144382885798E-03  0.149077857021E-03
  0.153925496993E-03  0.158930770121E-03  0.164098802239E-03  0.169434885866E-03  0.174944485615E-03
  0.180633243798E-03  0.186506986200E-03  0.192571728046E-03  0.198833680160E-03  0.205299255327E-03
  0.211975074861E-03  0.218867975383E-03  0.225985015824E-03  0.233333484655E-03  0.240920907348E-03
  0.248755054085E-03  0.256843947715E-03  0.265195871971E-03  0.273819379950E-03  0.282723302876E-03
  0.291916759142E-03  0.301409163647E-03  0.311210237439E-03  0.321330017672E-03  0.331778867880E-03
  0.342567488596E-03  0.353706928304E-03  0.365208594761E-03  0.377084266670E-03  0.389346105753E-03
  0.402006669197E-03  0.415078922518E-03  0.428576252838E-03  0.442512482592E-03  0.456901883689E-03
  0.471759192122E-03  0.487099623059E-03  0.502938886431E-03  0.519293203013E-03  0.536179321037E-03
  0.553614533346E-03  0.571616695102E-03  0.590204242070E-03  0.609396209499E-03  0.629212251615E-03
  0.649672661748E-03  0.670798393114E-03  0.692611080274E-03  0.715133061287E-03  0.738387400589E-03
  0.762397912607E-03  0.787189186155E-03  0.812786609606E-03  0.839216396898E-03  0.866505614374E-03
  0.894682208504E-03  0.923775034499E-03  0.953813885865E-03  0.984829524912E-03  0.101685371425E-02
  0.104991924934E-02  0.108405999203E-02  0.111931090529E-02  0.115570808897E-02  0.119328881680E-02
  0.123209157451E-02  0.127215609932E-02  0.131352342057E-02  0.135623590173E-02  0.140033728386E-02
  0.144587273028E-02  0.149288887295E-02  0.154143386011E-02  0.159155740564E-02  0.164331083999E-02
  0.169674716269E-02  0.175192109662E-02  0.180888914412E-02  0.186770964475E-02  0.192844283510E-02
  0.199115091045E-02  0.205589808844E-02  0.212275067485E-02  0.219177713145E-02  0.226304814618E-02
  0.233663670544E-02  0.241261816890E-02  0.249107034659E-02  0.257207357864E-02  0.265571081748E-02
  0.274206771280E-02  0.283123269924E-02  0.292329708695E-02  0.301835515503E-02  0.311650424810E-02
  0.321784487594E-02  0.332248081639E-02  0.343051922158E-02  0.354207072766E-02  0.365724956802E-02
  0.377617369025E-02  0.389896487686E-02  0.402574886997E-02  0.415665549999E-02  0.429181881850E-02
  0.443137723550E-02  0.457547366101E-02  0.472425565140E-02  0.487787556032E-02  0.503649069468E-02
  0.520026347559E-02  0.536936160456E-02  0.554395823511E-02  0.572423214991E-02  0.591036794368E-02
  0.610255621207E-02  0.630099374662E-02  0.650588373600E-02  0.671743597390E-02  0.693586707353E-02
  0.716140068918E-02  0.739426774487E-02  0.763470667044E-02  0.788296364535E-02  0.813929285026E-02
  0.840395672685E-02  0.867722624599E-02  0.895938118465E-02  0.925071041167E-02  0.955151218287E-02
  0.986209444563E-02  0.101827751533E-01  0.105138825900E-01  0.108557557053E-01  0.112087444604E-01
  0.115732101853E-01  0.119495259470E-01  0.123380769299E-01  0.127392608290E-01  0.131534882545E-01
  0.135811831505E-01  0.140227832268E-01  0.144787404041E-01  0.149495212746E-01  0.154356075757E-01
  0.159374966806E-01  0.164557021034E-01  0.169907540208E-01  0.175431998102E-01  0.181136046052E-01
  0.187025518686E-01  0.193106439838E-01  0.199385028643E-01  0.205867705836E-01  0.212561100239E-01
  0.219472055458E-01  0.226607636791E-01  0.233975138353E-01  0.241582090418E-01  0.249436267001E-01
  0.257545693665E-01  0.265918655579E-01  0.274563705821E-01  0.283489673938E-01  0.292705674769E-01
  0.302221117540E-01  0.312045715233E-01  0.322189494241E-01  0.332662804315E-01  0.343476328810E-01
  0.354641095234E-01  0.366168486114E-01  0.378070250181E-01  0.390358513882E-01  0.403045793226E-01
  0.416145005973E-01  0.429669484170E-01  0.443632987042E-01  0.458049714240E-01  0.472934319464E-01
  0.488301924449E-01  0.504168133333E-01  0.520549047404E-01  0.537461280231E-01  0.554921973189E-01
  0.572948811365E-01  0.591560039863E-01  0.610774480496E-01  0.630611548870E-01  0.651091271855E-01
  0.672234305435E-01  0.694061952944E-01  0.716596183659E-01  0.739859651760E-01  0.763875715632E-01
  0.788668457492E-01  0.814262703329E-01  0.840684043130E-01  0.867958851361E-01  0.896114307681E-01
  0.925178417840E-01  0.955180034730E-01  0.986148879531E-01  0.101811556290E+00  0.105111160616E+00
  0.108516946233E+00  0.112032253711E+00  0.115660520944E+00  0.119405285182E+00  0.123270185008E+00
  0.127258962256E+00  0.131375463848E+00  0.135623643547E+00  0.140007563589E+00  0.144531396189E+00
  0.149199424893E+00  0.154016045748E+00  0.158985768262E+00  0.164113216130E+00  0.169403127681E+00
  0.174860356010E+00  0.180489868758E+00  0.186296747487E+00  0.192286186592E+00  0.198463491705E+00
  0.204834077513E+00  0.211403464925E+00  0.218177277509E+00  0.225161237106E+00  0.232361158534E+00
  0.239782943260E+00  0.247432571943E+00  0.255316095696E+00  0.263439625938E+00  0.271809322677E+00
  0.280431381047E+00  0.289312015898E+00  0.298457444258E+00  0.307873865398E+00  0.317567438271E+00
  0.327544256044E+00  0.337810317404E+00  0.348371494309E+00  0.359233495822E+00  0.370401827616E+00
  0.381881746704E+00  0.393678210937E+00  0.405795822709E+00  0.418238766325E+00  0.431010738395E+00
  0.444114870575E+00  0.457553643926E+00  0.471328794093E+00  0.485441206444E+00  0.499890800241E+00
  0.514676400858E+00  0.529795598979E+00  0.545244595639E+00  0.561018031918E+00  0.577108802021E+00
  0.593507848408E+00  0.610203937627E+00  0.627183415397E+00  0.644429939543E+00  0.661924189320E+00
  0.679643549734E+00  0.697561769516E+00  0.715648591517E+00  0.733869354475E+00  0.752184565347E+00
  0.770549441712E+00  0.788913424224E+00  0.807219659618E+00  0.825404455518E+00  0.843396709160E+00
  0.861117313247E+00  0.878478543450E+00  0.895383433663E+00  0.911725146975E+00  0.927386352467E+00
  0.942238620491E+00  0.956141851861E+00  0.968943759630E+00  0.980479425557E+00  0.990570957184E+00
  0.999027275399E+00  0.100564406642E+01  0.101020393614E+01  0.101247680865E+01  0.101222829934E+01
  0.100940087736E+01  0.100399819967E+01  0.996051092424E+00  0.985607042041E+00  0.972729971616E+00
  0.957499852221E+00  0.940012155846E+00  0.920377170264E+00  0.898719146896E+00  0.875175339994E+00
  0.849894886923E+00  0.823037580727E+00  0.794772507060E+00  0.765276555178E+00  0.734732813259E+00
  0.703328841892E+00  0.671254833845E+00  0.638701681514E+00  0.605858971521E+00  0.572912945031E+00
  0.540044471442E+00  0.507427092938E+00  0.475225202227E+00  0.443592414572E+00
 ae wavefunction
 -0.304288666009E-03 -0.314173978108E-03 -0.324380346783E-03 -0.334918193935E-03 -0.345798279410E-03
 -0.357031711935E-03 -0.368629960401E-03 -0.380604865516E-03 -0.392968651825E-03 -0.405733940124E-03
 -0.418913760267E-03 -0.432521564393E-03 -0.446571240569E-03 -0.461077126879E-03 -0.476054025962E-03
 -0.491517220015E-03 -0.507482486283E-03 -0.523966113042E-03 -0.540984916097E-03 -0.558556255804E-03
 -0.576698054647E-03 -0.595428815363E-03 -0.614767639669E-03 -0.634734247568E-03 -0.655348997272E-03
 -0.676632905794E-03 -0.698607670147E-03 -0.721295689263E-03 -0.744720086590E-03 -0.768904733422E-03
 -0.793874272946E-03 -0.819654145107E-03 -0.846270612196E-03 -0.873750785313E-03 -0.902122651633E-03
 -0.931415102557E-03 -0.961657962756E-03 -0.992882020109E-03 -0.102511905664E-02 -0.105840188039E-02
 -0.109276435830E-02 -0.112824145016E-02 -0.116486924365E-02 -0.120268499037E-02 -0.124172714316E-02
 -0.128203539452E-02 -0.132365071615E-02 -0.136661539996E-02 -0.141097310013E-02 -0.145676887662E-02
 -0.150404924000E-02 -0.155286219770E-02 -0.160325730169E-02 -0.165528569764E-02 -0.170900017564E-02
 -0.176445522246E-02 -0.182170707546E-02 -0.188081377815E-02 -0.194183523747E-02 -0.200483328288E-02
 -0.206987172721E-02 -0.213701642940E-02 -0.220633535922E-02 -0.227789866392E-02 -0.235177873685E-02
 -0.242805028838E-02 -0.250679041881E-02 -0.258807869348E-02 -0.267199722030E-02 -0.275863072948E-02
 -0.284806665580E-02 -0.294039522318E-02 -0.303570953200E-02 -0.313410564884E-02 -0.323568269902E-02
 -0.334054296182E-02 -0.344879196860E-02 -0.356053860371E-02 -0.367589520843E-02 -0.379497768808E-02
 -0.391790562194E-02 -0.404480237674E-02 -0.417579522315E-02 -0.431101545583E-02 -0.445059851679E-02
 -0.459468412233E-02 -0.474341639369E-02 -0.489694399110E-02 -0.505542025206E-02 -0.521900333310E-02
 -0.538785635552E-02 -0.556214755560E-02 -0.574205043819E-02 -0.592774393534E-02 -0.611941256839E-02
 -0.631724661525E-02 -0.652144228139E-02 -0.673220187590E-02 -0.694973399202E-02 -0.717425369221E-02
 -0.740598269818E-02 -0.764514958576E-02 -0.789198998466E-02 -0.814674678312E-02 -0.840967033783E-02
 -0.868101868878E-02 -0.896105777942E-02 -0.925006168215E-02 -0.954831282842E-02 -0.985610224538E-02
 -0.101737297966E-01 -0.105015044290E-01 -0.108397444246E-01 -0.111887776584E-01 -0.115489418610E-01
 -0.119205848865E-01 -0.123040649866E-01 -0.126997510890E-01 -0.131080230817E-01 -0.135292721024E-01
 -0.139639008325E-01 -0.144123237970E-01 -0.148749676681E-01 -0.153522715745E-01 -0.158446874148E-01
 -0.163526801749E-01 -0.168767282502E-01 -0.174173237712E-01 -0.179749729323E-01 -0.185501963247E-01
 -0.191435292714E-01 -0.197555221645E-01 -0.203867408058E-01 -0.210377667468E-01 -0.217091976316E-01
 -0.224016475388E-01 -0.231157473235E-01 -0.238521449596E-01 -0.246115058772E-01 -0.253945132997E-01
 -0.262018685784E-01 -0.270342915179E-01 -0.278925207013E-01 -0.287773138045E-01 -0.296894479044E-01
 -0.306297197767E-01 -0.315989461825E-01 -0.325979641437E-01 -0.336276312013E-01 -0.346888256610E-01
 -0.357824468170E-01 -0.369094151580E-01 -0.380706725501E-01 -0.392671823919E-01 -0.404999297473E-01
 -0.417699214414E-01 -0.430781861278E-01 -0.444257743160E-01 -0.458137583601E-01 -0.472432324033E-01
 -0.487153122742E-01 -0.502311353311E-01 -0.517918602510E-01 -0.533986667566E-01 -0.550527552769E-01
 -0.567553465377E-01 -0.585076810744E-01 -0.603110186622E-01 -0.621666376576E-01 -0.640758342433E-01
 -0.660399215709E-01 -0.680602287931E-01 -0.701380999815E-01 -0.722748929075E-01 -0.744719777046E-01
 -0.767307353752E-01 -0.790525561419E-01 -0.814388376474E-01 -0.838909829697E-01 -0.864103984553E-01
 -0.889984913574E-01 -0.916566672655E-01 -0.943863273082E-01 -0.971888651310E-01 -0.100065663617E+00
 -0.103018091355E+00 -0.106047498819E+00 -0.109155214267E+00 -0.112342539325E+00 -0.115610744252E+00
 -0.118961062859E+00 -0.122394687075E+00 -0.125912761135E+00 -0.129516375376E+00 -0.133206559623E+00
 -0.136984276138E+00 -0.140850412134E+00 -0.144805771805E+00 -0.148851067879E+00 -0.152986912664E+00
 -0.157213808572E+00 -0.161532138085E+00 -0.165942153185E+00 -0.170443964179E+00 -0.175037527944E+00
 -0.179722635554E+00 -0.184498899280E+00 -0.189365738944E+00 -0.194322367627E+00 -0.199367776709E+00
 -0.204500720231E+00 -0.209719698586E+00 -0.215022941516E+00 -0.220408390451E+00 -0.225873680110E+00
 -0.231416119520E+00 -0.237032672272E+00 -0.242719936204E+00 -0.248474122414E+00 -0.254291033704E+00
 -0.260166042421E+00 -0.266094067807E+00 -0.272069552828E+00 -0.278086440619E+00 -0.284138150511E+00
 -0.290217553812E+00 -0.296316949333E+00 -0.302428038842E+00 -0.308541902441E+00 -0.314648974068E+00
 -0.320739017235E+00 -0.326801101074E+00 -0.332823576935E+00 -0.338794055636E+00 -0.344699385556E+00
 -0.350525631798E+00 -0.356258056575E+00 -0.361881101078E+00 -0.367378369056E+00 -0.372732612363E+00
 -0.377925718723E+00 -0.382938702020E+00 -0.387751695390E+00 -0.392343947444E+00 -0.396693821939E+00
 -0.400778801237E+00 -0.404575493891E+00 -0.408059646786E+00 -0.411206162086E+00 -0.413989119516E+00
 -0.416381804261E+00 -0.418356740919E+00 -0.419885733930E+00 -0.420939914855E+00 -0.421489796911E+00
 -0.421505337183E+00 -0.420956006882E+00 -0.419810870061E+00 -0.418038671134E+00 -0.415607931549E+00
 -0.412487055986E+00 -0.408644448309E+00 -0.404048637600E+00 -0.398668414457E+00 -0.392472977713E+00
 -0.385432091726E+00 -0.377516254197E+00 -0.368696874514E+00 -0.358946462441E+00 -0.348238826841E+00
 -0.336549284073E+00 -0.323854875470E+00 -0.310134593145E+00 -0.295369613260E+00 -0.279543535619E+00
 -0.262642628271E+00 -0.244656075637E+00 -0.225576228442E+00 -0.205398853606E+00 -0.184123382102E+00
 -0.161753152763E+00 -0.138295650016E+00 -0.113762733666E+00 -0.881708590493E-01 -0.615412862298E-01
 -0.339002772135E-01 -0.527928057735E-02  0.242848968825E-01  0.547499318360E-01  0.860678401198E-01
  0.118184848017E+00  0.151041282285E+00  0.184571484855E+00  0.218703762764E+00  0.253360392141E+00
  0.288457710060E+00  0.323906354930E+00  0.359611760179E+00  0.395475065128E+00  0.431394649216E+00
  0.467268420336E+00  0.502996601292E+00  0.538483902449E+00  0.573638981098E+00  0.608369289807E+00
  0.642572204250E+00  0.676127326105E+00  0.708895448008E+00  0.740724782873E+00  0.771459709443E+00
  0.800947162849E+00  0.829039421795E+00  0.855594639128E+00  0.880476691152E+00  0.903555189558E+00
  0.924705910733E+00  0.943811616470E+00  0.960763162755E+00  0.975460777571E+00  0.987815390772E+00
  0.997749931366E+00  0.100520051785E+01  0.101011750545E+01  0.101246635076E+01  0.101222829934E+01
  0.100940087736E+01  0.100399819967E+01  0.996051092424E+00  0.985607042041E+00  0.972729971616E+00
  0.957499852221E+00  0.940012155846E+00  0.920377170264E+00  0.898719146896E+00  0.875175339994E+00
  0.849894886923E+00  0.823037580727E+00  0.794772507060E+00  0.765276555178E+00  0.734732813259E+00
  0.703328841892E+00  0.671254833845E+00  0.638701681514E+00  0.605858971521E+00  0.572912945031E+00
  0.540044471442E+00  0.507427092938E+00  0.475225202227E+00  0.443592414572E+00
 pseudo wavefunction
  0.827446970458E-04  0.854353481682E-04  0.882134925524E-04  0.910819752610E-04  0.940437338710E-04
  0.971018014820E-04  0.100259309822E-03  0.103519492456E-03  0.106885688096E-03  0.110361344020E-03
  0.113950019603E-03  0.117655389962E-03  0.121481249721E-03  0.125431516895E-03  0.129510236901E-03
  0.133721586706E-03  0.138069879099E-03  0.142559567112E-03  0.147195248577E-03  0.151981670838E-03
  0.156923735608E-03  0.162026503994E-03  0.167295201677E-03  0.172735224261E-03  0.178352142807E-03
  0.184151709529E-03  0.190139863689E-03  0.196322737682E-03  0.202706663308E-03  0.209298178266E-03
  0.216104032843E-03  0.223131196827E-03  0.230386866649E-03  0.237878472747E-03  0.245613687179E-03
  0.253600431482E-03  0.261846884777E-03  0.270361492153E-03  0.279152973310E-03  0.288230331493E-03
  0.297602862707E-03  0.307280165243E-03  0.317272149503E-03  0.327589048149E-03  0.338241426586E-03
  0.349240193777E-03  0.360596613420E-03  0.372322315477E-03  0.384429308090E-03  0.396929989873E-03
  0.409837162615E-03  0.423164044383E-03  0.436924283065E-03  0.451131970344E-03  0.465801656127E-03
  0.480948363450E-03  0.496587603858E-03  0.512735393294E-03  0.529408268497E-03  0.546623303940E-03
  0.564398129316E-03  0.582750947588E-03  0.601700553636E-03  0.621266353501E-03  0.641468384257E-03
  0.662327334536E-03  0.683864565709E-03  0.706102133766E-03  0.729062811900E-03  0.752770113832E-03
  0.777248317886E-03  0.802522491857E-03  0.828618518680E-03  0.855563122934E-03  0.883383898217E-03
  0.912109335394E-03  0.941768851782E-03  0.972392821273E-03  0.100401260544E-02  0.103666058564E-02
  0.107037019621E-02  0.110517595866E-02  0.114111351706E-02  0.117821967453E-02  0.121653243094E-02
  0.125609102178E-02  0.129693595842E-02  0.133910906950E-02  0.138265354386E-02  0.142761397470E-02
  0.147403640526E-02  0.152196837600E-02  0.157145897326E-02  0.162255887951E-02  0.167532042529E-02
  0.172979764278E-02  0.178604632113E-02  0.184412406359E-02  0.190409034650E-02  0.196600658020E-02
  0.202993617191E-02  0.209594459066E-02  0.216409943433E-02  0.223447049889E-02  0.230712984985E-02
  0.238215189607E-02  0.245961346593E-02  0.253959388605E-02  0.262217506246E-02  0.270744156453E-02
  0.279548071152E-02  0.288638266202E-02  0.298024050626E-02  0.307715036143E-02  0.317721147010E-02
  0.328052630183E-02  0.338720065813E-02  0.349734378073E-02  0.361106846347E-02  0.372849116781E-02
  0.384973214203E-02  0.397491554436E-02  0.410416957013E-02  0.423762658297E-02  0.437542325038E-02
  0.451770068362E-02  0.466460458219E-02  0.481628538297E-02  0.497289841427E-02  0.513460405480E-02
  0.530156789789E-02  0.547396092097E-02  0.565195966062E-02  0.583574639325E-02  0.602550932169E-02
  0.622144276782E-02  0.642374737149E-02  0.663263029582E-02  0.684830543926E-02  0.707099365448E-02
  0.730092297439E-02  0.753832884547E-02  0.778345436871E-02  0.803655054834E-02  0.829787654865E-02
  0.856769995913E-02  0.884629706822E-02  0.913395314593E-02  0.943096273565E-02  0.973762995539E-02
  0.100542688088E-01  0.103812035063E-01  0.107187687966E-01  0.110673103088E-01  0.114271849059E-01
  0.117987610495E-01  0.121824191766E-01  0.125785520878E-01  0.129875653494E-01  0.134098777071E-01
  0.138459215142E-01  0.142961431727E-01  0.147610035896E-01  0.152409786471E-01  0.157365596884E-01
  0.162482540193E-01  0.167765854254E-01  0.173220947065E-01  0.178853402284E-01  0.184668984914E-01
  0.190673647185E-01  0.196873534613E-01  0.203274992261E-01  0.209884571198E-01  0.216709035165E-01
  0.223755367458E-01  0.231030778024E-01  0.238542710790E-01  0.246298851225E-01  0.254307134141E-01
  0.262575751747E-01  0.271113161951E-01  0.279928096931E-01  0.289029571982E-01  0.298426894634E-01
  0.308129674062E-01  0.318147830795E-01  0.328491606727E-01  0.339171575442E-01  0.350198652868E-01
  0.361584108255E-01  0.373339575502E-01  0.385477064831E-01  0.398008974826E-01  0.410948104844E-01
  0.424307667798E-01  0.438101303348E-01  0.452343091477E-01  0.467047566489E-01  0.482229731427E-01
  0.497905072926E-01  0.514089576504E-01  0.530799742314E-01  0.548052601354E-01  0.565865732157E-01
  0.584257277960E-01  0.603245964373E-01  0.622851117550E-01  0.643092682873E-01  0.663991244158E-01
  0.685568043395E-01  0.707845001023E-01  0.730844736752E-01  0.754590590940E-01  0.779106646521E-01
  0.804417751501E-01  0.830549542015E-01  0.857528465949E-01  0.885381807134E-01  0.914137710094E-01
  0.943825205363E-01  0.974474235348E-01  0.100611568074E+00  0.103878138745E+00  0.107250419408E+00
  0.110731795985E+00  0.114325759304E+00  0.118035907984E+00  0.121865951362E+00  0.125819712461E+00
  0.129901130979E+00  0.134114266316E+00  0.138463300618E+00  0.142952541825E+00  0.147586426738E+00
  0.152369524073E+00  0.157306537493E+00  0.162402308629E+00  0.167661820040E+00  0.173090198131E+00
  0.178692715983E+00  0.184474796102E+00  0.190442013036E+00  0.196600095861E+00  0.202954930491E+00
  0.209512561791E+00  0.216279195452E+00  0.223261199587E+00  0.230465106017E+00  0.237897611180E+00
  0.245565576630E+00  0.253476029043E+00  0.261636159683E+00  0.270053323239E+00  0.278735035966E+00
  0.287688973011E+00  0.296922964858E+00  0.306444992742E+00  0.316263182930E+00  0.326385799721E+00
  0.336821237002E+00  0.347578008196E+00  0.358664734412E+00  0.370090130568E+00  0.381862989265E+00
  0.393992162149E+00  0.406486538458E+00  0.419355020440E+00  0.432606495287E+00  0.446249803176E+00
  0.460293700988E+00  0.474746821213E+00  0.489617625504E+00  0.504914352273E+00  0.520644957690E+00
  0.536817049323E+00  0.553437811641E+00  0.570513922474E+00  0.588051459436E+00  0.606055795255E+00
  0.624531480786E+00  0.643482114412E+00  0.662910196386E+00  0.682816966543E+00  0.703202223636E+00
  0.724064124445E+00  0.745398960587E+00  0.767200910818E+00  0.789461766436E+00  0.812170627220E+00
  0.835313565142E+00  0.858873252957E+00  0.882828554601E+00  0.907154074199E+00  0.931819660404E+00
  0.956789862736E+00  0.982023336636E+00  0.100747219404E+01  0.103308129654E+01  0.105878748863E+01
  0.108451876901E+01  0.111019339890E+01  0.113571894738E+01  0.116099127520E+01  0.118589346059E+01
  0.121029467297E+01  0.123404900361E+01  0.125699426595E+01  0.127895078316E+01  0.129972018599E+01
  0.131908425040E+01  0.133680381266E+01  0.135261780805E+01  0.136624248975E+01  0.137737089594E+01
  0.138567264520E+01  0.139079415385E+01  0.139235938228E+01  0.138997123091E+01  0.138321371870E+01
  0.137165508760E+01  0.135485198283E+01  0.133235486048E+01  0.130371476762E+01  0.126851366984E+01
  0.122654534224E+01  0.117773308895E+01  0.112203505500E+01  0.105944488082E+01  0.989992986029E+00
  0.913747670496E+00  0.830816029581E+00  0.000000000000E+00  0.000000000000E+00  0.000000000000E+00
  0.000000000000E+00  0.000000000000E+00  0.000000000000E+00  0.000000000000E+00  0.000000000000E+00
  0.000000000000E+00  0.000000000000E+00  0.000000000000E+00  0.000000000000E+00  0.000000000000E+00
  0.000000000000E+00  0.000000000000E+00  0.000000000000E+00  0.000000000000E+00
 ae wavefunction
 -0.475529646752E-03 -0.490978000514E-03 -0.506928088105E-03 -0.523396196437E-03 -0.540399140551E-03
 -0.557954280699E-03 -0.576079539989E-03 -0.594793422581E-03 -0.614115032487E-03 -0.634064092957E-03
 -0.654660966504E-03 -0.675926675570E-03 -0.697882923846E-03 -0.720552118290E-03 -0.743957391848E-03
 -0.768122626899E-03 -0.793072479465E-03 -0.818832404180E-03 -0.845428680081E-03 -0.872888437209E-03
 -0.901239684073E-03 -0.930511335974E-03 -0.960733244280E-03 -0.991936226586E-03 -0.102415209785E-02
 -0.105741370259E-02 -0.109175494798E-02 -0.112721083815E-02 -0.116381750943E-02 -0.120161226690E-02
 -0.124063362190E-02 -0.128092133090E-02 -0.132251643552E-02 -0.136546130384E-02 -0.140979967305E-02
 -0.145557669342E-02 -0.150283897370E-02 -0.155163462788E-02 -0.160201332360E-02 -0.165402633185E-02
 -0.170772657850E-02 -0.176316869724E-02 -0.182040908435E-02 -0.187950595509E-02 -0.194051940193E-02
 -0.200351145463E-02 -0.206854614207E-02 -0.213568955625E-02 -0.220500991806E-02 -0.227657764534E-02
 -0.235046542283E-02 -0.242674827450E-02 -0.250550363809E-02 -0.258681144191E-02 -0.267075418405E-02
 -0.275741701414E-02 -0.284688781754E-02 -0.293925730219E-02 -0.303461908811E-02 -0.313306979976E-02
 -0.323470916109E-02 -0.333964009368E-02 -0.344796881777E-02 -0.355980495647E-02 -0.367526164305E-02
 -0.379445563168E-02 -0.391750741137E-02 -0.404454132344E-02 -0.417568568258E-02 -0.431107290154E-02
 -0.445083961961E-02 -0.459512683483E-02 -0.474408004043E-02 -0.489784936512E-02 -0.505658971760E-02
 -0.522046093549E-02 -0.538962793856E-02 -0.556426088652E-02 -0.574453534138E-02 -0.593063243486E-02
 -0.612273904014E-02 -0.632104794930E-02 -0.652575805525E-02 -0.673707453943E-02 -0.695520906450E-02
 -0.718037997282E-02 -0.741281249050E-02 -0.765273893699E-02 -0.790039894113E-02 -0.815603966264E-02
 -0.841991601995E-02 -0.869229092489E-02 -0.897343552270E-02 -0.926362943994E-02 -0.956316103780E-02
 -0.987232767348E-02 -0.101914359674E-01 -0.105208020784E-01 -0.108607519858E-01 -0.112116217784E-01
 -0.115737579519E-01 -0.119475177130E-01 -0.123332692918E-01 -0.127313922615E-01 -0.131422778663E-01
 -0.135663293575E-01 -0.140039623373E-01 -0.144556051110E-01 -0.149216990468E-01 -0.154026989456E-01
 -0.158990734171E-01 -0.164113052655E-01 -0.169398918832E-01 -0.174853456534E-01 -0.180481943607E-01
 -0.186289816097E-01 -0.192282672530E-01 -0.198466278267E-01 -0.204846569941E-01 -0.211429659984E-01
 -0.218221841215E-01 -0.225229591529E-01 -0.232459578643E-01 -0.239918664920E-01 -0.247613912274E-01
 -0.255552587126E-01 -0.263742165435E-01 -0.272190337786E-01 -0.280905014530E-01 -0.289894330978E-01
 -0.299166652638E-01 -0.308730580485E-01 -0.318594956273E-01 -0.328768867856E-01 -0.339261654538E-01
 -0.350082912409E-01 -0.361242499689E-01 -0.372750542077E-01 -0.384617438010E-01 -0.396853863932E-01
 -0.409470779516E-01 -0.422479432737E-01 -0.435891364958E-01 -0.449718415823E-01 -0.463972728069E-01
 -0.478666752170E-01 -0.493813250808E-01 -0.509425303163E-01 -0.525516308932E-01 -0.542099992163E-01
 -0.559190404730E-01 -0.576801929539E-01 -0.594949283363E-01 -0.613647519254E-01 -0.632912028590E-01
 -0.652758542549E-01 -0.673203133136E-01 -0.694262213584E-01 -0.715952538145E-01 -0.738291201179E-01
 -0.761295635508E-01 -0.784983609934E-01 -0.809373225891E-01 -0.834482913136E-01 -0.860331424383E-01
 -0.886937828848E-01 -0.914321504566E-01 -0.942502129412E-01 -0.971499670728E-01 -0.100133437344E+00
 -0.103202674656E+00 -0.106359754797E+00 -0.109606776736E+00 -0.112945860709E+00 -0.116379146112E+00
 -0.119908789155E+00 -0.123536960265E+00 -0.127265841258E+00 -0.131097622216E+00 -0.135034498082E+00
 -0.139078664940E+00 -0.143232315976E+00 -0.147497637079E+00 -0.151876802085E+00 -0.156371967619E+00
 -0.160985267540E+00 -0.165718806929E+00 -0.170574655635E+00 -0.175554841332E+00 -0.180661342057E+00
 -0.185896078220E+00 -0.191260904051E+00 -0.196757598445E+00 -0.202387855196E+00 -0.208153272578E+00
 -0.214055342246E+00 -0.220095437431E+00 -0.226274800392E+00 -0.232594529101E+00 -0.239055563125E+00
 -0.245658668685E+00 -0.252404422839E+00 -0.259293196797E+00 -0.266325138302E+00 -0.273500153063E+00
 -0.280817885231E+00 -0.288277696864E+00 -0.295878646372E+00 -0.303619465933E+00 -0.311498537837E+00
 -0.319513869763E+00 -0.327663068973E+00 -0.335943315403E+00 -0.344351333695E+00 -0.352883364050E+00
 -0.361535132152E+00 -0.370301817842E+00 -0.379178022896E+00 -0.388157737700E+00 -0.397234306998E+00
 -0.406400394680E+00 -0.415647947739E+00 -0.424968159382E+00 -0.434351431494E+00 -0.443787336415E+00
 -0.453264578260E+00 -0.462770953830E+00 -0.472293313314E+00 -0.481817520864E+00 -0.491328415292E+00
 -0.500809771081E+00 -0.510244259849E+00 -0.519613412598E+00 -0.528897582958E+00 -0.538075911691E+00
 -0.547126292826E+00 -0.556025341666E+00 -0.564748365089E+00 -0.573269334494E+00 -0.581560861794E+00
 -0.589594178888E+00 -0.597339121076E+00 -0.604764114872E+00 -0.611836170764E+00 -0.618520881397E+00
 -0.624782425787E+00 -0.630583580082E+00 -0.635885735579E+00 -0.640648924437E+00 -0.644831853953E+00
 -0.648391949862E+00 -0.651285409440E+00 -0.653467265084E+00 -0.654891459046E+00 -0.655510930025E+00
 -0.655277712352E+00 -0.654143048432E+00 -0.652057515203E+00 -0.648971165231E+00 -0.644833683158E+00
 -0.639594558164E+00 -0.633203272982E+00 -0.625609510120E+00 -0.616763375751E+00 -0.606615641699E+00
 -0.595118005949E+00 -0.582223371828E+00 -0.567886146100E+00 -0.552062555880E+00 -0.534710984200E+00
 -0.515792323888E+00 -0.495270349115E+00 -0.473112103759E+00 -0.449288305505E+00 -0.423773764218E+00
 -0.396547812889E+00 -0.367594749137E+00 -0.336904284932E+00 -0.304472002018E+00 -0.270299810261E+00
 -0.234396406146E+00 -0.196777728621E+00 -0.157467409723E+00 -0.116497217717E+00 -0.739074909976E-01
 -0.297475614673E-01  0.159238333305E-01  0.630381497892E-01  0.111516650063E+00  0.161270027363E+00
  0.212198047537E+00  0.264189212561E+00  0.317120456183E+00  0.370856889753E+00  0.425251629753E+00
  0.480145763010E+00  0.535368548783E+00  0.590738027222E+00  0.646062296412E+00  0.701141782618E+00
  0.755772697508E+00  0.809751245784E+00  0.862876779341E+00  0.914950557124E+00  0.965767179748E+00
  0.101510028185E+01  0.106269037187E+01  0.110824343749E+01  0.115144103578E+01  0.119195419999E+01
  0.122945350635E+01  0.126361346525E+01  0.129411344765E+01  0.132063765630E+01  0.134287545886E+01
  0.136052246614E+01  0.137328230581E+01  0.138086892172E+01  0.138300920940E+01  0.137944580653E+01
  0.136993990900E+01  0.135427400318E+01  0.133225446259E+01  0.130371395494E+01  0.126851366984E+01
  0.122654534224E+01  0.117773308895E+01  0.112203505500E+01  0.105944488082E+01  0.989992986029E+00
  0.913747670496E+00  0.830816029581E+00  0.000000000000E+00  0.000000000000E+00  0.000000000000E+00
  0.000000000000E+00  0.000000000000E+00  0.000000000000E+00  0.000000000000E+00  0.000000000000E+00
  0.000000000000E+00  0.000000000000E+00  0.000000000000E+00  0.000000000000E+00  0.000000000000E+00
  0.000000000000E+00  0.000000000000E+00  0.000000000000E+00  0.000000000000E+00
 pseudo wavefunction
  0.326224217429E-08  0.347785158457E-08  0.370771113791E-08  0.395276266045E-08  0.421401022588E-08
  0.449252426950E-08  0.478944597427E-08  0.510599194666E-08  0.544345920157E-08  0.580323047674E-08
  0.618677989835E-08  0.659567902112E-08  0.703160326759E-08  0.749633879298E-08  0.799178980380E-08
  0.851998636013E-08  0.908309269358E-08  0.968341607502E-08  0.103234162684E-07  0.110057156093E-07
  0.117331097498E-07  0.125085791134E-07  0.133353011067E-07  0.142166631389E-07  0.151562765012E-07
  0.161579911635E-07  0.172259115497E-07  0.183644133546E-07  0.195781614734E-07  0.208721291153E-07
  0.222516181808E-07  0.237222809856E-07  0.252901434206E-07  0.269616296423E-07  0.287435883948E-07
  0.306433210723E-07  0.326686116356E-07  0.348277585060E-07  0.371296085673E-07  0.395835934150E-07
  0.421997680014E-07  0.449888518343E-07  0.479622728998E-07  0.511322144865E-07  0.545116651057E-07
  0.581144717105E-07  0.619553964321E-07  0.660501770661E-07  0.704155915566E-07  0.750695267418E-07
  0.800310516436E-07  0.853204956013E-07  0.909595315680E-07  0.969712649142E-07  0.103380328099E-06
  0.110212981599E-06  0.117497221509E-06  0.125262894250E-06  0.133541818865E-06  0.142367917394E-06
  0.151777353862E-06  0.161808682462E-06  0.172503005524E-06  0.183904141926E-06  0.196058806641E-06
  0.209016802145E-06  0.222831222473E-06  0.237558670773E-06  0.253259491224E-06  0.269998016296E-06
  0.287842830340E-06  0.306867050605E-06  0.327148626833E-06  0.348770660640E-06  0.371821746024E-06
  0.396396332362E-06  0.422595111408E-06  0.450525429867E-06  0.480301729229E-06  0.512046014686E-06
  0.545888355030E-06  0.581967415591E-06  0.620431026407E-06  0.661436787932E-06  0.705152716785E-06
  0.751757934181E-06  0.801443399846E-06  0.854412694460E-06  0.910882853790E-06  0.971085257970E-06
  0.103526657955E-05  0.110368979418E-05  0.117663525815E-05  0.125440185708E-05  0.133730823055E-05
  0.142569407771E-05  0.151992154909E-05  0.162037673052E-05  0.172747122498E-05  0.184164383910E-05
  0.196336238111E-05  0.209312557756E-05  0.223146511678E-05  0.237894782735E-05  0.253617800059E-05
  0.270379986648E-05  0.288250023328E-05  0.307301130155E-05  0.327611366418E-05  0.349263950467E-05
  0.372347600680E-05  0.396956898962E-05  0.423192678270E-05  0.451162435744E-05  0.480980773148E-05
  0.512769866411E-05  0.546659966206E-05  0.582789931607E-05  0.621307799013E-05  0.662371388675E-05
  0.706148951298E-05  0.752819857383E-05  0.802575332118E-05  0.855619238837E-05  0.912168914253E-05
  0.972456058887E-05  0.103672768634E-04  0.110524713527E-04  0.117829514833E-04  0.125617102227E-04
  0.133919383412E-04  0.142770374844E-04  0.152206341085E-04  0.162265943369E-04  0.172990397987E-04
  0.184423645134E-04  0.196612528917E-04  0.209606989248E-04  0.223460266427E-04  0.238229119231E-04
  0.253974057426E-04  0.270759589625E-04  0.288654487531E-04  0.307732067637E-04  0.328070491531E-04
  0.349753086045E-04  0.372868684550E-04  0.397511990794E-04  0.423783966778E-04  0.451792246253E-04
  0.481651575516E-04  0.513484283340E-04  0.547420781918E-04  0.583600100910E-04  0.622170456738E-04
  0.663289859490E-04  0.707126759887E-04  0.753860738972E-04  0.803683243329E-04  0.856798368846E-04
  0.913423696202E-04  0.973791181517E-04  0.103814810578E-03  0.110675808691E-03  0.117990215866E-03
  0.125787992065E-03  0.134101076427E-03  0.142963517953E-03  0.152411614798E-03  0.162484062764E-03
  0.173222113568E-03  0.184669743560E-03  0.196873833552E-03  0.209884360503E-03  0.223754601834E-03
  0.238541353205E-03  0.254305160633E-03  0.271110567900E-03  0.289026380245E-03  0.308125945414E-03
  0.328487453203E-03  0.350194254707E-03  0.373335202560E-03  0.398005013544E-03  0.424304655030E-03
  0.452341756795E-03  0.482231049893E-03  0.514094834321E-03  0.548063477373E-03  0.584275944670E-03
  0.622880365992E-03  0.664034638172E-03  0.707907067463E-03  0.754677053915E-03  0.804535820513E-03
  0.857687189928E-03  0.914348411985E-03  0.974751045093E-03  0.103914189512E-02  0.110778401537E-02
  0.118095777164E-02  0.125896197641E-02  0.134211509667E-02  0.143075654002E-02  0.152524802398E-02
  0.162597503388E-02  0.173334837471E-02  0.184780582306E-02  0.196981388528E-02  0.209986966844E-02
  0.223850287128E-02  0.238627790235E-02  0.254379613328E-02  0.271169829545E-02  0.289066702874E-02
  0.308142959155E-02  0.328476074186E-02  0.350148579943E-02  0.373248389986E-02  0.397869145192E-02
  0.424110580972E-02  0.452078917239E-02  0.481887272389E-02  0.513656102676E-02  0.547513668376E-02
  0.583596528207E-02  0.622050063535E-02  0.663029033942E-02  0.706698165777E-02  0.753232775381E-02
  0.802819428701E-02  0.855656639048E-02  0.911955604806E-02  0.971940988877E-02  0.103585174171E-01
  0.110394196971E-01  0.117648185082E-01  0.125375859907E-01  0.133607747973E-01  0.142376287672E-01
  0.151715941367E-01  0.161663313013E-01  0.172257271377E-01  0.183539078973E-01  0.195552526743E-01
  0.208344074515E-01  0.221962997208E-01  0.236461536693E-01  0.251895059177E-01  0.268322217877E-01
  0.285805120682E-01  0.304409502382E-01  0.324204900937E-01  0.345264837120E-01  0.367666996690E-01
  0.391493414101E-01  0.416830656519E-01  0.443770006695E-01  0.472407642963E-01  0.502844814337E-01
  0.535188008339E-01  0.569549108781E-01  0.606045540323E-01  0.644800396113E-01  0.685942544291E-01
  0.729606708540E-01  0.775933517194E-01  0.825069514687E-01  0.877167128341E-01  0.932384582588E-01
  0.990885751819E-01  0.105283994200E+00  0.111842159014E+00  0.118780986952E+00  0.126118818740E+00
  0.133874356072E+00  0.142066585393E+00  0.150714686192E+00  0.159837921977E+00  0.169455511984E+00
  0.179586481563E+00  0.190249489130E+00  0.201462627462E+00  0.213243197168E+00  0.225607450120E+00
  0.238570300794E+00  0.252145003592E+00  0.266342794539E+00  0.281172496094E+00  0.296640084424E+00
  0.312748219149E+00  0.329495736557E+00  0.346877108416E+00  0.364881869988E+00  0.383494022602E+00
  0.402691418262E+00  0.422445136228E+00  0.442718864423E+00  0.463468301774E+00  0.484640601294E+00
  0.506173877729E+00  0.527996807952E+00  0.550028356703E+00  0.572177664787E+00  0.594344140947E+00
  0.616417802173E+00  0.638279909520E+00  0.659803947178E+00  0.680856990545E+00  0.701301503732E+00
  0.720997596893E+00  0.739805757945E+00  0.757590050120E+00  0.774221734809E+00  0.789583237050E+00
  0.803572317203E+00  0.816106246325E+00  0.827125704001E+00  0.836598027310E+00  0.844519340600E+00
  0.850914993133E+00  0.855837633484E+00  0.859362167980E+00  0.861576802223E+00  0.862569372026E+00
  0.862408260605E+00  0.861117405663E+00  0.858640664005E+00  0.854867387851E+00  0.849757202378E+00
  0.843311700781E+00  0.835539377768E+00  0.826455704191E+00  0.816083149642E+00  0.804451197999E+00
  0.791596303238E+00  0.777561821644E+00  0.762397883349E+00  0.746161197473E+00  0.728914784115E+00
  0.710727602532E+00  0.691674071987E+00  0.671833460466E+00  0.651289148791E+00  0.630127768677E+00
  0.608438236978E+00  0.586310718520E+00  0.563835561810E+00  0.541102259321E+00
 ae wavefunction
  0.169241530655E-07  0.180334005753E-07  0.192028625737E-07  0.204364582802E-07  0.217383337481E-07
  0.231128769768E-07  0.245647339788E-07  0.260988258331E-07  0.277203666859E-07  0.294348831604E-07
  0.312482346991E-07  0.331666352982E-07  0.351966766426E-07  0.373453526841E-07  0.396200857464E-07
  0.420287544211E-07  0.445797230038E-07  0.472818732363E-07  0.501446375127E-07  0.531780347651E-07
  0.563927083131E-07  0.597999666079E-07  0.634118256191E-07  0.672410552628E-07  0.713012283509E-07
  0.756067714950E-07  0.801730219947E-07  0.850162855632E-07  0.901538998360E-07  0.956043005551E-07
  0.101387094170E-06  0.107523131626E-06  0.114034591756E-06  0.120945065304E-06  0.128279648175E-06
  0.136065038484E-06  0.144329640296E-06  0.153103676317E-06  0.162419304156E-06  0.172310743918E-06
  0.182814411488E-06  0.193969062465E-06  0.205815943585E-06  0.218398956635E-06  0.231764830572E-06
  0.245963304682E-06  0.261047329088E-06  0.277073269672E-06  0.294101134571E-06  0.312194809860E-06
  0.331422314907E-06  0.351856072485E-06  0.373573192918E-06  0.396655785987E-06  0.421191284846E-06
  0.447272794303E-06  0.474999463687E-06  0.504476880029E-06  0.535817493154E-06  0.569141060657E-06
  0.604575128809E-06  0.642255544218E-06  0.682326993776E-06  0.724943586856E-06  0.770269472810E-06
  0.818479497641E-06  0.869759902643E-06  0.924309078736E-06  0.982338355071E-06  0.104407285270E-05
  0.110975238321E-05  0.117963242021E-05  0.125398511845E-05  0.133310041125E-05  0.141728717622E-05
  0.150687447891E-05  0.160221289297E-05  0.170367591314E-05  0.181166146462E-05  0.192659348918E-05
  0.204892367255E-05  0.217913324319E-05  0.231773492530E-05  0.246527499886E-05  0.262233549842E-05
  0.278953656113E-05  0.296753892115E-05  0.315704657619E-05  0.335880962277E-05  0.357362727177E-05
  0.380235108546E-05  0.404588838449E-05  0.430520592555E-05  0.458133377949E-05  0.487536949418E-05
  0.518848250097E-05  0.552191883591E-05  0.587700615712E-05  0.625515907668E-05  0.665788486870E-05
  0.708678953401E-05  0.754358425729E-05  0.803009229153E-05  0.854825629678E-05  0.910014614683E-05
  0.968796725188E-05  0.103140694166E-04  0.109809562828E-04  0.116912953944E-04  0.124479288864E-04
  0.132538849029E-04  0.141123897462E-04  0.150268808075E-04  0.160010203440E-04  0.170387101471E-04
  0.181441071799E-04  0.193216401919E-04  0.205760274530E-04  0.219122956033E-04  0.233357997372E-04
  0.248522447920E-04  0.264677083012E-04  0.281886646407E-04  0.300220108197E-04  0.319750939433E-04
  0.340557404540E-04  0.362722872395E-04  0.386336147541E-04  0.411491822649E-04  0.438290653678E-04
  0.466839959040E-04  0.497254044402E-04  0.529654654648E-04  0.564171454876E-04  0.600942541958E-04
  0.640114989052E-04  0.681845424468E-04  0.726300647770E-04  0.773658284597E-04  0.824107484053E-04
  0.877849658925E-04  0.935099274326E-04  0.996084685042E-04  0.106104902645E-03  0.113025116169E-03
  0.120396668795E-03  0.128248900676E-03  0.136613046092E-03  0.145522354322E-03  0.155012218026E-03
  0.165120309683E-03  0.175886726538E-03  0.187354144530E-03  0.199567981827E-03  0.212576572443E-03
  0.226431350636E-03  0.241187046633E-03  0.256901894439E-03  0.273637852364E-03  0.291460837083E-03
  0.310440971951E-03  0.330652850473E-03  0.352175815736E-03  0.375094256773E-03  0.399497922800E-03
  0.425482256360E-03  0.453148746422E-03  0.482605302583E-03  0.513966651529E-03  0.547354757008E-03
  0.582899264604E-03  0.620737972658E-03  0.661017330808E-03  0.703892967485E-03  0.749530248191E-03
  0.798104865895E-03  0.849803465318E-03  0.904824303076E-03  0.963377945203E-03  0.102568800411E-02
  0.109199191708E-02  0.116254176808E-02  0.123760515525E-02  0.131746610621E-02  0.140242604339E-02
  0.149280480184E-02  0.158894170185E-02  0.169119667889E-02  0.179995147347E-02  0.191561088347E-02
  0.203860408159E-02  0.216938600067E-02  0.230843878970E-02  0.245627334309E-02  0.261343090628E-02
  0.278048476034E-02  0.295804198843E-02  0.314674532691E-02  0.334727510403E-02  0.356035126862E-02
  0.378673551189E-02  0.402723348441E-02  0.428269711129E-02  0.455402700742E-02  0.484217499511E-02
  0.514814672622E-02  0.547300441027E-02  0.581786964999E-02  0.618392638567E-02  0.657242394865E-02
  0.698468022467E-02  0.742208492666E-02  0.788610297624E-02  0.837827799347E-02  0.890023589042E-02
  0.945368857089E-02  0.100404377256E-01  0.106623787259E-01  0.113215046049E-01  0.120199101230E-01
  0.127597959087E-01  0.135434726663E-01  0.143733654390E-01  0.152520179194E-01  0.161820967877E-01
  0.171663960694E-01  0.182078414900E-01  0.193094948124E-01  0.204745581314E-01  0.217063781053E-01
  0.230084500993E-01  0.243844222089E-01  0.258380991362E-01  0.273734458848E-01  0.289945912340E-01
  0.307058309573E-01  0.325116307377E-01  0.344166287375E-01  0.364256377700E-01  0.385436470224E-01
  0.407758232711E-01  0.431275115303E-01  0.456042350670E-01  0.482116947181E-01  0.509557674326E-01
  0.538425039660E-01  0.568781256425E-01  0.600690201096E-01  0.634217359809E-01  0.669429762957E-01
  0.706395906823E-01  0.745185661360E-01  0.785870163091E-01  0.828521692088E-01  0.873213531951E-01
  0.920019811781E-01  0.969015329014E-01  0.102027535214E+00  0.107387540219E+00  0.112989101209E+00
  0.118839746288E+00  0.124946949594E+00  0.131318100054E+00  0.137960467600E+00  0.144881166805E+00
  0.152087117906E+00  0.159585005209E+00  0.167381232900E+00  0.175481878302E+00  0.183892642654E+00
  0.192618799529E+00  0.201665141038E+00  0.211035921966E+00  0.220734802068E+00  0.230764786723E+00
  0.241128166156E+00  0.251826453447E+00  0.262860321470E+00  0.274229538867E+00  0.285932905020E+00
  0.297968183896E+00  0.310332036413E+00  0.323019950830E+00  0.336026170448E+00  0.349343617803E+00
  0.362963814412E+00  0.376876795334E+00  0.391071017991E+00  0.405533265380E+00  0.420248544739E+00
  0.435199984124E+00  0.450368731445E+00  0.465733863715E+00  0.481272319593E+00  0.496958877824E+00
  0.512766221209E+00  0.528665155016E+00  0.544625093087E+00  0.560614975539E+00  0.576604795125E+00
  0.592567771677E+00  0.608482741661E+00  0.624335439871E+00  0.640116531440E+00  0.655814894604E+00
  0.671407832372E+00  0.686853621278E+00  0.702091450368E+00  0.717048308753E+00  0.731647470455E+00
  0.745813933970E+00  0.759476086762E+00  0.772565232764E+00  0.785014589535E+00  0.796758536954E+00
  0.807732312253E+00  0.817872100002E+00  0.827115409635E+00  0.835401633261E+00  0.842672687474E+00
  0.848873676032E+00  0.853953520989E+00  0.857865542746E+00  0.860567965153E+00  0.862024358633E+00
  0.862204011309E+00  0.861082243093E+00  0.858640664005E+00  0.854867387851E+00  0.849757202378E+00
  0.843311700781E+00  0.835539377768E+00  0.826455704191E+00  0.816083149642E+00  0.804451197999E+00
  0.791596303238E+00  0.777561821644E+00  0.762397883349E+00  0.746161197473E+00  0.728914784115E+00
  0.710727602532E+00  0.691674071987E+00  0.671833460466E+00  0.651289148791E+00  0.630127768677E+00
  0.608438236978E+00  0.586310718520E+00  0.563835561810E+00  0.541102259321E+00
 pseudo wavefunction
  0.596174096487E-08  0.635576672529E-08  0.677583459329E-08  0.722366575422E-08  0.770109515068E-08
  0.821007900104E-08  0.875270281484E-08  0.933118993793E-08  0.994791066241E-08  0.106053919387E-07
  0.113063277294E-07  0.120535900475E-07  0.128502407244E-07  0.136995439552E-07  0.146049796732E-07
  0.155702578092E-07  0.165993334921E-07  0.176964232547E-07  0.188660223106E-07  0.201129229728E-07
  0.214422342897E-07  0.228594029792E-07  0.243702357454E-07  0.259809230719E-07  0.276980645857E-07
  0.295286960992E-07  0.314803184385E-07  0.335609281773E-07  0.357790504017E-07  0.381437736415E-07
  0.406647871090E-07  0.433524203998E-07  0.462176858170E-07  0.492723234933E-07  0.525288494950E-07
  0.560006071049E-07  0.597018214952E-07  0.636476580141E-07  0.678542843234E-07  0.723389366448E-07
  0.771199903825E-07  0.822170354155E-07  0.876509563644E-07  0.934440181643E-07  0.996199572929E-07
  0.106204079028E-06  0.113223361135E-06  0.120706564401E-06  0.128684350485E-06  0.137189407547E-06
  0.146256584185E-06  0.155923032223E-06  0.166228358938E-06  0.177214789347E-06  0.188927339217E-06
  0.201413999515E-06  0.214725933042E-06  0.228917684073E-06  0.244047401841E-06  0.260177078801E-06
  0.277372804632E-06  0.295705037039E-06  0.315248890442E-06  0.336084443749E-06  0.358297068471E-06
  0.381977778523E-06  0.407223603141E-06  0.434137984452E-06  0.462831201314E-06  0.493420821170E-06
  0.526032181771E-06  0.560798904729E-06  0.597863443017E-06  0.637377664655E-06  0.679503474971E-06
  0.724413479985E-06  0.772291693646E-06  0.823334291804E-06  0.877750416018E-06  0.935763030485E-06
  0.997609835610E-06  0.106354424195E-05  0.113383640854E-05  0.120877434982E-05  0.128866511573E-05
  0.137383604986E-05  0.146463613060E-05  0.156143740112E-05  0.166463649371E-05  0.177465625495E-05
  0.189194747824E-05  0.201699075088E-05  0.215029842318E-05  0.229241670775E-05  0.244392791751E-05
  0.260545285162E-05  0.277765333910E-05  0.296123495056E-05  0.315694988916E-05  0.336560007260E-05
  0.358804041882E-05  0.382518234890E-05  0.407799752139E-05  0.434752181346E-05  0.463485956524E-05
  0.494118810455E-05  0.526776257076E-05  0.561592105740E-05  0.598709009467E-05  0.638279049428E-05
  0.680464358059E-05  0.725437783346E-05  0.773383597026E-05  0.824498249581E-05  0.878991175128E-05
  0.937085649513E-05  0.999019705098E-05  0.106504710601E-04  0.113543838786E-04  0.121048196613E-04
  0.129048531785E-04  0.137577624132E-04  0.146670419918E-04  0.156364175006E-04  0.166698607506E-04
  0.177716060487E-04  0.189461675463E-04  0.201983577329E-04  0.215333071520E-04  0.229564854205E-04
  0.244737236362E-04  0.260912382668E-04  0.278156566164E-04  0.296540439757E-04  0.316139325655E-04
  0.337033523934E-04  0.359308641481E-04  0.383055942684E-04  0.408372723280E-04  0.435362708917E-04
  0.464136480031E-04  0.494811924809E-04  0.527514722067E-04  0.562378856029E-04  0.599547165117E-04
  0.639171926988E-04  0.681415482222E-04  0.726450899196E-04  0.774462682889E-04  0.825647530491E-04
  0.880215136918E-04  0.938389053528E-04  0.100040760355E-03  0.106652485794E-03  0.113701167572E-03
  0.121215681295E-03  0.129226810500E-03  0.137767372674E-03  0.146872353608E-03  0.156579050609E-03
  0.166927225166E-03  0.177959265695E-03  0.189720361020E-03  0.202258685303E-03  0.215625595175E-03
  0.229875839871E-03  0.245067785227E-03  0.261263652447E-03  0.278529772621E-03  0.296936858017E-03
  0.316560291263E-03  0.337480433589E-03  0.359782953377E-03  0.383559176366E-03  0.408906458918E-03
  0.435928585877E-03  0.464736194612E-03  0.495447226984E-03  0.528187411054E-03  0.563090774476E-03
  0.600300191670E-03  0.639967966957E-03  0.682256456028E-03  0.727338728251E-03  0.775399272461E-03
  0.826634749101E-03  0.881254791703E-03  0.939482860950E-03  0.100155715472E-02  0.106773157773E-02
  0.113827677474E-02  0.121348123131E-02  0.129365244651E-02  0.137911818240E-02  0.147022779496E-02
  0.156735365192E-02  0.167089264303E-02  0.178126778871E-02  0.189892995327E-02  0.202435966962E-02
  0.215806908238E-02  0.230060401699E-02  0.245254618281E-02  0.261451551880E-02  0.278717269054E-02
  0.297122174835E-02  0.316741295650E-02  0.337654580414E-02  0.359947220942E-02  0.383709992855E-02
  0.409039618259E-02  0.436039151532E-02  0.464818389614E-02  0.495494308304E-02  0.528191526115E-02
  0.563042797352E-02  0.600189536128E-02  0.639782373165E-02  0.681981747268E-02  0.726958533502E-02
  0.774894710155E-02  0.825984066685E-02  0.880432954950E-02  0.938461086092E-02  0.100030237557E-01
  0.106620583887E-01  0.113643654066E-01  0.121127659995E-01  0.129102625423E-01  0.137600498543E-01
  0.146655271059E-01  0.156303104025E-01  0.166582460758E-01  0.177534247122E-01  0.189201959485E-01
  0.201631840641E-01  0.214873043974E-01  0.228977806146E-01  0.244001628553E-01  0.260003467781E-01
  0.277045935258E-01  0.295195506264E-01  0.314522738402E-01  0.335102499588E-01  0.357014205548E-01
  0.380342066701E-01  0.405175344245E-01  0.431608615106E-01  0.459742045307E-01  0.489681671119E-01
  0.521539687187E-01  0.555434740601E-01  0.591492229626E-01  0.629844605510E-01  0.670631675476E-01
  0.714000904587E-01  0.760107713779E-01  0.809115770834E-01  0.861197270514E-01  0.916533199456E-01
  0.975313580698E-01  0.103773769194E+00  0.110401425066E+00  0.117436155844E+00  0.124900759532E+00
  0.132819005430E+00  0.141215630433E+00  0.150116326884E+00  0.159547720519E+00  0.169537336866E+00
  0.180113554262E+00  0.191305541458E+00  0.203143177545E+00  0.215656951725E+00  0.228877840183E+00
  0.242837157074E+00  0.257566376396E+00  0.273096921245E+00  0.289459916708E+00  0.306685902424E+00
  0.324804500616E+00  0.343844035263E+00  0.363831097938E+00  0.384790055810E+00  0.406742497398E+00
  0.429706611805E+00  0.453696497564E+00  0.478721397740E+00  0.504784858740E+00  0.531883811367E+00
  0.560007574068E+00  0.589136780195E+00  0.619242233364E+00  0.650283697862E+00  0.682208634493E+00
  0.714950896346E+00  0.748429403779E+00  0.782546823468E+00  0.817188282690E+00  0.852220156980E+00
  0.887488977011E+00  0.922820508600E+00  0.958019068118E+00  0.992867143749E+00  0.102712540050E+01
  0.106053315304E+01  0.109280939427E+01  0.112365446786E+01  0.115275246866E+01  0.117977444396E+01
  0.120438244909E+01  0.122623448122E+01  0.124499027228E+01  0.126031786458E+01  0.127190081796E+01
  0.127944580514E+01  0.128269024090E+01  0.128140946397E+01  0.127542285117E+01  0.126459809994E+01
  0.124885278078E+01  0.122815215296E+01  0.120250218155E+01  0.117193672391E+01  0.113649801101E+01
  0.109620988069E+01  0.105104377950E+01  0.100087838801E+01  0.945506860500E+00  0.884825714567E+00
  0.818793055331E+00  0.747396802513E+00  0.000000000000E+00  0.000000000000E+00  0.000000000000E+00
  0.000000000000E+00  0.000000000000E+00  0.000000000000E+00  0.000000000000E+00  0.000000000000E+00
  0.000000000000E+00  0.000000000000E+00  0.000000000000E+00  0.000000000000E+00  0.000000000000E+00
  0.000000000000E+00  0.000000000000E+00  0.000000000000E+00  0.000000000000E+00
 ae wavefunction
  0.320651349280E-07  0.341667594592E-07  0.363824687123E-07  0.387196881998E-07  0.411862732033E-07
  0.437905374053E-07  0.465412833303E-07  0.494478346549E-07  0.525200703135E-07  0.557684612715E-07
  0.592041090678E-07  0.628387869934E-07  0.666849839237E-07  0.707559508854E-07  0.750657505169E-07
  0.796293099200E-07  0.844624764319E-07  0.895820777643E-07  0.950059849183E-07  0.100753180174E-06
  0.106843828801E-06  0.113299356257E-06  0.120142528491E-06  0.127397539913E-06  0.135090106131E-06
  0.143247560399E-06  0.151898961396E-06  0.161075202602E-06  0.170809132616E-06  0.181135680558E-06
  0.192091993618E-06  0.203717576861E-06  0.216054451224E-06  0.229147312709E-06  0.243043709059E-06
  0.257794223630E-06  0.273452671947E-06  0.290076315202E-06  0.307726080544E-06  0.326466802804E-06
  0.346367477039E-06  0.367501531219E-06  0.389947113134E-06  0.413787400938E-06  0.439110929268E-06
  0.466011936250E-06  0.494590743401E-06  0.524954143878E-06  0.557215831609E-06  0.591496847821E-06
  0.627926064861E-06  0.666640697944E-06  0.707786843522E-06  0.751520070227E-06  0.798006032577E-06
  0.847421130845E-06  0.899953217508E-06  0.955802342186E-06  0.101518155703E-05  0.107831775981E-05
  0.114545260505E-05  0.121684347342E-05  0.129276449480E-05  0.137350765126E-05  0.145938394706E-05
  0.155072465279E-05  0.164788262901E-05  0.175123375549E-05  0.186117842532E-05  0.197814316227E-05
  0.210258232348E-05  0.223497993994E-05  0.237585164748E-05  0.252574676590E-05  0.268525050770E-05
  0.285498633426E-05  0.303561845711E-05  0.322785451502E-05  0.343244843377E-05  0.365020343114E-05
  0.388197528984E-05  0.412867576541E-05  0.439127628657E-05  0.467081185815E-05  0.496838522712E-05
  0.528517133117E-05  0.562242202475E-05  0.598147113124E-05  0.636373981467E-05  0.677074229321E-05
  0.720409197200E-05  0.766550789836E-05  0.815682172951E-05  0.867998508026E-05  0.923707741006E-05
  0.983031437169E-05  0.104620567563E-04  0.111348199994E-04  0.118512842831E-04  0.126143053503E-04
  0.134269259958E-04  0.142923882996E-04  0.152141466708E-04  0.161958817517E-04  0.172415152086E-04
  0.183552255003E-04  0.195414646610E-04  0.208049761900E-04  0.221508141222E-04  0.235843632792E-04
  0.251113609020E-04  0.267379196694E-04  0.284705521967E-04  0.303161971387E-04  0.322822469797E-04
  0.343765776612E-04  0.366075800604E-04  0.389841935897E-04  0.415159419100E-04  0.442129709818E-04
  0.470860895896E-04  0.501468124497E-04  0.534074061485E-04  0.568809380055E-04  0.605813281049E-04
  0.645234046970E-04  0.687229631349E-04  0.731968286271E-04  0.779629230151E-04  0.830403358518E-04
  0.884494000263E-04  0.942117722481E-04  0.100350518675E-03  0.106890206044E-03  0.113856998588E-03
  0.121278761202E-03  0.129185169111E-03  0.137607824598E-03  0.146580381064E-03  0.156138675153E-03
  0.166320866991E-03  0.177167589601E-03  0.188722107544E-03  0.201030485703E-03  0.214141768736E-03
  0.228108171712E-03  0.242985282895E-03  0.258832279124E-03  0.275712154811E-03  0.293691965170E-03
  0.312843084687E-03  0.333241481728E-03  0.354968010152E-03  0.378108719118E-03  0.402755182001E-03
  0.429004845722E-03  0.456961401530E-03  0.486735178685E-03  0.518443562227E-03  0.552211436365E-03
  0.588171654886E-03  0.626465540252E-03  0.667243412943E-03  0.710665152853E-03  0.756900794548E-03
  0.806131158322E-03  0.858548519053E-03  0.914357315011E-03  0.973774898824E-03  0.103703233297E-02
  0.110437523220E-02  0.117606465554E-02  0.125237805047E-02  0.133361025204E-02  0.142007454020E-02
  0.151210375792E-02  0.161005149347E-02  0.171429333062E-02  0.182522816947E-02  0.194327962207E-02
  0.206889748642E-02  0.220255930270E-02  0.234477199563E-02  0.249607360752E-02  0.265703512579E-02
  0.282826240979E-02  0.301039822123E-02  0.320412436301E-02  0.341016393134E-02  0.362928368573E-02
  0.386229654229E-02  0.411006419508E-02  0.437349987083E-02  0.465357122230E-02  0.495130336545E-02
  0.526778206562E-02  0.560415707831E-02  0.596164564937E-02  0.634153618015E-02  0.674519206238E-02
  0.717405568802E-02  0.762965263835E-02  0.811359605745E-02  0.862759121368E-02  0.917344025334E-02
  0.975304714995E-02  0.103684228522E-01  0.110216906325E-01  0.117150916387E-01  0.124509906494E-01
  0.132318820327E-01  0.140603959092E-01  0.149393045145E-01  0.158715287630E-01  0.168601450001E-01
  0.179083919507E-01  0.190196778384E-01  0.201975876844E-01  0.214458907607E-01  0.227685481929E-01
  0.241697206916E-01  0.256537763978E-01  0.272252988171E-01  0.288890948239E-01  0.306502027009E-01
  0.325139001906E-01  0.344857125170E-01  0.365714203455E-01  0.387770676303E-01  0.411089693069E-01
  0.435737187772E-01  0.461781951229E-01  0.489295699915E-01  0.518353140798E-01  0.549032031408E-01
  0.581413234336E-01  0.615580765232E-01  0.651621833373E-01  0.689626873737E-01  0.729689569496E-01
  0.771906863679E-01  0.816378958785E-01  0.863209302893E-01  0.912504560904E-01  0.964374569265E-01
  0.101893227260E+00  0.107629364044E+00  0.113657756228E+00  0.119990571894E+00  0.126640242830E+00
  0.133619446313E+00  0.140941083898E+00  0.148618256964E+00  0.156664238788E+00  0.165092442903E+00
  0.173916387477E+00  0.183149655461E+00  0.192805850254E+00  0.202898546612E+00  0.213441236538E+00
  0.224447269925E+00  0.235929789667E+00  0.247901661033E+00  0.260375395085E+00  0.273363065921E+00
  0.286876221613E+00  0.300925788666E+00  0.315521969946E+00  0.330674135990E+00  0.346390709708E+00
  0.362679044548E+00  0.379545296197E+00  0.396994287963E+00  0.415029370064E+00  0.433652272985E+00
  0.452862955129E+00  0.472659444925E+00  0.493037677476E+00  0.513991325688E+00  0.535511625620E+00
  0.557587195539E+00  0.580203847851E+00  0.603344392707E+00  0.626988431797E+00  0.651112140570E+00
  0.675688037049E+00  0.700684735692E+00  0.726066685292E+00  0.751793891141E+00  0.777821623568E+00
  0.804100117553E+00  0.830574272111E+00  0.857183364047E+00  0.883860800463E+00  0.910533951666E+00
  0.937124136835E+00  0.963546887141E+00  0.989712689412E+00  0.101552850100E+01  0.104090034286E+01
  0.106573701966E+01  0.108995415947E+01  0.111347618467E+01  0.113623242365E+01  0.115814482818E+01
  0.117911048448E+01  0.119898861314E+01  0.121760084189E+01  0.123474364992E+01  0.125020336687E+01
  0.126376563663E+01  0.127521824738E+01  0.128435031690E+01  0.129095067111E+01  0.129480676653E+01
  0.129570447545E+01  0.129342863035E+01  0.128776413478E+01  0.127849745474E+01  0.126541833161E+01
  0.124832161843E+01  0.122700916572E+01  0.120129173879E+01  0.117099094676E+01  0.113594122037E+01
  0.109599184275E+01  0.105100907368E+01  0.100087838801E+01  0.945506860500E+00  0.884825714567E+00
  0.818793055331E+00  0.747396802513E+00  0.000000000000E+00  0.000000000000E+00  0.000000000000E+00
  0.000000000000E+00  0.000000000000E+00  0.000000000000E+00  0.000000000000E+00  0.000000000000E+00
  0.000000000000E+00  0.000000000000E+00  0.000000000000E+00  0.000000000000E+00  0.000000000000E+00
  0.000000000000E+00  0.000000000000E+00  0.000000000000E+00  0.000000000000E+00
 End of Dataset
  PAW_PBE P 06Sep2000                    
   5.00000000000000     
 parameters from PSCTR are:
   SHA256 =  df60c54a93efe35c9e85ae94c010c75e9f6960a95d5595d7cdba4096d109af88 P/POTCAR
   COPYR  = (c) Copyright 06Sep2000 Georg Kresse
   COPYR  = This file is part of the software VASP. Any use, copying, and all other rights are regulated by the VASP license agreement.
   COPYR  = If you do not have a valid VASP license, you may not use, copy or distribute this file.
   VRHFIN =P : s2p3
   LEXCH  = PE
   EATOM  =   176.0430 eV,   12.9388 Ry

   TITEL  = PAW_PBE P 06Sep2000
   LULTRA =        F    use ultrasoft PP ?
   IUNSCR =        1    unscreen: 0-lin 1-nonlin 2-no
   RPACOR =    1.500    partial core radius
   POMASS =   30.974; ZVAL   =    5.000    mass and valenz
   RCORE  =    1.900    outmost cutoff radius
   RWIGS  =    2.330; RWIGS  =    1.233    wigner-seitz radius (au A)
   ENMAX  =  255.040; ENMIN  =  191.280 eV
   ICORE  =        2    local potential
   LCOR   =        T    correct aug charges
   LPAW   =        T    paw PP
   EAUG   =  342.924
   DEXC   =    0.000
   RMAX   =    1.935    core radius for proj-oper
   RAUG   =    1.300    factor for augmentation sphere
   RDEP   =    1.931    radius for radial grids
   RDEPT  =    1.794    core radius for aug-charge
 
   Atomic configuration
    6 entries
     n  l   j            E        occ.
     1  0  0.50     -2084.0982   2.0000
     2  0  0.50      -173.9859   2.0000
     2  1  1.50      -124.4865   6.0000
     3  0  0.50       -13.9692   2.0000
     3  1  0.50        -5.5067   3.0000
     3  2  1.50        -5.4423   0.0000
   Description
     l       E           TYP  RCUT    TYP  RCUT
     0    -13.9691527     23  1.900
     0    -11.7794650     23  1.900
     1     -5.5066937     23  1.900
     1     -0.2556953     23  1.900
     2     -5.4423304     23  1.900
   Error from kinetic energy argument (eV)
   NDATA  =      100
   STEP   =   20.000   1.050
  32.8      30.5      29.4      27.3      26.3      24.3      22.4      21.5
  19.8      18.2      17.4      16.0      14.6      13.3      12.2      11.1
  10.1      9.17      8.33      7.19      6.52      5.90      5.08      4.59
  4.14      3.55      3.04      2.74      2.34      2.00      1.71      1.46
  1.24      1.06     0.898     0.763     0.614     0.522     0.419     0.356
 0.285     0.229     0.183     0.147     0.117     0.937E-01 0.745E-01 0.557E-01
 0.439E-01 0.324E-01 0.236E-01 0.182E-01 0.131E-01 0.934E-02 0.628E-02 0.462E-02
 0.356E-02 0.285E-02 0.252E-02 0.240E-02 0.235E-02 0.231E-02 0.221E-02 0.203E-02
 0.181E-02 0.153E-02 0.125E-02 0.100E-02 0.784E-03 0.658E-03 0.575E-03 0.534E-03
 0.511E-03 0.486E-03 0.444E-03 0.394E-03 0.331E-03 0.273E-03 0.224E-03 0.196E-03
 0.178E-03 0.168E-03 0.157E-03 0.139E-03 0.119E-03 0.993E-04 0.846E-04 0.751E-04
 0.696E-04 0.645E-04 0.570E-04 0.491E-04 0.411E-04 0.361E-04 0.331E-04 0.304E-04
 0.268E-04 0.231E-04 0.196E-04 0.177E-04
END of PSCTR-controll parameters
 local part
   98.2657514061040     
  0.20052013E+02  0.20050713E+02  0.20057150E+02  0.20067871E+02  0.20082863E+02
  0.20102108E+02  0.20125577E+02  0.20153231E+02  0.20185018E+02  0.20220871E+02
  0.20260709E+02  0.20304432E+02  0.20351928E+02  0.20403068E+02  0.20457706E+02
  0.20515687E+02  0.20576838E+02  0.20640979E+02  0.20707913E+02  0.20777435E+02
  0.20849325E+02  0.20923352E+02  0.20999271E+02  0.21076823E+02  0.21155734E+02
  0.21235718E+02  0.21316471E+02  0.21397676E+02  0.21479003E+02  0.21560108E+02
  0.21640635E+02  0.21720215E+02  0.21798471E+02  0.21875015E+02  0.21949450E+02
  0.22021370E+02  0.22090364E+02  0.22156013E+02  0.22217894E+02  0.22275580E+02
  0.22328641E+02  0.22376648E+02  0.22419170E+02  0.22455781E+02  0.22486058E+02
  0.22509587E+02  0.22525957E+02  0.22534772E+02  0.22535643E+02  0.22528197E+02
  0.22512076E+02  0.22486936E+02  0.22452454E+02  0.22408327E+02  0.22354273E+02
  0.22290033E+02  0.22215374E+02  0.22130091E+02  0.22034006E+02  0.21926970E+02
  0.21808866E+02  0.21679608E+02  0.21539144E+02  0.21387455E+02  0.21224555E+02
  0.21050493E+02  0.20865355E+02  0.20669260E+02  0.20462364E+02  0.20244857E+02
  0.20016966E+02  0.19778951E+02  0.19531107E+02  0.19273763E+02  0.19007278E+02
  0.18732045E+02  0.18448486E+02  0.18157050E+02  0.17858214E+02  0.17552481E+02
  0.17240376E+02  0.16922447E+02  0.16599260E+02  0.16271398E+02  0.15939460E+02
  0.15604057E+02  0.15265811E+02  0.14925351E+02  0.14583310E+02  0.14240326E+02
  0.13897034E+02  0.13554068E+02  0.13212058E+02  0.12871623E+02  0.12533375E+02
  0.12197911E+02  0.11865814E+02  0.11537649E+02  0.11213964E+02  0.10895281E+02
  0.10582101E+02  0.10274900E+02  0.99741256E+01  0.96801960E+01  0.93934999E+01
  0.91143941E+01  0.88432027E+01  0.85802161E+01  0.83256902E+01  0.80798461E+01
  0.78428693E+01  0.76149100E+01  0.73960824E+01  0.71864651E+01  0.69861017E+01
  0.67950009E+01  0.66131370E+01  0.64404513E+01  0.62768525E+01  0.61222184E+01
  0.59763965E+01  0.58392061E+01  0.57104393E+01  0.55898632E+01  0.54772210E+01
  0.53722343E+01  0.52746050E+01  0.51840169E+01  0.51001381E+01  0.50226231E+01
  0.49511145E+01  0.48852458E+01  0.48246428E+01  0.47689265E+01  0.47177147E+01
  0.46706242E+01  0.46272730E+01  0.45872822E+01  0.45502778E+01  0.45158926E+01
  0.44837679E+01  0.44535555E+01  0.44249187E+01  0.43975340E+01  0.43710925E+01
  0.43453013E+01  0.43198842E+01  0.42945826E+01  0.42691569E+01  0.42433867E+01
  0.42170713E+01  0.41900305E+01  0.41621044E+01  0.41331539E+01  0.41030602E+01
  0.40717254E+01  0.40390714E+01  0.40050404E+01  0.39695937E+01  0.39327112E+01
  0.38943913E+01  0.38546492E+01  0.38135168E+01  0.37710411E+01  0.37272837E+01
  0.36823192E+01  0.36362342E+01  0.35891264E+01  0.35411027E+01  0.34922788E+01
  0.34427769E+01  0.33927255E+01  0.33422574E+01  0.32915084E+01  0.32406167E+01
  0.31897210E+01  0.31389595E+01  0.30884691E+01  0.30383836E+01  0.29888333E+01
  0.29399439E+01  0.28918353E+01  0.28446210E+01  0.27984074E+01  0.27532929E+01
  0.27093675E+01  0.26667124E+01  0.26253993E+01  0.25854901E+01  0.25470370E+01
  0.25100818E+01  0.24746562E+01  0.24407818E+01  0.24084700E+01  0.23777223E+01
  0.23485304E+01  0.23208767E+01  0.22947346E+01  0.22700690E+01  0.22468367E+01
  0.22249869E+01  0.22044621E+01  0.21851984E+01  0.21671261E+01  0.21501708E+01
  0.21342538E+01  0.21192928E+01  0.21052027E+01  0.20918966E+01  0.20792861E+01
  0.20672822E+01  0.20557963E+01  0.20447403E+01  0.20340278E+01  0.20235746E+01
  0.20132990E+01  0.20031227E+01  0.19929712E+01  0.19827742E+01  0.19724662E+01
  0.19619866E+01  0.19512803E+01  0.19402979E+01  0.19289959E+01  0.19173367E+01
  0.19052891E+01  0.18928279E+01  0.18799343E+01  0.18665956E+01  0.18528052E+01
  0.18385622E+01  0.18238718E+01  0.18087443E+01  0.17931956E+01  0.17772461E+01
  0.17609212E+01  0.17442502E+01  0.17272663E+01  0.17100061E+01  0.16925092E+01
  0.16748176E+01  0.16569753E+01  0.16390281E+01  0.16210226E+01  0.16030063E+01
  0.15850267E+01  0.15671312E+01  0.15493665E+01  0.15317780E+01  0.15144099E+01
  0.14973044E+01  0.14805017E+01  0.14640391E+01  0.14479516E+01  0.14322707E+01
  0.14170250E+01  0.14022393E+01  0.13879350E+01  0.13741298E+01  0.13608374E+01
  0.13480679E+01  0.13358274E+01  0.13241183E+01  0.13129390E+01  0.13022845E+01
  0.12921461E+01  0.12825117E+01  0.12733661E+01  0.12646909E+01  0.12564650E+01
  0.12486646E+01  0.12412638E+01  0.12342345E+01  0.12275470E+01  0.12211700E+01
  0.12150713E+01  0.12092176E+01  0.12035752E+01  0.11981103E+01  0.11927889E+01
  0.11875777E+01  0.11824436E+01  0.11773549E+01  0.11722806E+01  0.11671915E+01
  0.11620598E+01  0.11568596E+01  0.11515670E+01  0.11461602E+01  0.11406200E+01
  0.11349293E+01  0.11290738E+01  0.11230414E+01  0.11168229E+01  0.11104118E+01
  0.11038039E+01  0.10969978E+01  0.10899947E+01  0.10827981E+01  0.10754140E+01
  0.10678504E+01  0.10601178E+01  0.10522284E+01  0.10441962E+01  0.10360371E+01
  0.10277681E+01  0.10194076E+01  0.10109750E+01  0.10024906E+01  0.99397528E+00
  0.98545023E+00  0.97693693E+00  0.96845684E+00  0.96003119E+00  0.95168079E+00
  0.94342587E+00  0.93528584E+00  0.92727919E+00  0.91942325E+00  0.91173412E+00
  0.90422650E+00  0.89691357E+00  0.88980694E+00  0.88291652E+00  0.87625047E+00
  0.86981518E+00  0.86361523E+00  0.85765336E+00  0.85193050E+00  0.84644577E+00
  0.84119654E+00  0.83617845E+00  0.83138552E+00  0.82681020E+00  0.82244347E+00
  0.81827496E+00  0.81429308E+00  0.81048513E+00  0.80683742E+00  0.80333546E+00
  0.79996407E+00  0.79670754E+00  0.79354979E+00  0.79047448E+00  0.78746522E+00
  0.78450568E+00  0.78157976E+00  0.77867172E+00  0.77576630E+00  0.77284890E+00
  0.76990565E+00  0.76692355E+00  0.76389059E+00  0.76079580E+00  0.75762933E+00
  0.75438257E+00  0.75104814E+00  0.74761996E+00  0.74409328E+00  0.74046470E+00
  0.73673216E+00  0.73289495E+00  0.72895367E+00  0.72491022E+00  0.72076775E+00
  0.71653060E+00  0.71220422E+00  0.70779514E+00  0.70331083E+00  0.69875965E+00
  0.69415071E+00  0.68949383E+00  0.68479936E+00  0.68007811E+00  0.67534127E+00
  0.67060021E+00  0.66586647E+00  0.66115154E+00  0.65646684E+00  0.65182357E+00
  0.64723260E+00  0.64270436E+00  0.63824879E+00  0.63387519E+00  0.62959219E+00
  0.62540765E+00  0.62132861E+00  0.61736122E+00  0.61351073E+00  0.60978140E+00
  0.60617651E+00  0.60269836E+00  0.59934820E+00  0.59612628E+00  0.59303187E+00
  0.59006321E+00  0.58721763E+00  0.58449152E+00  0.58188041E+00  0.57937902E+00
  0.57698132E+00  0.57468060E+00  0.57246952E+00  0.57034024E+00  0.56828445E+00
  0.56629346E+00  0.56435833E+00  0.56246988E+00  0.56061886E+00  0.55879597E+00
  0.55699198E+00  0.55519782E+00  0.55340465E+00  0.55160393E+00  0.54978753E+00
  0.54794776E+00  0.54607747E+00  0.54417008E+00  0.54221964E+00  0.54022089E+00
  0.53816928E+00  0.53606099E+00  0.53389299E+00  0.53166302E+00  0.52936962E+00
  0.52701212E+00  0.52459065E+00  0.52210611E+00  0.51956015E+00  0.51695516E+00
  0.51429422E+00  0.51158104E+00  0.50881997E+00  0.50601587E+00  0.50317413E+00
  0.50030054E+00  0.49740130E+00  0.49448288E+00  0.49155201E+00  0.48861561E+00
  0.48568068E+00  0.48275426E+00  0.47984336E+00  0.47695488E+00  0.47409558E+00
  0.47127194E+00  0.46849018E+00  0.46575616E+00  0.46307532E+00  0.46045269E+00
  0.45789276E+00  0.45539953E+00  0.45297643E+00  0.45062628E+00  0.44835133E+00
  0.44615318E+00  0.44403284E+00  0.44199064E+00  0.44002630E+00  0.43813894E+00
  0.43632704E+00  0.43458852E+00  0.43292074E+00  0.43132054E+00  0.42978426E+00
  0.42830781E+00  0.42688669E+00  0.42551604E+00  0.42419072E+00  0.42290531E+00
  0.42165421E+00  0.42043165E+00  0.41923179E+00  0.41804874E+00  0.41687665E+00
  0.41570974E+00  0.41454234E+00  0.41336900E+00  0.41218447E+00  0.41098380E+00
  0.40976235E+00  0.40851585E+00  0.40724043E+00  0.40593261E+00  0.40458942E+00
  0.40320830E+00  0.40178723E+00  0.40032467E+00  0.39881959E+00  0.39727149E+00
  0.39568037E+00  0.39404675E+00  0.39237163E+00  0.39065651E+00  0.38890332E+00
  0.38711445E+00  0.38529266E+00  0.38344110E+00  0.38156324E+00  0.37966287E+00
  0.37774401E+00  0.37581089E+00  0.37386794E+00  0.37191970E+00  0.36997078E+00
  0.36802584E+00  0.36608953E+00  0.36416644E+00  0.36226106E+00  0.36037774E+00
  0.35852063E+00  0.35669368E+00  0.35490056E+00  0.35314467E+00  0.35142907E+00
  0.34975649E+00  0.34812929E+00  0.34654945E+00  0.34501854E+00  0.34353772E+00
  0.34210774E+00  0.34072892E+00  0.33940116E+00  0.33812394E+00  0.33689634E+00
  0.33571705E+00  0.33458437E+00  0.33349624E+00  0.33245029E+00  0.33144383E+00
  0.33047390E+00  0.32953730E+00  0.32863060E+00  0.32775020E+00  0.32689236E+00
  0.32605324E+00  0.32522890E+00  0.32441541E+00  0.32360882E+00  0.32280522E+00
  0.32200080E+00  0.32119187E+00  0.32037486E+00  0.31954641E+00  0.31870338E+00
  0.31784284E+00  0.31696214E+00  0.31605893E+00  0.31513112E+00  0.31417699E+00
  0.31319511E+00  0.31218441E+00  0.31114418E+00  0.31007403E+00  0.30897395E+00
  0.30784426E+00  0.30668563E+00  0.30549905E+00  0.30428584E+00  0.30304759E+00
  0.30178619E+00  0.30050377E+00  0.29920271E+00  0.29788558E+00  0.29655513E+00
  0.29521427E+00  0.29386603E+00  0.29251352E+00  0.29115992E+00  0.28980843E+00
  0.28846226E+00  0.28712458E+00  0.28579848E+00  0.28448697E+00  0.28319292E+00
  0.28191906E+00  0.28066794E+00  0.27944191E+00  0.27824311E+00  0.27707343E+00
  0.27593451E+00  0.27482773E+00  0.27375420E+00  0.27271473E+00  0.27170984E+00
  0.27073977E+00  0.26980446E+00  0.26890355E+00  0.26803641E+00  0.26720214E+00
  0.26639954E+00  0.26562722E+00  0.26488351E+00  0.26416656E+00  0.26347429E+00
  0.26280450E+00  0.26215479E+00  0.26152266E+00  0.26090550E+00  0.26030065E+00
  0.25970536E+00  0.25911688E+00  0.25853247E+00  0.25794942E+00  0.25736506E+00
  0.25677682E+00  0.25618224E+00  0.25557897E+00  0.25496484E+00  0.25433782E+00
  0.25369607E+00  0.25303797E+00  0.25236210E+00  0.25166726E+00  0.25095250E+00
  0.25021710E+00  0.24946058E+00  0.24868274E+00  0.24788358E+00  0.24706339E+00
  0.24622268E+00  0.24536219E+00  0.24448289E+00  0.24358594E+00  0.24267273E+00
  0.24174480E+00  0.24080385E+00  0.23985175E+00  0.23889047E+00  0.23792210E+00
  0.23694881E+00  0.23597283E+00  0.23499643E+00  0.23402189E+00  0.23305150E+00
  0.23208752E+00  0.23113213E+00  0.23018746E+00  0.22925556E+00  0.22833834E+00
  0.22743760E+00  0.22655498E+00  0.22569197E+00  0.22484988E+00  0.22402985E+00
  0.22323282E+00  0.22245952E+00  0.22171048E+00  0.22098604E+00  0.22028629E+00
  0.21961113E+00  0.21896025E+00  0.21833314E+00  0.21772907E+00  0.21714716E+00
  0.21658632E+00  0.21604530E+00  0.21552272E+00  0.21501705E+00  0.21452663E+00
  0.21404971E+00  0.21358445E+00  0.21312893E+00  0.21268120E+00  0.21223927E+00
  0.21180113E+00  0.21136478E+00  0.21092828E+00  0.21048969E+00  0.21004717E+00
  0.20959896E+00  0.20914339E+00  0.20867890E+00  0.20820407E+00  0.20771762E+00
  0.20721842E+00  0.20670549E+00  0.20617803E+00  0.20563540E+00  0.20507717E+00
  0.20450305E+00  0.20391297E+00  0.20330703E+00  0.20268552E+00  0.20204887E+00
  0.20139773E+00  0.20073289E+00  0.20005527E+00  0.19936596E+00  0.19866618E+00
  0.19795724E+00  0.19724056E+00  0.19651768E+00  0.19579017E+00  0.19505968E+00
  0.19432789E+00  0.19359651E+00  0.19286726E+00  0.19214184E+00  0.19142191E+00
  0.19070912E+00  0.19000503E+00  0.18931113E+00  0.18862883E+00  0.18795942E+00
  0.18730409E+00  0.18666390E+00  0.18603979E+00  0.18543254E+00  0.18484279E+00
  0.18427102E+00  0.18371756E+00  0.18318259E+00  0.18266610E+00  0.18216794E+00
  0.18168780E+00  0.18122522E+00  0.18077958E+00  0.18035014E+00  0.17993600E+00
  0.17953617E+00  0.17914953E+00  0.17877487E+00  0.17841088E+00  0.17805620E+00
  0.17770939E+00  0.17736896E+00  0.17703340E+00  0.17670117E+00  0.17637075E+00
  0.17604061E+00  0.17570927E+00  0.17537526E+00  0.17503720E+00  0.17469377E+00
  0.17434372E+00  0.17398590E+00  0.17361928E+00  0.17324291E+00  0.17285598E+00
  0.17245781E+00  0.17204783E+00  0.17162564E+00  0.17119094E+00  0.17074362E+00
  0.17028367E+00  0.16981124E+00  0.16932662E+00  0.16883024E+00  0.16832265E+00
  0.16780452E+00  0.16727664E+00  0.16673991E+00  0.16619533E+00  0.16564396E+00
  0.16508697E+00  0.16452556E+00  0.16396102E+00  0.16339465E+00  0.16282777E+00
  0.16226175E+00  0.16169793E+00  0.16113764E+00  0.16058218E+00  0.16003282E+00
  0.15949077E+00  0.15895718E+00  0.15843312E+00  0.15791958E+00  0.15741745E+00
  0.15692753E+00  0.15645051E+00  0.15598695E+00  0.15553732E+00  0.15510194E+00
  0.15468101E+00  0.15427463E+00  0.15388273E+00  0.15350514E+00  0.15314157E+00
  0.15279159E+00  0.15245466E+00  0.15213016E+00  0.15181734E+00  0.15151535E+00
  0.15122329E+00  0.15094014E+00  0.15066486E+00  0.15039633E+00  0.15013338E+00
  0.14987483E+00  0.14961945E+00  0.14936602E+00  0.14911332E+00  0.14886014E+00
  0.14860530E+00  0.14834767E+00  0.14808613E+00  0.14781968E+00  0.14754732E+00
  0.14726819E+00  0.14698148E+00  0.14668647E+00  0.14638254E+00  0.14606920E+00
  0.14574604E+00  0.14541275E+00  0.14506917E+00  0.14471523E+00  0.14435098E+00
  0.14397657E+00  0.14359229E+00  0.14319852E+00  0.14279573E+00  0.14238450E+00
  0.14196552E+00  0.14153952E+00  0.14110733E+00  0.14066986E+00  0.14022804E+00
  0.13978288E+00  0.13933542E+00  0.13888672E+00  0.13843787E+00  0.13798996E+00
  0.13754408E+00  0.13710129E+00  0.13666265E+00  0.13622917E+00  0.13580181E+00
  0.13538148E+00  0.13496904E+00  0.13456525E+00  0.13417082E+00  0.13378637E+00
  0.13341242E+00  0.13304941E+00  0.13269768E+00  0.13235747E+00  0.13202890E+00
  0.13171202E+00  0.13140675E+00  0.13111292E+00  0.13083026E+00  0.13055839E+00
  0.13029686E+00  0.13004512E+00  0.12980255E+00  0.12956845E+00  0.12934204E+00
  0.12912251E+00  0.12890897E+00  0.12870052E+00  0.12849619E+00  0.12829501E+00
  0.12809600E+00  0.12789814E+00  0.12770046E+00  0.12750198E+00  0.12730174E+00
  0.12709882E+00  0.12689236E+00  0.12668152E+00  0.12646554E+00  0.12624371E+00
  0.12601541E+00  0.12578007E+00  0.12553722E+00  0.12528648E+00  0.12502753E+00
  0.12476016E+00  0.12448427E+00  0.12419982E+00  0.12390687E+00  0.12360560E+00
  0.12329625E+00  0.12297916E+00  0.12265475E+00  0.12232350E+00  0.12198600E+00
  0.12164287E+00  0.12129480E+00  0.12094255E+00  0.12058689E+00  0.12022867E+00
  0.11986873E+00  0.11950796E+00  0.11914724E+00  0.11878747E+00  0.11842954E+00
  0.11807432E+00  0.11772266E+00  0.11737538E+00  0.11703325E+00  0.11669701E+00
  0.11636734E+00  0.11604485E+00  0.11573011E+00  0.11542360E+00  0.11512572E+00
  0.11483681E+00  0.11455714E+00  0.11428685E+00  0.11402605E+00  0.11377474E+00
  0.11353282E+00  0.11330014E+00  0.11307645E+00  0.11286142E+00  0.11265465E+00
  0.11245568E+00  0.11226397E+00  0.11207892E+00  0.11189990E+00  0.11172621E+00
  0.11155712E+00  0.11139187E+00  0.11122967E+00  0.11106970E+00  0.11091116E+00
  0.11075321E+00  0.11059506E+00  0.11043590E+00  0.11027496E+00  0.11011149E+00
  0.10994478E+00  0.10977417E+00  0.10959904E+00  0.10941883E+00  0.10923305E+00
  0.10904125E+00  0.10884306E+00  0.10863819E+00  0.10842642E+00  0.10820759E+00
  0.10798163E+00  0.10774855E+00  0.10750843E+00  0.10726143E+00  0.10700778E+00
  0.10674779E+00  0.10648182E+00  0.10621030E+00  0.10593373E+00  0.10565265E+00
  0.10536765E+00  0.10507935E+00  0.10478843E+00  0.10449559E+00  0.10420154E+00
  0.10390701E+00  0.10361275E+00  0.10331950E+00  0.10302799E+00  0.10273894E+00
  0.10245306E+00  0.10217100E+00  0.10189341E+00  0.10162088E+00  0.10135396E+00
  0.10109314E+00  0.10083886E+00  0.10059152E+00  0.10035143E+00  0.10011884E+00
  0.99893936E-01  0.99676845E-01  0.99467609E-01  0.99266203E-01  0.99072534E-01
  0.98886436E-01  0.98707680E-01  0.98535971E-01  0.98370953E-01  0.98212215E-01
  0.98059292E-01  0.97911672E-01  0.97768800E-01  0.97630084E-01  0.97494900E-01
  0.97362601E-01  0.97232516E-01  0.97103966E-01  0.96976264E-01  0.96848724E-01
  0.96720667E-01  0.96591431E-01  0.96460372E-01  0.96326877E-01  0.96190362E-01
  0.96050285E-01  0.95906143E-01  0.95757486E-01  0.95603910E-01  0.95445069E-01
  0.95280676E-01  0.95110502E-01  0.94934383E-01  0.94752218E-01  0.94563972E-01
 gradient corrections used for XC
           5
 core charge-density (partial)
  0.80656469E+00  0.80628811E+00  0.80545892E+00  0.80407873E+00  0.80215024E+00
  0.79967720E+00  0.79666443E+00  0.79311776E+00  0.78904407E+00  0.78445120E+00
  0.77934801E+00  0.77374425E+00  0.76765063E+00  0.76107870E+00  0.75404087E+00
  0.74655036E+00  0.73862114E+00  0.73026791E+00  0.72150603E+00  0.71235152E+00
  0.70282095E+00  0.69293144E+00  0.68270057E+00  0.67214639E+00  0.66128730E+00
  0.65014203E+00  0.63872960E+00  0.62706924E+00  0.61518035E+00  0.60308246E+00
  0.59079517E+00  0.57833807E+00  0.56573076E+00  0.55299274E+00  0.54014337E+00
  0.52720186E+00  0.51418718E+00  0.50111807E+00  0.48801294E+00  0.47488989E+00
  0.46176660E+00  0.44866040E+00  0.43558811E+00  0.42256613E+00  0.40961032E+00
  0.39673603E+00  0.38395804E+00  0.37129059E+00  0.35874728E+00  0.34634113E+00
  0.33408453E+00  0.32198922E+00  0.31006630E+00  0.29832623E+00  0.28677877E+00
  0.27543306E+00  0.26429754E+00  0.25337999E+00  0.24268755E+00  0.23222668E+00
  0.22200319E+00  0.21202223E+00  0.20228835E+00  0.19280545E+00  0.18357682E+00
  0.17460515E+00  0.16589255E+00  0.15744056E+00  0.14925017E+00  0.14132184E+00
  0.13365550E+00  0.12625060E+00  0.11910611E+00  0.11222055E+00  0.10559200E+00
  0.99218134E-01  0.93096232E-01  0.87223210E-01  0.81595639E-01  0.76209765E-01
  0.71061537E-01  0.66146623E-01  0.61460436E-01  0.56998156E-01  0.52754748E-01
  0.48724989E-01  0.44903482E-01  0.41284683E-01  0.37862918E-01  0.34632400E-01
  0.31587254E-01  0.28721529E-01  0.26029220E-01  0.23504284E-01  0.21140654E-01
  0.18932258E-01  0.16873034E-01  0.14956940E-01  0.13177974E-01  0.11530179E-01
  0.10007664E-01  0.86046077E-02  0.73152724E-02  0.61340140E-02  0.50552903E-02
  0.40736696E-02  0.31838381E-02  0.23806074E-02  0.16589199E-02  0.10138551E-02
  0.44063394E-03 -0.65376722E-04 -0.50866056E-03 -0.89354879E-03 -0.12242178E-02
 -0.15046873E-02 -0.17388191E-02 -0.19303161E-02 -0.20827224E-02 -0.21994232E-02
 -0.22836455E-02 -0.23384592E-02 -0.23667786E-02 -0.23713643E-02 -0.23548251E-02
 -0.23196209E-02 -0.22680651E-02 -0.22023280E-02 -0.21244399E-02 -0.20362949E-02
 -0.19396543E-02 -0.18361509E-02 -0.17272928E-02 -0.16144678E-02 -0.14989477E-02
 -0.13818926E-02 -0.12643557E-02 -0.11472876E-02 -0.10315408E-02 -0.91787500E-03
 -0.80696080E-03 -0.69938499E-03 -0.59565491E-03 -0.49620303E-03 -0.40139146E-03
 -0.31151642E-03 -0.22681259E-03 -0.14745740E-03 -0.73575230E-04 -0.52415152E-05
  0.57513304E-04  0.11469990E-03  0.16636631E-03  0.21259436E-03  0.25349614E-03
  0.28921070E-03  0.31990085E-03  0.34575010E-03  0.36695976E-03  0.38374614E-03
  0.39633803E-03  0.40497414E-03  0.40990084E-03  0.41136998E-03  0.40963687E-03
  0.40495838E-03  0.39759126E-03  0.38779047E-03  0.37580777E-03  0.36189040E-03
  0.34627984E-03  0.32921076E-03  0.31091007E-03  0.29159611E-03  0.27147786E-03
  0.25075442E-03  0.22961441E-03  0.20823563E-03  0.18678468E-03  0.16541679E-03
  0.14427562E-03  0.12349322E-03  0.10319000E-03  0.83474853E-04  0.64445230E-04
  0.46187359E-04  0.28776479E-04  0.12277127E-04 -0.32565332E-05 -0.17780339E-04
 -0.31259729E-04 -0.43669316E-04 -0.54992426E-04 -0.65220628E-04 -0.74353240E-04
 -0.82396822E-04 -0.89364666E-04 -0.95276273E-04 -0.10015683E-03 -0.10403670E-03
 -0.10695087E-03 -0.10893848E-03 -0.11004229E-03 -0.11030821E-03 -0.10978477E-03
 -0.10852271E-03 -0.10657451E-03 -0.10399393E-03 -0.10083564E-03 -0.97154785E-04
 -0.93006637E-04 -0.88446237E-04 -0.83528066E-04 -0.78305740E-04 -0.72831726E-04
 -0.67157083E-04 -0.61331231E-04 -0.55401734E-04 -0.49414114E-04 -0.43411686E-04
 -0.37435415E-04 -0.31523794E-04 -0.25712748E-04 -0.20035554E-04 -0.14522781E-04
 -0.92022563E-05 -0.40990411E-05  0.76457029E-06  0.53690365E-05  0.96975399E-05
  0.13735942E-04  0.17472727E-04  0.20898930E-04  0.24008054E-04  0.26795985E-04
  0.29260881E-04  0.31403071E-04  0.33224934E-04  0.34730778E-04  0.35926713E-04
  0.36820519E-04  0.37421510E-04  0.37740400E-04  0.37789163E-04  0.37580894E-04
  0.37129672E-04  0.36450424E-04  0.35558787E-04  0.34470979E-04  0.33203668E-04
  0.31773846E-04  0.30198709E-04  0.28495539E-04  0.26681596E-04  0.24774009E-04
  0.22789680E-04  0.20745186E-04  0.18656698E-04  0.16539895E-04  0.14409895E-04
  0.12281187E-04  0.10167570E-04  0.80821014E-05  0.60370533E-05  0.40438707E-05
  0.21131409E-05  0.25456787E-06 -0.15230467E-05 -0.32118160E-05 -0.48047746E-05
 -0.62958796E-05 -0.76800053E-05 -0.89529335E-05 -0.10111338E-04 -0.11152766E-04
 -0.12075613E-04 -0.12879094E-04 -0.13563215E-04 -0.14128732E-04 -0.14577121E-04
 -0.14910530E-04 -0.15131740E-04 -0.15244122E-04 -0.15251585E-04 -0.15158532E-04
 -0.14969812E-04 -0.14690672E-04 -0.14326701E-04 -0.13883791E-04 -0.13368079E-04
 -0.12785904E-04 -0.12143757E-04 -0.11448236E-04 -0.10706000E-04 -0.99237273E-05
 -0.91080706E-05 -0.82656194E-05 -0.74028613E-05 -0.65261467E-05 -0.56416549E-05
 -0.47553634E-05 -0.38730192E-05 -0.30001130E-05 -0.21418560E-05 -0.13031585E-05
 -0.48861248E-06  0.29752414E-06  0.10513403E-05  0.17692822E-05  0.24481604E-05
  0.30851559E-05  0.36778219E-05  0.42240849E-05  0.47222427E-05  0.51709601E-05
  0.55692632E-05  0.59165308E-05  0.62124855E-05  0.64571813E-05  0.66509911E-05
  0.67945918E-05  0.68889491E-05  0.69353000E-05  0.69351354E-05  0.68901810E-05
  0.68023782E-05  0.66738639E-05  0.65069501E-05  0.63041032E-05  0.60679232E-05
  0.58011227E-05  0.55065061E-05  0.51869491E-05  0.48453784E-05  0.44847518E-05
  0.41080391E-05  0.37182032E-05  0.33181825E-05  0.29108734E-05  0.24991143E-05
  0.20856702E-05  0.16732184E-05  0.12643351E-05  0.86148345E-06  0.46700202E-06
  0.83095312E-07 -0.28817527E-06 -0.64489896E-06 -0.98532210E-06 -0.13078534E-05
 -0.16110679E-05 -0.18937103E-05 -0.21546964E-05 -0.23931138E-05 -0.26082221E-05
 -0.27994510E-05 -0.29663980E-05 -0.31088257E-05 -0.32266570E-05 -0.33199704E-05
 -0.33889942E-05 -0.34341002E-05 -0.34557965E-05 -0.34547197E-05 -0.34316268E-05
 -0.33873868E-05 -0.33229711E-05 -0.32394446E-05 -0.31379560E-05 -0.30197279E-05
 -0.28860469E-05 -0.27382538E-05 -0.25777334E-05 -0.24059047E-05 -0.22242109E-05
 -0.20341101E-05 -0.18370658E-05 -0.16345375E-05 -0.14279723E-05 -0.12187960E-05
 -0.10084054E-05 -0.79816065E-06 -0.58937781E-06 -0.38332247E-06 -0.18120348E-06
  0.15832636E-07  0.20670674E-06  0.39041158E-06  0.56601568E-06  0.73266671E-06
  0.88959420E-06  0.10361118E-05  0.11716186E-05  0.12956008E-05  0.14076313E-05
  0.15073703E-05  0.15945646E-05  0.16690462E-05  0.17307311E-05  0.17796171E-05
  0.18157812E-05  0.18393770E-05  0.18506312E-05  0.18498402E-05  0.18373662E-05
  0.18136327E-05  0.17791206E-05  0.17343630E-05  0.16799409E-05  0.16164778E-05
  0.15446348E-05  0.14651056E-05  0.13786110E-05  0.12858940E-05  0.11877143E-05
  0.10848433E-05  0.97805935E-06  0.86814213E-06  0.75586844E-06  0.64200722E-06
  0.52731517E-06  0.41253249E-06  0.29837877E-06  0.18554920E-06  0.74711066E-07
 -0.33499614E-07 -0.13848104E-06 -0.23966834E-06 -0.33653601E-06 -0.42860000E-06
 -0.51541948E-06 -0.59659836E-06 -0.67178646E-06 -0.74068032E-06 -0.80302381E-06
 -0.85860834E-06 -0.90727283E-06 -0.94890337E-06 -0.98343265E-06 -0.10108390E-05
 -0.10311454E-05 -0.10444180E-05 -0.10507646E-05 -0.10503328E-05 -0.10433080E-05
 -0.10299113E-05 -0.10103973E-05 -0.98505131E-06 -0.95418708E-06 -0.91814395E-06
 -0.87728416E-06 -0.83199000E-06 -0.78266093E-06 -0.72971071E-06 -0.67356444E-06
 -0.61465573E-06 -0.55342374E-06 -0.49031044E-06 -0.42575775E-06 -0.36020491E-06
 -0.29408581E-06 -0.22782653E-06 -0.16184289E-06 -0.96538237E-07 -0.32301232E-07
  0.30496082E-07  0.91500153E-07  0.15037759E-06  0.20681670E-06  0.26052878E-06
  0.31124938E-06  0.35873920E-06  0.40278498E-06  0.44320010E-06  0.47982506E-06
  0.51252775E-06  0.54120357E-06  0.56577537E-06  0.58619325E-06  0.60243413E-06
  0.61450127E-06  0.62242354E-06  0.62625464E-06  0.62607214E-06  0.62197639E-06
  0.61408937E-06  0.60255339E-06  0.58752972E-06  0.56919715E-06  0.54775044E-06
  0.52339874E-06  0.49636399E-06  0.46687920E-06  0.43518682E-06  0.40153697E-06
  0.36618574E-06  0.32939351E-06  0.29142320E-06  0.25253868E-06  0.21300305E-06
  0.17307712E-06  0.13301783E-06  0.93076785E-07  0.53498862E-07  0.14520854E-07
 -0.23629774E-07 -0.60736052E-07 -0.96592580E-07 -0.13100651E-06 -0.16379843E-06
 -0.19480313E-06 -0.22387028E-06 -0.25086502E-06 -0.27566838E-06 -0.29817767E-06
 -0.31830670E-06 -0.33598593E-06 -0.35116252E-06 -0.36380024E-06 -0.37387933E-06
 -0.38139620E-06 -0.38636314E-06 -0.38880781E-06 -0.38877276E-06 -0.38631482E-06
 -0.38150442E-06 -0.37442485E-06 -0.36517144E-06 -0.35385074E-06 -0.34057959E-06
 -0.32548416E-06 -0.30869899E-06 -0.29036599E-06 -0.27063337E-06 -0.24965461E-06
 -0.22758740E-06 -0.20459262E-06 -0.18083322E-06 -0.15647322E-06 -0.13167669E-06
 -0.10660672E-06 -0.81424469E-07 -0.56288203E-07 -0.31352415E-07 -0.67669512E-08
  0.17323798E-07  0.40781658E-07  0.63475381E-07  0.85281288E-07  0.10608386E-06
  0.12577628E-06  0.14426087E-06  0.16144950E-06  0.17726391E-06  0.19163600E-06
  0.20450799E-06  0.21583258E-06  0.22557298E-06  0.23370294E-06  0.24020666E-06
  0.24507867E-06  0.24832365E-06  0.24995617E-06  0.25000039E-06  0.24848972E-06
  0.24546642E-06  0.24098112E-06  0.23509239E-06  0.22786615E-06  0.21937518E-06
  0.20969846E-06  0.19892062E-06  0.18713126E-06  0.17442432E-06  0.16089741E-06
  0.14665115E-06  0.13178846E-06  0.11641392E-06  0.10063308E-06  0.84551777E-07
  0.68275530E-07  0.51908860E-07  0.35554689E-07  0.19313745E-07  0.32839901E-08
 -0.12439921E-07 -0.27767151E-07 -0.42611154E-07 -0.56890119E-07 -0.70527370E-07
 -0.83451733E-07 -0.95597852E-07 -0.10690648E-06 -0.11732470E-06 -0.12680614E-06
 -0.13531112E-06 -0.14280673E-06 -0.14926694E-06 -0.15467259E-06 -0.15901138E-06
 -0.16227779E-06 -0.16447301E-06 -0.16560477E-06 -0.16568719E-06 -0.16474053E-06
 -0.16279097E-06 -0.15987033E-06 -0.15601577E-06 -0.15126942E-06 -0.14567809E-06
 -0.13929282E-06 -0.13216853E-06 -0.12436362E-06 -0.11593950E-06 -0.10696018E-06
 -0.97491838E-07 -0.87602361E-07 -0.77360898E-07 -0.66837415E-07 -0.56102254E-07
 -0.45225692E-07 -0.34277518E-07 -0.23326612E-07 -0.12440547E-07 -0.16851977E-08
  0.88756292E-08  0.19180541E-07  0.29170892E-07  0.38791085E-07  0.47988855E-07
  0.56715522E-07  0.64926224E-07  0.72580114E-07  0.79640536E-07  0.86075167E-07
  0.91856134E-07  0.96960099E-07  0.10136832E-06  0.10506666E-06  0.10804562E-06
  0.11030029E-06  0.11183028E-06  0.11263967E-06  0.11273686E-06  0.11213449E-06
  0.11084923E-06  0.10890165E-06  0.10631598E-06  0.10311994E-06  0.99344448E-07
  0.95023434E-07  0.90193536E-07  0.84893838E-07  0.79165591E-07  0.73051915E-07
  0.66597505E-07  0.59848326E-07  0.52851315E-07  0.45654070E-07  0.38304553E-07
  0.30850785E-07  0.23340558E-07  0.15821142E-07  0.83390102E-08  0.93956622E-09
 -0.63331115E-08 -0.13436516E-07 -0.20329941E-07 -0.26974701E-07 -0.33334326E-07
 -0.39374748E-07 -0.45064466E-07 -0.50374690E-07 -0.55279469E-07 -0.59755800E-07
 -0.63783716E-07 -0.67346352E-07 -0.70429996E-07 -0.73024112E-07 -0.75121353E-07
 -0.76717547E-07 -0.77811667E-07 -0.78405782E-07 -0.78504988E-07 -0.78117327E-07
 -0.77253685E-07 -0.75927674E-07 -0.74155502E-07 -0.71955832E-07 -0.69349619E-07
 -0.66359948E-07 -0.63011854E-07 -0.59332133E-07 -0.55349151E-07 -0.51092644E-07
 -0.46593509E-07 -0.41883599E-07 -0.36995511E-07 -0.31962373E-07 -0.26817635E-07
 -0.21594858E-07 -0.16327506E-07 -0.11048745E-07 -0.57912463E-08 -0.58699299E-09
  0.45329012E-08  0.95383680E-08  0.14400550E-07  0.19091958E-07  0.23586612E-07
  0.27860179E-07  0.31890087E-07  0.35655642E-07  0.39138116E-07  0.42320828E-07
  0.45189216E-07  0.47730888E-07  0.49935659E-07  0.51795581E-07  0.53304951E-07
  0.54460306E-07  0.55260414E-07  0.55706236E-07  0.55800893E-07  0.55549600E-07
  0.54959610E-07  0.54040129E-07  0.52802231E-07  0.51258758E-07  0.49424214E-07
  0.47314646E-07  0.44947525E-07  0.42341613E-07  0.39516827E-07  0.36494103E-07
  0.33295244E-07  0.29942779E-07  0.26459813E-07  0.22869872E-07  0.19196758E-07
  0.15464397E-07  0.11696689E-07  0.79173675E-08  0.41498509E-08  0.41710991E-09
 -0.32584677E-08 -0.68552042E-08 -0.10352253E-07 -0.13729711E-07 -0.16968728E-07
 -0.20051601E-07 -0.22961869E-07 -0.25684388E-07 -0.28205406E-07 -0.30512624E-07
 -0.32595248E-07 -0.34444030E-07 -0.36051302E-07 -0.37410996E-07 -0.38518657E-07
 -0.39371442E-07 -0.39968116E-07 -0.40309031E-07 -0.40396101E-07 -0.40232763E-07
 -0.39823936E-07 -0.39175964E-07 -0.38296558E-07 -0.37194724E-07 -0.35880691E-07
 -0.34365831E-07 -0.32662564E-07 -0.30784276E-07 -0.28745215E-07 -0.26560393E-07
 -0.24245482E-07 -0.21816711E-07 -0.19290754E-07 -0.16684624E-07 -0.14015562E-07
 -0.11300933E-07 -0.85581095E-08 -0.58043748E-08 -0.30568123E-08 -0.33220694E-09
  0.23530532E-08  0.49830709E-08  0.75425292E-08  0.10016777E-07  0.12391905E-07
  0.14654826E-07  0.16793335E-07  0.18796174E-07  0.20653087E-07  0.22354866E-07
  0.23893392E-07  0.25261666E-07  0.26453840E-07  0.27465230E-07  0.28292329E-07
  0.28932814E-07  0.29385534E-07  0.29650511E-07  0.29728913E-07  0.29623032E-07
  0.29336257E-07  0.28873034E-07  0.28238820E-07  0.27440043E-07  0.26484039E-07
  0.25379001E-07  0.24133912E-07  0.22758482E-07  0.21263073E-07  0.19658630E-07
  0.17956607E-07  0.16168885E-07  0.14307695E-07  0.12385539E-07  0.10415112E-07
  0.84092153E-08  0.63806827E-08  0.43422987E-08  0.23067224E-08  0.28641129E-09
 -0.17064514E-08 -0.36600272E-08 -0.55628899E-08 -0.74040889E-08 -0.91732095E-08
 -0.10860429E-07 -0.12456567E-07 -0.13953133E-07 -0.15342370E-07 -0.16617286E-07
 -0.17771694E-07 -0.18800229E-07 -0.19698375E-07 -0.20462480E-07 -0.21089764E-07
 -0.21578324E-07 -0.21927133E-07 -0.22136034E-07 -0.22205731E-07 -0.22137767E-07
 -0.21934508E-07 -0.21599115E-07 -0.21135511E-07 -0.20548351E-07 -0.19842979E-07
 -0.19025387E-07 -0.18102171E-07 -0.17080481E-07 -0.15967967E-07 -0.14772730E-07
 -0.13503264E-07 -0.12168397E-07 -0.10777234E-07 -0.93390980E-08 -0.78634704E-08
 -0.63599286E-08 -0.48380882E-08 -0.33075430E-08 -0.17778069E-08 -0.25825714E-09
  0.12419216E-08  0.27137901E-08  0.41487060E-08  0.55383726E-08  0.68748842E-08
  0.81507697E-08  0.93590316E-08  0.10493183E-07  0.11547279E-07  0.12515946E-07
  0.13394408E-07  0.14178506E-07  0.14864715E-07  0.15450157E-07  0.15932611E-07
  0.16310517E-07  0.16582974E-07  0.16749741E-07  0.16811226E-07  0.16768475E-07
  0.16623160E-07  0.16377556E-07  0.16034524E-07  0.15597479E-07  0.15070368E-07
  0.14457635E-07  0.13764190E-07  0.12995368E-07  0.12156897E-07  0.11254852E-07
  0.10295617E-07  0.92858412E-08  0.82323932E-08  0.71423177E-08  0.60227897E-08
  0.48810689E-08  0.37244544E-08  0.25602394E-08  0.13956670E-08  0.23788618E-09
 -0.90608992E-09 -0.20294256E-08 -0.31255017E-08 -0.41879532E-08 -0.52107049E-08
 -0.61880044E-08 -0.71144533E-08 -0.79850350E-08 -0.87951410E-08 -0.95405932E-08
 -0.10217664E-07 -0.10823092E-07 -0.11354099E-07 -0.11808397E-07 -0.12184198E-07
 -0.12480216E-07 -0.12695672E-07 -0.12830289E-07 -0.12884289E-07 -0.12858385E-07
 -0.12753768E-07 -0.12572097E-07 -0.12315480E-07 -0.11986457E-07 -0.11587979E-07
 -0.11123382E-07 -0.10596365E-07 -0.10010962E-07 -0.93715120E-08 -0.86826289E-08
 -0.79491700E-08 -0.71762036E-08 -0.63689744E-08 -0.55328704E-08 -0.46733872E-08
 -0.37960934E-08 -0.29065959E-08 -0.20105049E-08 -0.11133997E-08 -0.22079495E-09
  0.66189216E-09  0.15293737E-08  0.23765216E-08  0.31983972E-08  0.39902787E-08
  0.47476874E-08  0.54664120E-08  0.61425309E-08  0.67724326E-08  0.73528336E-08
  0.78807947E-08  0.83537342E-08  0.87694397E-08  0.91260764E-08  0.94221941E-08
  0.96567308E-08  0.98290149E-08  0.99387638E-08  0.99860812E-08  0.99714516E-08
  0.98957324E-08  0.97601443E-08  0.95662592E-08  0.93159863E-08  0.90115562E-08
  0.86555033E-08  0.82506468E-08  0.78000696E-08  0.73070965E-08  0.67752709E-08
  0.62083301E-08  0.56101808E-08  0.49848726E-08  0.43365715E-08  0.36695336E-08
  0.29880773E-08  0.22965566E-08  0.15993340E-08  0.90075374E-09  0.20511541E-09
 -0.48335164E-09 -0.11605133E-08 -0.18223549E-08 -0.24650042E-08 -0.30847530E-08
 -0.36780785E-08 -0.42416619E-08 -0.47724066E-08 -0.52674542E-08 -0.57241991E-08
 -0.61403017E-08 -0.65136990E-08 -0.68426141E-08 -0.71255637E-08 -0.73613634E-08
 kinetic energy density (partial)
  0.15021074E+03  0.15015973E+03  0.15000681E+03  0.14975226E+03  0.14939658E+03
  0.14894046E+03  0.14838476E+03  0.14773055E+03  0.14697908E+03  0.14613178E+03
  0.14519026E+03  0.14415631E+03  0.14303186E+03  0.14181902E+03  0.14052006E+03
  0.13913738E+03  0.13767353E+03  0.13613120E+03  0.13451318E+03  0.13282240E+03
  0.13106188E+03  0.12923475E+03  0.12734423E+03  0.12539361E+03  0.12338625E+03
  0.12132558E+03  0.11921509E+03  0.11705829E+03  0.11485874E+03  0.11262002E+03
  0.11034572E+03  0.10803944E+03  0.10570478E+03  0.10334532E+03  0.10096462E+03
  0.98566214E+02  0.96153601E+02  0.93730227E+02  0.91299490E+02  0.88864728E+02
  0.86429212E+02  0.83996138E+02  0.81568626E+02  0.79149708E+02  0.76742327E+02
  0.74349332E+02  0.71973470E+02  0.69617387E+02  0.67283618E+02  0.64974591E+02
  0.62692619E+02  0.60439899E+02  0.58218511E+02  0.56030415E+02  0.53877450E+02
  0.51761335E+02  0.49683665E+02  0.47645915E+02  0.45649438E+02  0.43695465E+02
  0.41785108E+02  0.39919359E+02  0.38099095E+02  0.36325075E+02  0.34597947E+02
  0.32918245E+02  0.31286399E+02  0.29702729E+02  0.28167456E+02  0.26680700E+02
  0.25242485E+02  0.23852743E+02  0.22511316E+02  0.21217964E+02  0.19972361E+02
  0.18774107E+02  0.17622728E+02  0.16517680E+02  0.15458354E+02  0.14444080E+02
  0.13474130E+02  0.12547724E+02  0.11664033E+02  0.10822181E+02  0.10021254E+02
  0.92602980E+01  0.85383285E+01  0.78543300E+01  0.72072617E+01  0.65960608E+01
  0.60196460E+01  0.54769207E+01  0.49667768E+01  0.44880975E+01  0.40397607E+01
  0.36206414E+01  0.32296152E+01  0.28655606E+01  0.25273618E+01  0.22139108E+01
  0.19241101E+01  0.16568746E+01  0.14111335E+01  0.11858328E+01  0.97993609E+00
  0.79242715E+00  0.62231077E+00  0.46861435E+00  0.33038910E+00  0.20671107E+00
  0.96682221E-01 -0.56883655E-03 -0.85886045E-01 -0.16008531E+00 -0.22395400E+00
 -0.27825054E+00 -0.32370413E+00 -0.36101456E+00 -0.39085207E+00 -0.41385740E+00
 -0.43064182E+00 -0.44178731E+00 -0.44784678E+00 -0.44934440E+00 -0.44677594E+00
 -0.44060923E+00 -0.43128465E+00 -0.41921566E+00 -0.40478942E+00 -0.38836740E+00
 -0.37028610E+00 -0.35085773E+00 -0.33037097E+00 -0.30909174E+00 -0.28726401E+00
 -0.26511062E+00 -0.24283409E+00 -0.22061749E+00 -0.19862530E+00 -0.17700423E+00
 -0.15588416E+00 -0.13537891E+00 -0.11558719E+00 -0.96593398E-01 -0.78468482E-01
 -0.61270784E-01 -0.45046860E-01 -0.29832286E-01 -0.15652449E-01 -0.25233275E-02
  0.95477614E-02  0.20561426E-01  0.30525493E-01  0.39454316E-01  0.47368122E-01
  0.54292369E-01  0.60257139E-01  0.65296554E-01  0.69448224E-01  0.72752714E-01
  0.75253047E-01  0.76994230E-01  0.78022811E-01  0.78386461E-01  0.78133585E-01
  0.77312960E-01  0.75973400E-01  0.74163448E-01  0.71931090E-01  0.69323503E-01
  0.66386816E-01  0.63165907E-01  0.59704211E-01  0.56043562E-01  0.52224048E-01
  0.48283891E-01  0.44259347E-01  0.40184620E-01  0.36091799E-01  0.32010814E-01
  0.27969396E-01  0.23993070E-01  0.20105144E-01  0.16326725E-01  0.12676739E-01
  0.91719635E-02  0.58270743E-02  0.26546956E-02 -0.33453714E-03 -0.31319093E-02
 -0.57305515E-02 -0.81253588E-02 -0.10312905E-01 -0.12291352E-01 -0.14060359E-01
 -0.15620982E-01 -0.16975581E-01 -0.18127719E-01 -0.19082059E-01 -0.19844271E-01
 -0.20420926E-01 -0.20819405E-01 -0.21047793E-01 -0.21114793E-01 -0.21029627E-01
 -0.20801952E-01 -0.20441767E-01 -0.19959335E-01 -0.19365099E-01 -0.18669609E-01
 -0.17883447E-01 -0.17017162E-01 -0.16081204E-01 -0.15085865E-01 -0.14041228E-01
 -0.12957109E-01 -0.11843018E-01 -0.10708116E-01 -0.95611754E-02 -0.84105513E-02
 -0.72641514E-02 -0.61294125E-02 -0.50132814E-02 -0.39221988E-02 -0.28620877E-02
 -0.18383456E-02 -0.85583994E-03  0.81092762E-04  0.96864483E-03  0.18035321E-02
  0.25829858E-02  0.33047420E-02  0.39670282E-02  0.45685482E-02  0.51084648E-02
  0.55863802E-02  0.60023157E-02  0.63566893E-02  0.66502922E-02  0.68842646E-02
  0.70600706E-02  0.71794720E-02  0.72445026E-02  0.72574411E-02  0.72207848E-02
  0.71372233E-02  0.70096113E-02  0.68409435E-02  0.66343284E-02  0.63929638E-02
  0.61201122E-02  0.58190777E-02  0.54931833E-02  0.51457495E-02  0.47800738E-02
  0.43994115E-02  0.40069575E-02  0.36058297E-02  0.31990529E-02  0.27895450E-02
  0.23801038E-02  0.19733957E-02  0.15719450E-02  0.11781252E-02  0.79415143E-03
  0.42207395E-03  0.63773376E-04 -0.27904323E-03 -0.60484490E-03 -0.91227811E-03
 -0.12001671E-02 -0.14675128E-02 -0.17134914E-02 -0.19374512E-02 -0.21389090E-02
 -0.23175454E-02 -0.24731997E-02 -0.26058636E-02 -0.27156746E-02 -0.28029089E-02
 -0.28679732E-02 -0.29113968E-02 -0.29338227E-02 -0.29359991E-02 -0.29187698E-02
 -0.28830651E-02 -0.28298924E-02 -0.27603264E-02 -0.26755001E-02 -0.25765946E-02
 -0.24648305E-02 -0.23414584E-02 -0.22077498E-02 -0.20649887E-02 -0.19144628E-02
 -0.17574558E-02 -0.15952394E-02 -0.14290660E-02 -0.12601618E-02 -0.10897203E-02
 -0.91889650E-03 -0.74880089E-03 -0.58049488E-03 -0.41498602E-03 -0.25322401E-03
 -0.96097180E-04  0.55570530E-04  0.20102206E-03  0.33956923E-03  0.47059428E-03
  0.59355084E-03  0.70796451E-03  0.81343298E-03  0.90962562E-03  0.99628281E-03
  0.10732147E-02  0.11402997E-02  0.11974827E-02  0.12447727E-02  0.12822402E-02
  0.13100149E-02  0.13282820E-02  0.13372796E-02  0.13372945E-02  0.13286595E-02
  0.13117488E-02  0.12869746E-02  0.12547831E-02  0.12156502E-02  0.11700779E-02
  0.11185901E-02  0.10617284E-02  0.10000482E-02  0.93411497E-03  0.86450022E-03
  0.79177777E-03  0.71652020E-03  0.63929537E-03  0.56066311E-03  0.48117201E-03
  0.40135654E-03  0.32173420E-03  0.24280298E-03  0.16503899E-03  0.88894320E-04
  0.14795084E-04 -0.56860254E-04 -0.12570237E-03 -0.19139232E-03 -0.25362257E-03
 -0.31211778E-03 -0.36663540E-03 -0.41696600E-03 -0.46293342E-03 -0.50439472E-03
 -0.54123990E-03 -0.57339147E-03 -0.60080379E-03 -0.62346231E-03 -0.64138255E-03
 -0.65460905E-03 -0.66321407E-03 -0.66729623E-03 -0.66697905E-03 -0.66240931E-03
 -0.65375541E-03 -0.64120563E-03 -0.62496626E-03 -0.60525981E-03 -0.58232305E-03
 -0.55640515E-03 -0.52776569E-03 -0.49667275E-03 -0.46340099E-03 -0.42822977E-03
 -0.39144124E-03 -0.35331857E-03 -0.31414414E-03 -0.27419785E-03 -0.23375551E-03
 -0.19308720E-03 -0.15245591E-03 -0.11211605E-03 -0.72312224E-04 -0.33278014E-04
  0.47650938E-05  0.41608693E-04  0.77058320E-04  0.11093421E-03  0.14307195E-03
  0.17332300E-03  0.20155509E-03  0.22765259E-03  0.25151663E-03  0.27306525E-03
  0.29223334E-03  0.30897255E-03  0.32325106E-03  0.33505328E-03  0.34437947E-03
  0.35124520E-03  0.35568086E-03  0.35773098E-03  0.35745356E-03  0.35491930E-03
  0.35021077E-03  0.34342159E-03  0.33465548E-03  0.32402537E-03  0.31165240E-03
  0.29766496E-03  0.28219766E-03  0.26539036E-03  0.24738715E-03  0.22833530E-03
  0.20838434E-03  0.18768501E-03  0.16638834E-03  0.14464471E-03  0.12260294E-03
  0.10040944E-03  0.78207345E-04  0.56135783E-04  0.34329102E-04  0.12916197E-04
 -0.79801283E-05 -0.28243736E-04 -0.47765680E-04 -0.66444670E-04 -0.84187472E-04
 -0.10090926E-03 -0.11653388E-03 -0.13099411E-03 -0.14423178E-03 -0.15619790E-03
 -0.16685272E-03 -0.17616566E-03 -0.18411532E-03 -0.19068929E-03 -0.19588402E-03
 -0.19970458E-03 -0.20216440E-03 -0.20328496E-03 -0.20309543E-03 -0.20163229E-03
 -0.19893891E-03 -0.19506508E-03 -0.19006655E-03 -0.18400454E-03 -0.17694519E-03
 -0.16895902E-03 -0.16012042E-03 -0.15050706E-03 -0.14019931E-03 -0.12927973E-03
 -0.11783247E-03 -0.10594271E-03 -0.93696135E-04 -0.81178364E-04 -0.68474464E-04
 -0.55668420E-04 -0.42842659E-04 -0.30077582E-04 -0.17451129E-04 -0.50383620E-05
  0.70889168E-05  0.18862521E-04  0.30218202E-04  0.41095945E-04  0.51440221E-04
  0.61200215E-04  0.70330018E-04  0.78788776E-04  0.86540818E-04  0.93555737E-04
  0.99808446E-04  0.10527919E-03  0.10995355E-03  0.11382237E-03  0.11688169E-03
  0.11913266E-03  0.12058137E-03  0.12123872E-03  0.12112023E-03  0.12024578E-03
  0.11863947E-03  0.11632928E-03  0.11334686E-03  0.10972721E-03  0.10550842E-03
  0.10073133E-03  0.95439227E-04  0.89677501E-04  0.83493348E-04  0.76935414E-04
  0.70053469E-04  0.62898075E-04  0.55520256E-04  0.47971177E-04  0.40301827E-04
  0.32562710E-04  0.24803548E-04  0.17072999E-04  0.94183803E-05  0.18854134E-05
 -0.54820170E-05 -0.12642088E-04 -0.19555247E-04 -0.26184397E-04 -0.32495067E-04
 -0.38455559E-04 -0.44037080E-04 -0.49213846E-04 -0.53963169E-04 -0.58265528E-04
 -0.62104607E-04 -0.65467326E-04 -0.68343842E-04 -0.70727536E-04 -0.72614976E-04
 -0.74005867E-04 -0.74902980E-04 -0.75312060E-04 -0.75241728E-04 -0.74703360E-04
 -0.73710952E-04 -0.72280978E-04 -0.70432231E-04 -0.68185652E-04 -0.65564161E-04
 -0.62592464E-04 -0.59296864E-04 -0.55705065E-04 -0.51845971E-04 -0.47749482E-04
 -0.43446285E-04 -0.38967657E-04 -0.34345251E-04 -0.29610901E-04 -0.24796420E-04
 -0.19933407E-04 -0.15053058E-04 -0.10185986E-04 -0.53620437E-05 -0.61016070E-06
  0.40418148E-05  0.85672614E-05  0.12940921E-04  0.17139022E-04  0.21139395E-04
  0.24921567E-04  0.28466859E-04  0.31758451E-04  0.34781452E-04  0.37522944E-04
  0.39972023E-04  0.42119816E-04  0.43959497E-04  0.45486282E-04  0.46697413E-04
  0.47592135E-04  0.48171654E-04  0.48439089E-04  0.48399412E-04  0.48059380E-04
  0.47427451E-04  0.46513700E-04  0.45329723E-04  0.43888532E-04  0.42204446E-04
  0.40292976E-04  0.38170707E-04  0.35855170E-04  0.33364719E-04  0.30718399E-04
  0.27935817E-04  0.25037007E-04  0.22042303E-04  0.18972206E-04  0.15847255E-04
  0.12687903E-04  0.95143886E-05  0.63466239E-05  0.32040738E-05  0.10564874E-06
 -0.29304001E-05 -0.58865786E-05 -0.87462413E-05 -0.11493676E-04 -0.14114179E-04
 -0.16594128E-04 -0.18921040E-04 -0.21083626E-04 -0.23071834E-04 -0.24876890E-04
 -0.26491318E-04 -0.27908968E-04 -0.29125022E-04 -0.30135996E-04 -0.30939738E-04
 -0.31535412E-04 -0.31923476E-04 -0.32105656E-04 -0.32084909E-04 -0.31865379E-04
 -0.31452351E-04 -0.30852193E-04 -0.30072296E-04 -0.29121013E-04 -0.28007581E-04
 -0.26742056E-04 -0.25335227E-04 -0.23798543E-04 -0.22144024E-04 -0.20384182E-04
 -0.18531928E-04 -0.16600494E-04 -0.14603337E-04 -0.12554059E-04 -0.10466319E-04
 -0.83537450E-05 -0.62298575E-05 -0.41079841E-05 -0.20011840E-05  0.77827625E-07
  0.21167499E-05  0.41037642E-05  0.60275966E-05  0.78775767E-05  0.96436910E-05
  0.11316632E-04  0.12887841E-04  0.14349546E-04  0.15694797E-04  0.16917488E-04
  0.18012383E-04  0.18975127E-04  0.19802262E-04  0.20491225E-04  0.21040350E-04
  0.21448862E-04  0.21716864E-04  0.21845319E-04  0.21836029E-04  0.21691608E-04
  0.21415451E-04  0.21011701E-04  0.20485205E-04  0.19841475E-04  0.19086640E-04
  0.18227401E-04  0.17270973E-04  0.16225036E-04  0.15097680E-04  0.13897345E-04
  0.12632765E-04  0.11312909E-04  0.99469214E-05  0.85440625E-05  0.71136514E-05
  0.56650065E-05  0.42073894E-05  0.27499488E-05  0.13016669E-05 -0.12869264E-06
 -0.15326339E-05 -0.29019765E-05 -0.42288990E-05 -0.55059811E-05 -0.67262414E-05
 -0.78831720E-05 -0.89707701E-05 -0.99835657E-05 -0.10916645E-04 -0.11765671E-04
 -0.12526901E-04 -0.13197194E-04 -0.13774026E-04 -0.14255491E-04 -0.14640300E-04
 -0.14927781E-04 -0.15117872E-04 -0.15211109E-04 -0.15208611E-04 -0.15112069E-04
 -0.14923718E-04 -0.14646319E-04 -0.14283130E-04 -0.13837881E-04 -0.13314738E-04
 -0.12718274E-04 -0.12053432E-04 -0.11325490E-04 -0.10540020E-04 -0.97028527E-05
 -0.88200344E-05 -0.78977874E-05 -0.69424689E-05 -0.59605301E-05 -0.49584745E-05
 -0.39428181E-05 -0.29200484E-05 -0.18965861E-05 -0.87874670E-06  0.12729662E-06
  0.11155478E-05  0.20802219E-05  0.30157766E-05  0.39169422E-05  0.47787488E-05
  0.55965522E-05  0.63660563E-05  0.70833336E-05  0.77448431E-05  0.83474453E-05
  0.88884147E-05  0.93654496E-05  0.97766789E-05  0.10120666E-04  0.10396412E-04
  0.10603352E-04  0.10741353E-04  0.10810706E-04  0.10812121E-04  0.10746710E-04
  0.10615978E-04  0.10421806E-04  0.10166431E-04  0.98524328E-05  0.94827041E-05
  0.90604339E-05  0.85890809E-05  0.80723482E-05  0.75141566E-05  0.69186172E-05
  0.62900031E-05  0.56327206E-05  0.49512803E-05  0.42502676E-05  0.35343135E-05
  0.28080659E-05  0.20761602E-05  0.13431921E-05  0.61368932E-06 -0.10791445E-06
 -0.81730535E-06 -0.15103137E-05 -0.21829372E-05 -0.28313627E-05 -0.34519864E-05
 -0.40414327E-05 -0.45965709E-05 -0.51145309E-05 -0.55927158E-05 -0.60288143E-05
 -0.64208096E-05 -0.67669875E-05 -0.70659417E-05 -0.73165780E-05 -0.75181154E-05
 -0.76700866E-05 -0.77723353E-05 -0.78250128E-05 -0.78285719E-05 -0.77837593E-05
 -0.76916069E-05 -0.75534204E-05 -0.73707675E-05 -0.71454642E-05 -0.68795596E-05
 -0.65753196E-05 -0.62352104E-05 -0.58618795E-05 -0.54581371E-05 -0.50269364E-05
 -0.45713532E-05 -0.40945654E-05 -0.35998317E-05 -0.30904709E-05 -0.25698402E-05
 -0.20413143E-05 -0.15082647E-05 -0.97403883E-06 -0.44194012E-06  0.84791549E-07
  0.60299863E-06  0.11096240E-05  0.16017281E-05  0.20765051E-05  0.25312980E-05
  0.29636126E-05  0.33711303E-05  0.37517196E-05  0.41034463E-05  0.44245824E-05
  0.47136132E-05  0.49692440E-05  0.51904041E-05  0.53762502E-05  0.55261680E-05
  0.56397729E-05  0.57169085E-05  0.57576444E-05  0.57622720E-05  0.57313000E-05
  0.56654477E-05  0.55656374E-05  0.54329858E-05  0.52687946E-05  0.50745393E-05
  0.48518580E-05  0.46025387E-05  0.43285064E-05  0.40318092E-05  0.37146039E-05
  0.33791414E-05  0.30277512E-05  0.26628266E-05  0.22868085E-05  0.19021703E-05
  0.15114020E-05  0.11169947E-05  0.72142573E-06  0.32714332E-06 -0.63447780E-07
 -0.44800034E-06 -0.82423822E-06 -0.11899692E-05 -0.15430972E-05 -0.18816337E-05
 -0.22037082E-05 -0.25075782E-05 -0.27916379E-05 -0.30544258E-05 -0.32946320E-05
 -0.35111037E-05 -0.37028500E-05 -0.38690458E-05 -0.40090345E-05 -0.41223293E-05
 -0.42086139E-05 -0.42677424E-05 -0.42997369E-05 -0.43047858E-05 -0.42832400E-05
 -0.42356081E-05 -0.41625517E-05 -0.40648785E-05 -0.39435360E-05 -0.37996032E-05
 -0.36342822E-05 -0.34488895E-05 -0.32448460E-05 -0.30236668E-05 -0.27869509E-05
 -0.25363700E-05 -0.22736575E-05 -0.20005967E-05 -0.17190096E-05 -0.14307450E-05
 -0.11376667E-05 -0.84164230E-06 -0.54453127E-06 -0.24817406E-06  0.45619067E-07
  0.33507864E-06  0.61848621E-06  0.89418419E-06  0.11605851E-05  0.14161803E-05
  0.16595481E-05  0.18893615E-05  0.21043945E-05  0.23035288E-05  0.24857584E-05
  0.26501952E-05  0.27960720E-05  0.29227457E-05  0.30296997E-05  0.31165456E-05
  0.31830230E-05  0.32290001E-05  0.32544725E-05  0.32595615E-05  0.32445117E-05
  0.32096875E-05  0.31555698E-05  0.30827512E-05  0.29919309E-05  0.28839087E-05
  0.27595795E-05  0.26199256E-05  0.24660103E-05  0.22989699E-05  0.21200059E-05
  0.19303769E-05  0.17313897E-05  0.15243914E-05  0.13107598E-05  0.10918953E-05
  0.86921150E-06  0.64412669E-06  0.41805502E-06  0.19239793E-06 -0.31464258E-07
 -0.25218051E-06 -0.46843690E-06 -0.67896423E-06 -0.88254511E-06 -0.10780208E-05
 -0.12642974E-05 -0.14403518E-05 -0.16052370E-05 -0.17580867E-05 -0.18981200E-05
 -0.20246444E-05 -0.21370594E-05 -0.22348587E-05 -0.23176323E-05 -0.23850675E-05
 -0.24369496E-05 -0.24731620E-05 -0.24936857E-05 -0.24985979E-05 -0.24880706E-05
 -0.24623681E-05 -0.24218442E-05 -0.23669389E-05 -0.22981748E-05 -0.22161524E-05
 -0.21215460E-05 -0.20150980E-05 -0.18976140E-05 -0.17699568E-05 -0.16330404E-05
 -0.14878240E-05 -0.13353050E-05 -0.11765133E-05 -0.10125035E-05 -0.84434922E-06
 -0.67313543E-06 -0.49995218E-06 -0.32588771E-06 -0.15202179E-06  0.20580678E-07
  0.19087608E-06  0.35784813E-06  0.52051376E-06  0.67792870E-06  0.82919280E-06
  0.97345489E-06  0.11099175E-05  0.12378408E-05  0.13565468E-05  0.14654223E-05
  0.15639221E-05  0.16515714E-05  0.17279678E-05  0.17927828E-05  0.18457631E-05
  0.18867308E-05  0.19155840E-05  0.19322963E-05  0.19369159E-05  0.19295645E-05
  0.19104356E-05  0.18797924E-05  0.18379656E-05  0.17853500E-05  0.17224017E-05
  0.16496347E-05  0.15676165E-05  0.14769643E-05  0.13783408E-05  0.12724492E-05
  0.11600285E-05  0.10418489E-05  0.91870612E-06  0.79141679E-06  0.66081279E-06
  0.52773618E-06  0.39303386E-06  0.25755240E-06  0.12213276E-06 -0.12394652E-07
 -0.14521504E-06 -0.27553396E-06 -0.40258191E-06 -0.52561877E-06 -0.64393795E-06
 -0.75687032E-06 -0.86378783E-06 -0.96410683E-06 -0.10572912E-05 -0.11428548E-05
 -0.12203644E-05 -0.12894408E-05 -0.13497614E-05 -0.14010610E-05 -0.14431328E-05
 atomic pseudo charge-density
  0.50000000E+01  0.49870182E+01  0.49483140E+01  0.48846007E+01  0.47970344E+01
  0.46871684E+01  0.45568934E+01  0.44083678E+01  0.42439438E+01  0.40660922E+01
  0.38773303E+01  0.36801562E+01  0.34769917E+01  0.32701351E+01  0.30617245E+01
  0.28537111E+01  0.26478426E+01  0.24456547E+01  0.22484698E+01  0.20574021E+01
  0.18733662E+01  0.16970900E+01  0.15291292E+01  0.13698831E+01  0.12196110E+01
  0.10784490E+01  0.94642517E+00  0.82347543E+00  0.70945718E+00  0.60416251E+00
  0.50733003E+00  0.41865551E+00  0.33780147E+00  0.26440556E+00  0.19808802E+00
  0.13845803E+00  0.85119323E-01  0.37674904E-01 -0.42689518E-02 -0.41099351E-01
 -0.73194026E-01 -0.10091911E+00 -0.12462738E+00 -0.14465689E+00 -0.16133001E+00
 -0.17495272E+00 -0.18581421E+00 -0.19418673E+00 -0.20032555E+00 -0.20446919E+00
 -0.20683975E+00 -0.20764327E+00 -0.20707035E+00 -0.20529665E+00 -0.20248356E+00
 -0.19877891E+00 -0.19431762E+00 -0.18922243E+00 -0.18360464E+00 -0.17756478E+00
 -0.17119334E+00 -0.16457146E+00 -0.15777157E+00 -0.15085804E+00 -0.14388781E+00
 -0.13691096E+00 -0.12997128E+00 -0.12310677E+00 -0.11635018E+00 -0.10972945E+00
 -0.10326817E+00 -0.96985971E-01 -0.90898914E-01 -0.85019855E-01 -0.79358768E-01
 -0.73923052E-01 -0.68717814E-01 -0.63746129E-01 -0.59009278E-01 -0.54506968E-01
 -0.50237531E-01 -0.46198111E-01 -0.42384826E-01 -0.38792921E-01 -0.35416907E-01
 -0.32250684E-01 -0.29287650E-01 -0.26520808E-01 -0.23942849E-01 -0.21546238E-01
 -0.19323284E-01 -0.17266203E-01 -0.15367173E-01 -0.13618386E-01 -0.12012090E-01
 -0.10540626E-01 -0.91964606E-02 -0.79722140E-02 -0.68606822E-02 -0.58548576E-02
 -0.49479443E-02 -0.41333718E-02 -0.34048041E-02 -0.27561482E-02 -0.21815592E-02
 -0.16754437E-02 -0.12324613E-02 -0.84752511E-03 -0.51580042E-03 -0.23270213E-03
  0.61084913E-05  0.20472812E-03  0.36701644E-03  0.49660178E-03  0.59688733E-03
  0.67105778E-03  0.72208626E-03  0.75274162E-03  0.76559589E-03  0.76303185E-03
  0.74725078E-03  0.72028016E-03  0.68398143E-03  0.64005775E-03  0.59006158E-03
  0.53540235E-03  0.47735385E-03  0.41706158E-03  0.35554996E-03  0.29372933E-03
  0.23240280E-03  0.17227295E-03  0.11394824E-03  0.57949400E-04  0.47154022E-05
 -0.45390589E-04 -0.92075571E-04 -0.13511124E-03 -0.17432872E-03 -0.20961353E-03
 -0.24090075E-03 -0.26817037E-03 -0.29144288E-03 -0.31077500E-03 -0.32625574E-03
 -0.33800249E-03 -0.34615743E-03 -0.35088410E-03 -0.35236413E-03 -0.35079419E-03
 -0.34638310E-03 -0.33934917E-03 -0.32991764E-03 -0.31831834E-03 -0.30478352E-03
 -0.28954586E-03 -0.27283656E-03 -0.25488371E-03 -0.23591071E-03 -0.21613491E-03
 -0.19576632E-03 -0.17500657E-03 -0.15404787E-03 -0.13307226E-03 -0.11225079E-03
 -0.91743058E-04 -0.71696628E-04 -0.52246738E-04 -0.33516023E-04 -0.15614369E-04
  0.13611479E-05  0.17326222E-04  0.32209205E-04  0.45950902E-04  0.58504310E-04
  0.69834270E-04  0.79917075E-04  0.88740010E-04  0.96300851E-04  0.10260731E-03
  0.10767644E-03  0.11153405E-03  0.11421398E-03  0.11575751E-03  0.11621264E-03
  0.11563335E-03  0.11407897E-03  0.11161341E-03  0.10830446E-03  0.10422313E-03
  0.99442902E-04  0.94039116E-04  0.88088275E-04  0.81667427E-04  0.74853559E-04
  0.67723017E-04  0.60350959E-04  0.52810842E-04  0.45173942E-04  0.37508917E-04
  0.29881400E-04  0.22353638E-04  0.14984169E-04  0.78275425E-05  0.93407645E-06
 -0.56503383E-05 -0.11884397E-04 -0.17731499E-04 -0.23159823E-04 -0.28142367E-04
 -0.32656951E-04 -0.36686178E-04 -0.40217371E-04 -0.43242466E-04 -0.45757883E-04
 -0.47764365E-04 -0.49266792E-04 -0.50273969E-04 -0.50798394E-04 -0.50856010E-04
 -0.50465936E-04 -0.49650186E-04 -0.48433377E-04 -0.46842430E-04 -0.44906258E-04
 -0.42655465E-04 -0.40122023E-04 -0.37338970E-04 -0.34340101E-04 -0.31159665E-04
 -0.27832071E-04 -0.24391609E-04 -0.20872171E-04 -0.17306997E-04 -0.13728428E-04
 -0.10167678E-04 -0.66546213E-05 -0.32176026E-05  0.11674058E-06  0.33236307E-05
  0.63802842E-05  0.92660254E-05  0.11962379E-04  0.14453142E-04  0.16724433E-04
  0.18764729E-04  0.20564868E-04  0.22118046E-04  0.23419789E-04  0.24467907E-04
  0.25262433E-04  0.25805544E-04  0.26101471E-04  0.26156390E-04  0.25978308E-04
  0.25576930E-04  0.24963522E-04  0.24150764E-04  0.23152598E-04  0.21984067E-04
  0.20661157E-04  0.19200625E-04  0.17619841E-04  0.15936616E-04  0.14169044E-04
  0.12335335E-04  0.10453666E-04  0.85420207E-05  0.66180524E-05  0.46989416E-05
  0.28012682E-05  0.94089092E-06 -0.86716352E-06 -0.26088008E-05 -0.42709486E-05
 -0.58416345E-05 -0.73100533E-05 -0.86666215E-05 -0.99030206E-05 -0.11012229E-04
 -0.11988539E-04 -0.12827570E-04 -0.13526259E-04 -0.14082849E-04 -0.14496868E-04
 -0.14769085E-04 -0.14901477E-04 -0.14897166E-04 -0.14760365E-04 -0.14496304E-04
 -0.14111162E-04 -0.13611979E-04 -0.13006573E-04 -0.12303452E-04 -0.11511720E-04
 -0.10640981E-04 -0.97012398E-05 -0.87028107E-05 -0.76562146E-05 -0.65720852E-05
 -0.54610739E-05 -0.43337578E-05 -0.32005510E-05 -0.20716197E-05 -0.95680158E-06
  0.13446944E-06  0.11932332E-05  0.22110671E-05  0.31801439E-05  0.40932824E-05
  0.49439916E-05  0.57265074E-05  0.64358227E-05  0.70677097E-05  0.76187348E-05
  0.80862670E-05  0.84684783E-05  0.87643382E-05  0.89736008E-05  0.90967856E-05
  0.91351527E-05  0.90906715E-05  0.89659853E-05  0.87643697E-05  0.84896877E-05
  0.81463406E-05  0.77392153E-05  0.72736291E-05  0.67552722E-05  0.61901483E-05
  0.55845142E-05  0.49448187E-05  0.42776415E-05  0.35896323E-05  0.28874512E-05
  0.21777102E-05  0.14669169E-05  0.76142010E-06  0.67358860E-07 -0.60938622E-06
 -0.12632376E-05 -0.18889618E-05 -0.24817069E-05 -0.30370346E-05 -0.35509496E-05
 -0.40199226E-05 -0.44409103E-05 -0.48113694E-05 -0.51292668E-05 -0.53930846E-05
 -0.56018210E-05 -0.57549857E-05 -0.58525926E-05 -0.58951463E-05 -0.58836267E-05
 -0.58194679E-05 -0.57045352E-05 -0.55410980E-05 -0.53318001E-05 -0.50796275E-05
 -0.47878740E-05 -0.44601046E-05 -0.41001180E-05 -0.37119071E-05 -0.32996198E-05
 -0.28675184E-05 -0.24199396E-05 -0.19612544E-05 -0.14958288E-05 -0.10279854E-05
 -0.56196651E-06 -0.10189834E-06  0.34824246E-06  0.78466053E-06  0.12037710E-05
  0.16022264E-05  0.19769406E-05  0.23251099E-05  0.26442318E-05  0.29321196E-05
  0.31869150E-05  0.34070966E-05  0.35914862E-05  0.37392509E-05  0.38499029E-05
  0.39232960E-05  0.39596192E-05  0.39593876E-05  0.39234301E-05  0.38528755E-05
  0.37491358E-05  0.36138868E-05  0.34490481E-05  0.32567603E-05  0.30393613E-05
  0.27993609E-05  0.25394152E-05  0.22622995E-05  0.19708812E-05  0.16680925E-05
  0.13569025E-05  0.10402905E-05  0.72121910E-06  0.40260847E-06  0.87311025E-07
 -0.22191222E-06 -0.52241428E-06 -0.81168325E-06 -0.10873618E-05 -0.13472646E-05
 -0.15893944E-05 -0.18119556E-05 -0.20133658E-05 -0.21922656E-05 -0.23475258E-05
 -0.24782528E-05 -0.25837912E-05 -0.26637251E-05 -0.27178761E-05 -0.27463009E-05
 -0.27492848E-05 -0.27273352E-05 -0.26811720E-05 -0.26117171E-05 -0.25200816E-05
 -0.24075523E-05 -0.22755765E-05 -0.21257458E-05 -0.19597790E-05 -0.17795039E-05
 -0.15868391E-05 -0.13837749E-05 -0.11723540E-05 -0.95465237E-06 -0.73275989E-06
 -0.50876149E-06 -0.28471866E-06 -0.62651474E-07  0.15547858E-06  0.36778496E-06
  0.57247137E-06  0.76784606E-06  0.95233477E-06  0.11244925E-05  0.12830139E-05
  0.14267421E-05  0.15546758E-05  0.16659759E-05  0.17599690E-05  0.18361505E-05
  0.18941859E-05  0.19339101E-05  0.19553261E-05  0.19586008E-05  0.19440614E-05
  0.19121883E-05  0.18636087E-05  0.17990873E-05  0.17195176E-05  0.16259106E-05
  0.15193844E-05  0.14011511E-05  0.12725048E-05  0.11348085E-05  0.98948007E-06
  0.83797882E-06  0.68179163E-06  0.52241900E-06  0.36136143E-06  0.20010591E-06
  0.40112898E-07 -0.11719631E-06 -0.27045154E-06 -0.41834508E-06 -0.55964221E-06
 -0.69319093E-06 -0.81793070E-06 -0.93290022E-06 -0.10372443E-05 -0.11302193E-05
 -0.12111980E-05 -0.12796730E-05 -0.13352588E-05 -0.13776933E-05 -0.14068377E-05
 -0.14226755E-05 -0.14253103E-05 -0.14149629E-05 -0.13919667E-05 -0.13567633E-05
 -0.13098960E-05 -0.12520030E-05 -0.11838105E-05 -0.11061241E-05 -0.10198202E-05
 -0.92583685E-06 -0.82516441E-06 -0.71883534E-06 -0.60791443E-06 -0.49348851E-06
 -0.37665638E-06 -0.25851865E-06 -0.14016783E-06 -0.22678687E-07  0.92901135E-07
  0.20556003E-06  0.31433088E-06  0.41829897E-06  0.51660925E-06  0.60847298E-06
  0.69317365E-06  0.77007213E-06  0.83861103E-06  0.89831830E-06  0.94880996E-06
  0.98979197E-06  0.10210613E-05  0.10425063E-05  0.10541057E-05  0.10559276E-05
  0.10481274E-05  0.10309443E-05  0.10046981E-05  0.96978512E-06  0.92667263E-06
  0.87589402E-06  0.81804260E-06  0.75376521E-06  0.68375553E-06  0.60874698E-06
  0.52950547E-06  0.44682189E-06  0.36150461E-06  0.27437185E-06  0.18624417E-06
  0.97937045E-07  0.10253576E-07 -0.76022511E-07 -0.16013360E-06 -0.24135458E-06
 -0.31899880E-06 -0.39242362E-06 -0.46103545E-06 -0.52429428E-06 -0.58171760E-06
 -0.63288382E-06 -0.67743505E-06 -0.71507918E-06 -0.74559148E-06 -0.76881548E-06
 -0.78466318E-06 -0.79311476E-06 -0.79421759E-06 -0.78808468E-06 -0.77489256E-06
 -0.75487863E-06 -0.72833803E-06 -0.69561997E-06 -0.65712372E-06 -0.61329418E-06
 -0.56461707E-06 -0.51161395E-06 -0.45483682E-06 -0.39486273E-06 -0.33228813E-06
 -0.26772314E-06 -0.20178586E-06 -0.13509667E-06 -0.68272528E-07 -0.19215519E-08
  0.63362392E-07  0.12700479E-06  0.18845534E-06  0.24719256E-06  0.30272796E-06
  0.35461001E-06  0.40242751E-06  0.44581273E-06  0.48444398E-06  0.51804779E-06
  0.54640060E-06  0.56932995E-06  0.58671525E-06  0.59848802E-06  0.60463164E-06
  0.60518072E-06  0.60021993E-06  0.58988246E-06  0.57434802E-06  0.55384048E-06
  0.52862515E-06  0.49900572E-06  0.46532091E-06  0.42794084E-06  0.38726322E-06
  0.34370929E-06  0.29771965E-06  0.24974998E-06  0.20026670E-06  0.14974255E-06
  0.98652248E-07  0.47468163E-07 -0.33439131E-08 -0.53328874E-07 -0.10204624E-06
 -0.14907391E-06 -0.19401169E-06 -0.23648455E-06 -0.27614565E-06 -0.31267901E-06
 -0.34580189E-06 -0.37526683E-06 -0.40086332E-06 -0.42241917E-06 -0.43980144E-06
 -0.45291702E-06 -0.46171289E-06 -0.46617597E-06 -0.46633259E-06 -0.46224769E-06
 -0.45402362E-06 -0.44179861E-06 -0.42574502E-06 -0.40606723E-06 -0.38299929E-06
 -0.35680238E-06 -0.32776201E-06 -0.29618509E-06 -0.26239679E-06 -0.22673737E-06
 -0.18955884E-06 -0.15122163E-06 -0.11209116E-06 -0.72534504E-07 -0.32917017E-07
  0.64009212E-08  0.45067100E-07  0.82740534E-07  0.11909438E-06  0.15381867E-06
  0.18662288E-06  0.21723824E-06  0.24541983E-06  0.27094847E-06  0.29363230E-06
  0.31330809E-06  0.32984230E-06  0.34313186E-06  0.35310460E-06  0.35971950E-06
  0.36296653E-06  0.36286635E-06  0.35946962E-06  0.35285610E-06  0.34313351E-06
  0.33043613E-06  0.31492320E-06  0.29677712E-06  0.27620141E-06  0.25341863E-06
  0.22866803E-06  0.20220315E-06  0.17428935E-06  0.14520118E-06  0.11521982E-06
  0.84630394E-07  0.53719353E-07  0.22771868E-07 -0.79307379E-08 -0.38113474E-07
 -0.67510081E-07 -0.95865304E-07 -0.12293705E-06 -0.14849838E-06 -0.17233934E-06
 -0.19426861E-06 -0.21411498E-06 -0.23172859E-06 -0.24698196E-06 -0.25977087E-06
 -0.27001491E-06 -0.27765791E-06 -0.28266804E-06 -0.28503780E-06 -0.28478372E-06
 -0.28194586E-06 -0.27658709E-06 -0.26879223E-06 -0.25866694E-06 -0.24633647E-06
 -0.23194426E-06 -0.21565037E-06 -0.19762977E-06 -0.17807060E-06 -0.15717224E-06
 -0.13514333E-06 -0.11219980E-06 -0.88562778E-07 -0.64456533E-07 -0.40106385E-07
 -0.15736664E-07  0.84313071E-08  0.32181173E-07  0.55303430E-07  0.77597226E-07
  0.98872055E-07  0.11894933E-06  0.13766384E-06  0.15486503E-06  0.17041819E-06
  0.18420543E-06  0.19612650E-06  0.20609948E-06  0.21406124E-06  0.21996773E-06
  0.22379416E-06  0.22553491E-06  0.22520333E-06  0.22283135E-06  0.21846894E-06
  0.21218338E-06  0.20405846E-06  0.19419343E-06  0.18270194E-06  0.16971077E-06
  0.15535853E-06  0.13979423E-06  0.12317578E-06  0.10566846E-06  0.87443310E-07
  0.68675491E-07  0.49542666E-07  0.30223344E-07  0.10895261E-07 -0.82662210E-08
 -0.27089665E-07 -0.45409058E-07 -0.63065232E-07 -0.79907217E-07 -0.95793488E-07
 -0.11059312E-06 -0.12418681E-06 -0.13646783E-06 -0.14734279E-06 -0.15673231E-06
 -0.16457153E-06 -0.17081054E-06 -0.17541458E-06 -0.17836418E-06 -0.17965509E-06
 -0.17929817E-06 -0.17731903E-06 -0.17375761E-06 -0.16866766E-06 -0.16211600E-06
 -0.15418181E-06 -0.14495569E-06 -0.13453872E-06 -0.12304139E-06 -0.11058246E-06
 -0.97287802E-07 -0.83289156E-07 -0.68722848E-07 -0.53728506E-07 -0.38447752E-07
 -0.23022892E-07 -0.75956215E-08  0.76942463E-08  0.22710020E-07  0.37319323E-07
  0.51395233E-07  0.64817356E-07  0.77472826E-07  0.89257224E-07  0.10007541E-06
  0.10984226E-06  0.11848330E-06  0.12593522E-06  0.13214634E-06  0.13707688E-06
  0.14069917E-06  0.14299776E-06  0.14396938E-06  0.14362278E-06  0.14197856E-06
  0.13906876E-06  0.13493646E-06  0.12963522E-06  0.12322846E-06  0.11578879E-06
  0.10739718E-06  0.98142138E-07  0.88118841E-07  0.77428142E-07  0.66175610E-07
  0.54470504E-07  0.42424744E-07  0.30151857E-07  0.17765938E-07  0.53806041E-08
 -0.68920195E-08 -0.18942297E-07 -0.30664038E-07 -0.41955412E-07 -0.52719813E-07
 -0.62866661E-07 -0.72312144E-07 -0.80979885E-07 -0.88801537E-07 -0.95717293E-07
 -0.10167632E-06 -0.10663708E-06 -0.11056763E-06 -0.11344574E-06 -0.11525899E-06
 -0.11600474E-06 -0.11569004E-06 -0.11433144E-06 -0.11195471E-06 -0.10859450E-06
 -0.10429388E-06 -0.99103902E-07 -0.93082961E-07 -0.86296228E-07 -0.78814955E-07
 -0.70715750E-07 -0.62079821E-07 -0.52992182E-07 -0.43540837E-07 -0.33815944E-07
 -0.23908975E-07 -0.13911876E-07 -0.39162245E-08  0.59875870E-08  0.15711155E-07
  0.25168835E-07  0.34278484E-07  0.42962149E-07  0.51146725E-07  0.58764549E-07
  0.65753942E-07  0.72059687E-07  0.77633447E-07  0.82434114E-07  0.86428086E-07
  0.89589473E-07  0.91900237E-07  0.93350250E-07  0.93937289E-07  0.93666951E-07
  0.92552506E-07  0.90614680E-07  0.87881372E-07  0.84387311E-07  0.80173659E-07
  0.75287554E-07  0.69781614E-07  0.63713387E-07  0.57144777E-07  0.50141424E-07
  0.42772068E-07  0.35107889E-07  0.27221836E-07  0.19187943E-07  0.11080653E-07
  0.29741343E-08 -0.50583769E-08 -0.12945232E-07 -0.20616992E-07 -0.28007028E-07
 -0.35052088E-07 -0.41692821E-07 -0.47874269E-07 -0.53546300E-07 -0.58664010E-07
 -0.63188054E-07 -0.67084933E-07 -0.70327228E-07 -0.72893766E-07 -0.74769735E-07
 -0.75946740E-07 -0.76422796E-07 -0.76202267E-07 -0.75295751E-07 -0.73719902E-07
 -0.71497206E-07 -0.68655709E-07 -0.65228692E-07 -0.61254307E-07 -0.56775173E-07
 -0.51837936E-07 -0.46492801E-07 -0.40793029E-07 -0.34794428E-07 -0.28554812E-07
 -0.22133457E-07 -0.15590551E-07 -0.89866356E-08 -0.23820607E-08  0.41635594E-08
  0.10591874E-07  0.16846304E-07  0.22872534E-07  0.28618971E-07  0.34037173E-07
  0.39082255E-07  0.43713241E-07  0.47893388E-07  0.51590470E-07  0.54777003E-07
  0.57430445E-07  0.59533329E-07  0.61073368E-07  0.62043492E-07  0.62441856E-07
  0.62271789E-07  0.61541702E-07  0.60264951E-07  0.58459653E-07  0.56148471E-07
  0.53358348E-07  0.50120218E-07  0.46468676E-07  0.42441624E-07  0.38079887E-07
  0.33426813E-07  0.28527852E-07  0.23430119E-07  0.18181953E-07  0.12832467E-07
  0.74310927E-08  0.20271373E-08 -0.33306620E-08 -0.85945687E-08 -0.13718264E-07
 -0.18657249E-07 -0.23369217E-07 -0.27814417E-07 -0.31955971E-07 -0.35760179E-07
 -0.39196781E-07 -0.42239184E-07 -0.44864667E-07 -0.47054529E-07 -0.48794215E-07
 -0.50073395E-07 -0.50886010E-07 -0.51230270E-07 -0.51108624E-07 -0.50527683E-07
 -0.49498117E-07 -0.48034504E-07 -0.46155158E-07 -0.43881915E-07 -0.41239901E-07
 -0.38257258E-07 -0.34964865E-07 -0.31396021E-07 -0.27586118E-07 -0.23572302E-07
 -0.19393110E-07 -0.15088118E-07 -0.10697564E-07 -0.62619797E-08 -0.18218280E-08
  0.25828662E-08  0.69128674E-08  0.11130073E-07  0.15197845E-07  0.19081316E-07
  0.22747691E-07  0.26166508E-07  0.29309890E-07  0.32152766E-07  0.34673058E-07
  0.36851848E-07  0.38673512E-07  0.40125817E-07  0.41199996E-07  0.41890781E-07
  0.42196415E-07  0.42118622E-07  0.41662554E-07  0.40836701E-07  0.39652779E-07
  0.38125586E-07  0.36272831E-07  0.34114945E-07  0.31674863E-07  0.28977789E-07
  0.26050944E-07  0.22923298E-07  0.19625291E-07  0.16188538E-07  0.12645538E-07
  0.90293669E-08  0.53733765E-08  0.17108917E-08 -0.19250887E-08 -0.55021844E-08
   19.8421228800787      T
 Non local Part
           0           2   1.02412568047728     
   10.1930870350275        12.6622507437899        12.6622507437899     
   15.7314763067456     
 Reciprocal Space Part
  0.11402921E+03  0.11296631E+03  0.10979513E+03  0.10456787E+03  0.97370410E+02
  0.88320727E+02  0.77566629E+02  0.65282995E+02  0.51668485E+02  0.36941840E+02
  0.21337826E+02  0.51029075E+01 -0.11509250E+02 -0.28242362E+02 -0.44842108E+02
 -0.61060600E+02 -0.76660673E+02 -0.91419900E+02 -0.10513426E+03 -0.11762137E+03
 -0.12872328E+03 -0.13830871E+03 -0.14627473E+03 -0.15254788E+03 -0.15708468E+03
 -0.15987156E+03 -0.16092422E+03 -0.16028642E+03 -0.15802829E+03 -0.15424418E+03
 -0.14905007E+03 -0.14258070E+03 -0.13498640E+03 -0.12642969E+03 -0.11708183E+03
 -0.10711932E+03 -0.96720334E+02 -0.86061412E+02 -0.75314199E+02 -0.64642478E+02
 -0.54199472E+02 -0.44125483E+02 -0.34545897E+02 -0.25569592E+02 -0.17287751E+02
 -0.97731074E+01 -0.30795993E+01  0.27575614E+01  0.77214364E+01  0.11812549E+02
  0.15047747E+02  0.17458788E+02  0.19090682E+02  0.19999853E+02  0.20252158E+02
  0.19920831E+02  0.19084387E+02  0.17824542E+02  0.16224206E+02  0.14365574E+02
  0.12328365E+02  0.10188239E+02  0.80154157E+01  0.58735224E+01  0.38186738E+01
  0.18988010E+01  0.15322410E+00 -0.13875342E+01 -0.27017067E+01 -0.37760265E+01
 -0.46052812E+01 -0.51916980E+01 -0.55441892E+01 -0.56774865E+01 -0.56111934E+01
 -0.53687873E+01 -0.49766004E+01 -0.44628082E+01 -0.38564517E+01 -0.31865174E+01
 -0.24810957E+01 -0.17666348E+01 -0.10673044E+01 -0.40447686E+00  0.20366628E+00
  0.74240210E+00  0.12006098E+01  0.15707953E+01  0.18490047E+01  0.20346387E+01
  0.21301795E+01  0.21408455E+01  0.20741906E+01  0.19396623E+01  0.17481366E+01
  0.15114450E+01  0.12419094E+01  0.95189745E+00  0.65341195E+00  0.35772367E+00
 Real Space Part
 -0.84555395E+03 -0.84516446E+03 -0.84399628E+03 -0.84205026E+03 -0.83932785E+03
 -0.83583107E+03 -0.83156255E+03 -0.82652550E+03 -0.82072380E+03 -0.81416194E+03
 -0.80684508E+03 -0.79877909E+03 -0.78997054E+03 -0.78042675E+03 -0.77015583E+03
 -0.75916670E+03 -0.74746913E+03 -0.73507379E+03 -0.72199227E+03 -0.70823715E+03
 -0.69382203E+03 -0.67876159E+03 -0.66307162E+03 -0.64676907E+03 -0.62987213E+03
 -0.61240026E+03 -0.59437422E+03 -0.57581616E+03 -0.55674968E+03 -0.53719981E+03
 -0.51719315E+03 -0.49675782E+03 -0.47592360E+03 -0.45472190E+03 -0.43318583E+03
 -0.41135021E+03 -0.38925162E+03 -0.36692838E+03 -0.34442062E+03 -0.32177021E+03
 -0.29902080E+03 -0.27621778E+03 -0.25340825E+03 -0.23064098E+03 -0.20796633E+03
 -0.18543618E+03 -0.16310382E+03 -0.14102384E+03 -0.11925199E+03 -0.97845005E+02
 -0.76860421E+02 -0.56356359E+02 -0.36391280E+02 -0.17023718E+02  0.16880239E+01
  0.19686198E+02  0.36913970E+02  0.53315809E+02  0.68837899E+02  0.83428577E+02
  0.97038804E+02  0.10962265E+03  0.12113779E+03  0.13154603E+03  0.14081386E+03
  0.14891294E+03  0.15582064E+03  0.16152060E+03  0.16600316E+03  0.16926589E+03
  0.17131399E+03  0.17216070E+03  0.17182759E+03  0.17034488E+03  0.16775156E+03
  0.16409557E+03  0.15943374E+03  0.15383172E+03  0.14736381E+03  0.14011260E+03
  0.13216855E+03  0.12362952E+03  0.11460002E+03  0.10519054E+03  0.95516619E+02
  0.85697969E+02  0.75857382E+02  0.66119693E+02  0.56610591E+02  0.47455474E+02
  0.38778242E+02  0.30700107E+02  0.23338432E+02  0.16805599E+02  0.11207914E+02
  0.66447457E+01  0.32074954E+01  0.97496963E+00  0.36871773E-01  0.00000000E+00
 Reciprocal Space Part
 -0.86089778E+02 -0.85248454E+02 -0.82738411E+02 -0.78601170E+02 -0.72905056E+02
 -0.65743904E+02 -0.57235283E+02 -0.47518279E+02 -0.36750884E+02 -0.25107040E+02
 -0.12773409E+02  0.54071494E-01  0.13173774E+02  0.26382034E+02  0.39476791E+02
  0.52261157E+02  0.64546831E+02  0.76157291E+02  0.86930712E+02  0.96722553E+02
  0.10540775E+03  0.11288252E+03  0.11906569E+03  0.12389955E+03  0.12735031E+03
  0.12940798E+03  0.13008589E+03  0.12941971E+03  0.12746607E+03  0.12430089E+03
  0.12001727E+03  0.11472319E+03  0.10853899E+03  0.10159470E+03  0.94027220E+02
  0.85977522E+02  0.77587887E+02  0.68999182E+02  0.60348307E+02  0.51765814E+02
  0.43373762E+02  0.35283839E+02  0.27595778E+02  0.20396085E+02  0.13757107E+02
  0.77364312E+01  0.23766189E+01 -0.22947325E+01 -0.62646216E+01 -0.95339868E+01
 -0.12116794E+02 -0.14038897E+02 -0.15336714E+02 -0.16055750E+02 -0.16249016E+02
 -0.15975378E+02 -0.15297885E+02 -0.14282105E+02 -0.12994519E+02 -0.11500999E+02
 -0.98654007E+01 -0.81483000E+01 -0.64058923E+01 -0.46890721E+01 -0.30427029E+01
 -0.15050827E+01 -0.10760634E+00  0.11253805E+01  0.21765441E+01  0.30353560E+01
  0.36977325E+01  0.41655414E+01  0.44459955E+01  0.45509581E+01  0.44961836E+01
  0.43005182E+01  0.39850833E+01  0.35724661E+01  0.30859370E+01  0.25487137E+01
  0.19832883E+01  0.14108309E+01  0.85068071E+00  0.31993264E+00 -0.16687715E+00
 -0.59798435E+00 -0.96451033E+00 -0.12604807E+01 -0.14827553E+01 -0.16308787E+01
 -0.17068605E+01 -0.17148991E+01 -0.16610599E+01 -0.15529212E+01 -0.13992017E+01
 -0.12093824E+01 -0.99333326E+00 -0.76095819E+00 -0.52186618E+00 -0.28507778E+00
 Real Space Part
  0.68421207E+03  0.68389841E+03  0.68295763E+03  0.68139044E+03  0.67919799E+03
  0.67638190E+03  0.67294430E+03  0.66888777E+03  0.66421542E+03  0.65893087E+03
  0.65303827E+03  0.64654233E+03  0.63944834E+03  0.63176220E+03  0.62349040E+03
  0.61464014E+03  0.60521926E+03  0.59523633E+03  0.58470069E+03  0.57362244E+03
  0.56201251E+03  0.54988270E+03  0.53724570E+03  0.52411515E+03  0.51050564E+03
  0.49643283E+03  0.48191340E+03  0.46696515E+03  0.45160703E+03  0.43585917E+03
  0.41974293E+03  0.40328092E+03  0.38649705E+03  0.36941657E+03  0.35206608E+03
  0.33447355E+03  0.31666838E+03  0.29868135E+03  0.28054469E+03  0.26229206E+03
  0.24395851E+03  0.22558053E+03  0.20719595E+03  0.18884396E+03  0.17056501E+03
  0.15240079E+03  0.13439413E+03  0.11658889E+03  0.99029860E+02  0.81762646E+02
  0.64833484E+02  0.48289086E+02  0.32176443E+02  0.16542608E+02  0.14344513E+01
 -0.13101595E+02 -0.27019830E+02 -0.40275591E+02 -0.52825587E+02 -0.64628253E+02
 -0.75644120E+02 -0.85836209E+02 -0.95170435E+02 -0.10361602E+03 -0.11114593E+03
 -0.11773729E+03 -0.12337179E+03 -0.12803615E+03 -0.13172249E+03 -0.13442868E+03
 -0.13615875E+03 -0.13692315E+03 -0.13673905E+03 -0.13563052E+03 -0.13362871E+03
 -0.13077192E+03 -0.12710559E+03 -0.12268227E+03 -0.11756143E+03 -0.11180919E+03
 -0.10549805E+03 -0.98706373E+02 -0.91517932E+02 -0.84021286E+02 -0.76309060E+02
 -0.68477242E+02 -0.60624302E+02 -0.52850368E+02 -0.45256265E+02 -0.37942603E+02
 -0.31008802E+02 -0.24552145E+02 -0.18666839E+02 -0.13443111E+02 -0.89663274E+01
 -0.53163035E+01 -0.25664733E+01 -0.78018965E+00 -0.29491256E-01  0.00000000E+00
 Non local Part
           1           2   1.02412568047728     
   3.04637079513563        4.71904544741492        4.71904544741492     
   7.32775172424774     
 Reciprocal Space Part
  0.00000000E+00  0.44098728E+01  0.87065327E+01  0.12779157E+02  0.16521651E+02
  0.19834879E+02  0.22628750E+02  0.24824091E+02  0.26354294E+02  0.27166683E+02
  0.27223573E+02  0.26503009E+02  0.24999166E+02  0.22722396E+02  0.19698939E+02
  0.15970286E+02  0.11592237E+02  0.66336535E+01  0.11749493E+01 -0.46936471E+01
 -0.10874019E+02 -0.17262233E+02 -0.23750702E+02 -0.30230404E+02 -0.36593089E+02
 -0.42733446E+02 -0.48551167E+02 -0.53952872E+02 -0.58853852E+02 -0.63179604E+02
 -0.66867114E+02 -0.69865875E+02 -0.72138627E+02 -0.73661789E+02 -0.74425611E+02
 -0.74434020E+02 -0.73704187E+02 -0.72265836E+02 -0.70160294E+02 -0.67439342E+02
 -0.64163870E+02 -0.60402385E+02 -0.56229410E+02 -0.51723811E+02 -0.46967083E+02
 -0.42041650E+02 -0.37029203E+02 -0.32009121E+02 -0.27057001E+02 -0.22243325E+02
 -0.17632298E+02 -0.13280868E+02 -0.92379416E+01 -0.55438144E+01 -0.22298101E+01
  0.68186637E+00  0.31780700E+01  0.52544617E+01  0.69150726E+01  0.81717073E+01
  0.90432058E+01  0.95545889E+01  0.97361138E+01  0.96222645E+01  0.92507067E+01
  0.86612325E+01  0.78947202E+01  0.69921351E+01  0.59935914E+01  0.49374954E+01
  0.38597862E+01  0.27932864E+01  0.17671728E+01  0.80657323E+00 -0.67709463E-01
 -0.83934497E+00 -0.14965010E+01 -0.20317525E+01 -0.24418850E+01 -0.27276042E+01
 -0.28931645E+01 -0.29459335E+01 -0.28959061E+01 -0.27551867E+01 -0.25374540E+01
 -0.22574252E+01 -0.19303333E+01 -0.15714326E+01 -0.11955417E+01 -0.81663699E+00
 -0.44750207E+00 -0.99440706E-01  0.21794379E+00  0.49690093E+00  0.73161759E+00
  0.91823722E+00  0.10548178E+01  0.11412344E+01  0.11790327E+01  0.11712425E+01
 Real Space Part
  0.00000000E+00 -0.16325202E+02 -0.32603732E+02 -0.48789040E+02 -0.64834805E+02
 -0.80695065E+02 -0.96324323E+02 -0.11167767E+03 -0.12671091E+03 -0.14138064E+03
 -0.15564443E+03 -0.16946086E+03 -0.18278971E+03 -0.19559201E+03 -0.20783019E+03
 -0.21946818E+03 -0.23047153E+03 -0.24080750E+03 -0.25044516E+03 -0.25935555E+03
 -0.26751173E+03 -0.27488890E+03 -0.28146450E+03 -0.28721831E+03 -0.29213256E+03
 -0.29619199E+03 -0.29938398E+03 -0.30169860E+03 -0.30312873E+03 -0.30367010E+03
 -0.30332142E+03 -0.30208440E+03 -0.29996382E+03 -0.29696763E+03 -0.29310698E+03
 -0.28839625E+03 -0.28285310E+03 -0.27649852E+03 -0.26935682E+03 -0.26145566E+03
 -0.25282603E+03 -0.24350224E+03 -0.23352191E+03 -0.22292589E+03 -0.21175822E+03
 -0.20006607E+03 -0.18789956E+03 -0.17531176E+03 -0.16235842E+03 -0.14909790E+03
 -0.13559093E+03 -0.12190037E+03 -0.10809101E+03 -0.94229269E+02 -0.80382859E+02
 -0.66620480E+02 -0.53011430E+02 -0.39625199E+02 -0.26531040E+02 -0.13797496E+02
 -0.14919107E+01  0.10320098E+02  0.21575180E+02  0.32212820E+02  0.42175916E+02
  0.51411372E+02  0.59870691E+02  0.67510568E+02  0.74293469E+02  0.80188192E+02
  0.85170403E+02  0.89223127E+02  0.92337192E+02  0.94511615E+02  0.95753917E+02
  0.96080376E+02  0.95516153E+02  0.94095351E+02  0.91860985E+02  0.88864782E+02
  0.85166933E+02  0.80835698E+02  0.75946870E+02  0.70583208E+02  0.64833633E+02
  0.58792476E+02  0.52558481E+02  0.46233867E+02  0.39923208E+02  0.33732355E+02
  0.27767267E+02  0.22132846E+02  0.16931793E+02  0.12263458E+02  0.82227304E+01
  0.48990903E+01  0.23755628E+01  0.72548963E+00  0.24595634E-01  0.00000000E+00
 Reciprocal Space Part
  0.00000000E+00 -0.25858305E+01 -0.51010119E+01 -0.74764051E+01 -0.96458578E+01
 -0.11547615E+02 -0.13125632E+02 -0.14330760E+02 -0.15121783E+02 -0.15466278E+02
 -0.15341279E+02 -0.14733741E+02 -0.13640784E+02 -0.12069720E+02 -0.10037857E+02
 -0.75720945E+01 -0.47083143E+01 -0.14905869E+01  0.20297923E+01  0.57954098E+01
  0.97439597E+01  0.13809559E+02  0.17924125E+02  0.22018778E+02  0.26025246E+02
  0.29877230E+02  0.33511717E+02  0.36870191E+02  0.39899733E+02  0.42553990E+02
  0.44793974E+02  0.46588703E+02  0.47915655E+02  0.48761030E+02  0.49119835E+02
  0.48995772E+02  0.48400949E+02  0.47355424E+02  0.45886595E+02  0.44028452E+02
  0.41820710E+02  0.39307856E+02  0.36538115E+02  0.33562384E+02  0.30433131E+02
  0.27203313E+02  0.23925316E+02  0.20649946E+02  0.17425497E+02  0.14296906E+02
  0.11305016E+02  0.84859548E+01  0.58706482E+01  0.34844601E+01  0.13469735E+01
 -0.52809450E+00 -0.21328450E+01 -0.34650255E+01 -0.45277424E+01 -0.53290705E+01
 -0.58815731E+01 -0.62017485E+01 -0.63094190E+01 -0.62270802E+01 -0.59792278E+01
 -0.55916787E+01 -0.50909035E+01 -0.45033853E+01 -0.38550190E+01 -0.31705636E+01
 -0.24731567E+01 -0.17839017E+01 -0.11215310E+01 -0.50215095E+00  0.60930924E-01
  0.55729712E+00  0.97943220E+00  0.13226607E+01  0.15850173E+01  0.17670564E+01
  0.18716112E+01  0.19035106E+01  0.18692653E+01  0.17767332E+01  0.16347741E+01
  0.14529045E+01  0.12409616E+01  0.10087844E+01  0.76592174E+00  0.52137012E+00
  0.28335005E+00  0.59122206E-01 -0.14515322E+00 -0.32451317E+00 -0.47524483E+00
 -0.59489663E+00 -0.68225000E+00 -0.73725544E+00 -0.76093741E+00 -0.75527325E+00
 Real Space Part
  0.00000000E+00  0.10754106E+02  0.21477698E+02  0.32140342E+02  0.42711755E+02
  0.53161883E+02  0.63460980E+02  0.73579682E+02  0.83489082E+02  0.93160810E+02
  0.10256710E+03  0.11168088E+03  0.12047582E+03  0.12892644E+03  0.13700816E+03
  0.14469736E+03  0.15197150E+03  0.15880914E+03  0.16519003E+03  0.17109519E+03
  0.17650697E+03  0.18140910E+03  0.18578678E+03  0.18962673E+03  0.19291726E+03
  0.19564834E+03  0.19781163E+03  0.19940055E+03  0.20041036E+03  0.20083817E+03
  0.20068303E+03  0.19994594E+03  0.19862992E+03  0.19674003E+03  0.19428343E+03
  0.19126937E+03  0.18770926E+03  0.18361665E+03  0.17900729E+03  0.17389907E+03
  0.16831209E+03  0.16226858E+03  0.15579296E+03  0.14891173E+03  0.14165350E+03
  0.13404887E+03  0.12613043E+03  0.11793264E+03  0.10949175E+03  0.10084571E+03
  0.92033991E+02  0.83097501E+02  0.74078389E+02  0.65019875E+02  0.55966044E+02
  0.46961632E+02  0.38051777E+02  0.29281761E+02  0.20696724E+02  0.12341366E+02
  0.42596238E+01 -0.35056691E+01 -0.10913133E+02 -0.17923212E+02 -0.24498546E+02
 -0.30604360E+02 -0.36208848E+02 -0.41283555E+02 -0.45803759E+02 -0.49748832E+02
 -0.53102589E+02 -0.55853611E+02 -0.57995534E+02 -0.59527298E+02 -0.60453358E+02
 -0.60783845E+02 -0.60534659E+02 -0.59727499E+02 -0.58389855E+02 -0.56554877E+02
 -0.54261216E+02 -0.51552777E+02 -0.48478366E+02 -0.45091331E+02 -0.41449042E+02
 -0.37612404E+02 -0.33645212E+02 -0.29613552E+02 -0.25585066E+02 -0.21628264E+02
 -0.17811758E+02 -0.14203517E+02 -0.10870116E+02 -0.78759978E+01 -0.52827485E+01
 -0.31484826E+01 -0.15271645E+01 -0.46653062E+00 -0.15788220E-01  0.00000000E+00
 PAW radial sets
         379  0.958667401852038     
(5E20.12)                                
 augmentation charges (non sperical)
 -0.219385249675E+00 -0.274273313259E+00 -0.101499933539E+00 -0.158504200327E+00 -0.274273313259E+00
 -0.342914378658E+00 -0.126533583448E+00 -0.197625105588E+00 -0.101499933539E+00 -0.126533583448E+00
 -0.394146959390E-01 -0.608640507817E-01 -0.158504200327E+00 -0.197625105588E+00 -0.608640507817E-01
 -0.939924935514E-01
 uccopancies in atom
  0.200000000075E+01  0.000000000000E+00  0.000000000000E+00  0.000000000000E+00  0.000000000000E+00
  0.000000000000E+00  0.000000000000E+00  0.000000000000E+00  0.000000000000E+00  0.000000000000E+00
  0.999999999364E+00  0.000000000000E+00  0.000000000000E+00  0.000000000000E+00  0.000000000000E+00
  0.000000000000E+00
 grid
  0.364995333669E-04  0.376864071368E-04  0.389118750808E-04  0.401771921851E-04  0.414836542452E-04
  0.428325991922E-04  0.442254084636E-04  0.456635084180E-04  0.471483717952E-04  0.486815192252E-04
  0.502645207848E-04  0.518989976061E-04  0.535866235361E-04  0.553291268512E-04  0.571282920271E-04
  0.589859615662E-04  0.609040378844E-04  0.628844852594E-04  0.649293318424E-04  0.670406717350E-04
  0.692206671339E-04  0.714715505446E-04  0.737956270686E-04  0.761952767633E-04  0.786729570797E-04
  0.812312053789E-04  0.838726415307E-04  0.865999705967E-04  0.894159856000E-04  0.923235703861E-04
  0.953257025759E-04  0.984254566151E-04  0.101626006923E-03  0.104930631142E-03  0.108342713497E-03
  0.111865748258E-03  0.115503343320E-03  0.119259223899E-03  0.123137236345E-03  0.127141352081E-03
  0.131275671672E-03  0.135544429022E-03  0.139951995712E-03  0.144502885475E-03  0.149201758820E-03
  0.154053427804E-03  0.159062860960E-03  0.164235188385E-03  0.169575706995E-03  0.175089885946E-03
  0.180783372241E-03  0.186661996507E-03  0.192731778969E-03  0.198998935614E-03  0.205469884559E-03
  0.212151252620E-03  0.219049882102E-03  0.226172837806E-03  0.233527414259E-03  0.241121143191E-03
  0.248961801244E-03  0.257057417937E-03  0.265416283888E-03  0.274046959308E-03  0.282958282761E-03
  0.292159380222E-03  0.301659674418E-03  0.311468894481E-03  0.321597085910E-03  0.332054620857E-03
  0.342852208752E-03  0.354000907269E-03  0.365512133649E-03  0.377397676394E-03  0.389669707339E-03
  0.402340794114E-03  0.415423913021E-03  0.428932462317E-03  0.442880275936E-03  0.457281637658E-03
  0.472151295737E-03  0.487504478001E-03  0.503356907450E-03  0.519724818359E-03  0.536624972897E-03
  0.554074678300E-03  0.572091804591E-03  0.590694802882E-03  0.609902724268E-03  0.629735239340E-03
  0.650212658326E-03  0.671355951893E-03  0.693186772620E-03  0.715727477176E-03  0.739001149212E-03
  0.763031623002E-03  0.787843507851E-03  0.813462213297E-03  0.839913975134E-03  0.867225882276E-03
  0.895425904504E-03  0.924542921104E-03  0.954606750445E-03  0.985648180517E-03  0.101769900046E-02
  0.105079203310E-02  0.108496116861E-02  0.112024139917E-02  0.115666885481E-02  0.119428084043E-02
  0.123311587400E-02  0.127321372597E-02  0.131461546006E-02  0.135736347526E-02  0.140150154927E-02
  0.144707488333E-02  0.149413014852E-02  0.154271553356E-02  0.159288079410E-02  0.164467730377E-02
  0.169815810673E-02  0.175337797197E-02  0.181039344948E-02  0.186926292807E-02  0.193004669525E-02
  0.199280699890E-02  0.205760811106E-02  0.212451639373E-02  0.219360036684E-02  0.226493077840E-02
  0.233858067700E-02  0.241462548657E-02  0.249314308364E-02  0.257421387709E-02  0.265792089050E-02
  0.274434984716E-02  0.283358925787E-02  0.292573051159E-02  0.302086796903E-02  0.311909905924E-02
  0.322052437944E-02  0.332524779803E-02  0.343337656095E-02  0.354502140148E-02  0.366029665371E-02
  0.377932036957E-02  0.390221443974E-02  0.402910471848E-02  0.416012115254E-02  0.429539791419E-02
  0.443507353865E-02  0.457929106597E-02  0.472819818750E-02  0.488194739715E-02  0.504069614753E-02
  0.520460701125E-02  0.537384784735E-02  0.554859197324E-02  0.572901834216E-02  0.591531172650E-02
  0.610766290695E-02  0.630626886792E-02  0.651133299929E-02  0.672306530464E-02  0.694168261635E-02
  0.716740881765E-02  0.740047507191E-02  0.764112005932E-02  0.788959022138E-02  0.814614001326E-02
  0.841103216436E-02  0.868453794739E-02  0.896693745616E-02  0.925851989246E-02  0.955958386218E-02
  0.987043768114E-02  0.101913996908E-01  0.105227985843E-01  0.108649737431E-01  0.112182755844E-01
  0.115830659203E-01  0.119597183278E-01  0.123486185319E-01  0.127501648006E-01  0.131647683521E-01
  0.135928537768E-01  0.140348594716E-01  0.144912380890E-01  0.149624570004E-01  0.154489987753E-01
  0.159513616749E-01  0.164700601628E-01  0.170056254315E-01  0.175586059467E-01  0.181295680087E-01
  0.187190963326E-01  0.193277946470E-01  0.199562863119E-01  0.206052149579E-01  0.212752451446E-01
  0.219670630415E-01  0.226813771305E-01  0.234189189317E-01  0.241804437523E-01  0.249667314603E-01
  0.257785872830E-01  0.266168426317E-01  0.274823559532E-01  0.283760136087E-01  0.292987307817E-01
  0.302514524154E-01  0.312351541798E-01  0.322508434715E-01  0.332995604452E-01  0.343823790786E-01
  0.355004082727E-01  0.366547929871E-01  0.378467154125E-01  0.390773961817E-01  0.403480956194E-01
  0.416601150327E-01  0.430147980443E-01  0.444135319679E-01  0.458577492293E-01  0.473489288331E-01
  0.488885978776E-01  0.504783331185E-01  0.521197625835E-01  0.538145672398E-01  0.555644827155E-01
  0.573713010770E-01  0.592368726641E-01  0.611631079852E-01  0.631519796736E-01  0.652055245077E-01
  0.673258454968E-01  0.695151140349E-01  0.717755721243E-01  0.741095346716E-01  0.765193918585E-01
  0.790076115892E-01  0.815767420182E-01  0.842294141595E-01  0.869683445813E-01  0.897963381876E-01
  0.927162910910E-01  0.957311935784E-01  0.988441331735E-01  0.102058297798E+00  0.105376979038E+00
  0.108803575513E+00  0.112341596357E+00  0.115994664813E+00  0.119766521941E+00  0.123661030454E+00
  0.127682178668E+00  0.131834084590E+00  0.136121000135E+00  0.140547315479E+00  0.145117563556E+00
  0.149836424698E+00  0.154708731433E+00  0.159739473429E+00  0.164933802603E+00  0.170297038404E+00
  0.175834673254E+00  0.181552378174E+00  0.187456008595E+00  0.193551610349E+00  0.199845425865E+00
  0.206343900561E+00  0.213053689442E+00  0.219981663919E+00  0.227134918842E+00  0.234520779771E+00
  0.242146810471E+00  0.250020820665E+00  0.258150874028E+00  0.266545296443E+00  0.275212684535E+00
  0.284161914464E+00  0.293402151025E+00  0.302942857028E+00  0.312793802988E+00  0.322965077136E+00
  0.333467095745E+00  0.344310613800E+00  0.355506736011E+00  0.367066928185E+00  0.379003028970E+00
  0.391327261975E+00  0.404052248292E+00  0.417191019420E+00  0.430757030607E+00  0.444764174635E+00
  0.459226796043E+00  0.474159705820E+00  0.489578196569E+00  0.505498058174E+00  0.521935593962E+00
  0.538907637408E+00  0.556431569366E+00  0.574525335875E+00  0.593207466532E+00  0.612497093472E+00
  0.632413970958E+00  0.652978495614E+00  0.674211727309E+00  0.696135410729E+00  0.718771997640E+00
  0.742144669887E+00  0.766277363127E+00  0.791194791348E+00  0.816922472173E+00  0.843486752995E+00
  0.870914837961E+00  0.899234815824E+00  0.928475688718E+00  0.958667401852E+00  0.989840874178E+00
  0.102202803005E+01  0.105526183194E+01  0.108957631416E+01  0.112500661774E+01  0.116158902640E+01
  0.119936100373E+01  0.123836123153E+01  0.127862964945E+01  0.132020749585E+01  0.136313735010E+01
  0.140746317612E+01  0.145323036741E+01  0.150048579360E+01  0.154927784835E+01  0.159965649900E+01
  0.165167333770E+01  0.170538163422E+01  0.176083639055E+01  0.181809439723E+01  0.187721429143E+01
  0.193825661711E+01  0.200128388694E+01  0.206636064635E+01  0.213355353963E+01  0.220293137818E+01
  0.227456521095E+01  0.234852839727E+01  0.242489668189E+01  0.250374827260E+01  0.258516392034E+01
  0.266922700183E+01  0.275602360503E+01  0.284564261722E+01  0.293817581613E+01  0.303371796381E+01
  0.313236690380E+01  0.323422366121E+01  0.333939254627E+01  0.344798126111E+01  0.356010101006E+01
  0.367586661354E+01  0.379539662565E+01  0.391881345556E+01  0.404624349289E+01  0.417781723713E+01
  0.431366943131E+01  0.445393919992E+01  0.459877019149E+01  0.474831072558E+01  0.490271394479E+01
  0.506213797150E+01  0.522674606985E+01  0.539670681290E+01  0.557219425532E+01  0.575338811158E+01
  0.594047394002E+01  0.613364333288E+01  0.633309411249E+01  0.653903053390E+01
 aepotential
  0.236068363041E+05  0.234359023909E+05  0.232247082673E+05  0.229747757311E+05  0.226876252279E+05
  0.223656906430E+05  0.220109632555E+05  0.216258221804E+05  0.212130374974E+05  0.207752767571E+05
  0.203150943489E+05  0.198355231592E+05  0.193393087194E+05  0.188291696744E+05  0.183079426989E+05
  0.177782865904E+05  0.172427549423E+05  0.167038008643E+05  0.161637609615E+05  0.156247923766E+05
  0.150888981228E+05  0.145579260299E+05  0.140335354530E+05  0.135172174451E+05  0.130102923509E+05
  0.125139027675E+05  0.120290328763E+05  0.115565034841E+05  0.110969871113E+05  0.106510144604E+05
  0.102189849323E+05  0.980117742686E+04  0.939776073521E+04  0.900880459375E+04  0.863429033565E+04
  0.827412131409E+04  0.792813297534E+04  0.759610220818E+04  0.727775662193E+04  0.697278219787E+04
  0.668083175583E+04  0.640153106594E+04  0.613448520205E+04  0.587928536531E+04  0.563551175393E+04
  0.540273970434E+04  0.518054152135E+04  0.496849312637E+04  0.476617153391E+04  0.457316216256E+04
  0.438906012685E+04  0.421346431086E+04  0.404599340617E+04  0.388626886051E+04  0.373393352853E+04
  0.358863475681E+04  0.345004022867E+04  0.331782701075E+04  0.319168604134E+04  0.307132500614E+04
  0.295645885005E+04  0.284682165409E+04  0.274215539933E+04  0.264221605063E+04  0.254677297231E+04
  0.245560330845E+04  0.236849819803E+04  0.228525847545E+04  0.220569481221E+04  0.212962702990E+04
  0.205688428992E+04  0.198730716661E+04  0.192074010872E+04  0.185703757732E+04  0.179606307319E+04
  0.173768523594E+04  0.168177905623E+04  0.162822886441E+04  0.157692131035E+04  0.152775153629E+04
  0.148061864583E+04  0.143542862289E+04  0.139208945253E+04  0.135051713266E+04  0.131062898229E+04
  0.127234861270E+04  0.123560279749E+04  0.120032129158E+04  0.116643829562E+04  0.113389133139E+04
  0.110262004155E+04  0.107256811613E+04  0.104368170243E+04  0.101590910814E+04  0.989201893920E+03
  0.963513176224E+03  0.938799283264E+03  0.915017703937E+03  0.892128601329E+03  0.870093565666E+03
  0.848876490436E+03  0.828442478062E+03  0.808758564102E+03  0.789793212398E+03  0.771516343561E+03
  0.753899180206E+03  0.736914291373E+03  0.720535958072E+03  0.704738500821E+03  0.689498470224E+03
  0.674792878847E+03  0.660600147432E+03  0.646899102569E+03  0.633669945712E+03  0.620893652541E+03
  0.608551806617E+03  0.596626937723E+03  0.585102308016E+03  0.573961820052E+03  0.563190098094E+03
  0.552772397737E+03  0.542694465230E+03  0.532942826422E+03  0.523504376039E+03  0.514366611380E+03
  0.505517502061E+03  0.496945507502E+03  0.488639504620E+03  0.480588828312E+03  0.472783211524E+03
  0.465212770468E+03  0.457867996078E+03  0.450739736461E+03  0.443819154225E+03  0.437097771872E+03
  0.430567377400E+03  0.424220077525E+03  0.418048251615E+03  0.412044530179E+03  0.406201820875E+03
  0.400513250859E+03  0.394972193887E+03  0.389572236585E+03  0.384307173560E+03  0.379171020476E+03
  0.374157931986E+03  0.369262332861E+03  0.364478734423E+03  0.359801866982E+03  0.355226611330E+03
  0.350747993571E+03  0.346361193797E+03  0.342061519328E+03  0.337844435351E+03  0.333705508653E+03
  0.329640442003E+03  0.325645062955E+03  0.321715292360E+03  0.317847180225E+03  0.314036859102E+03
  0.310280589113E+03  0.306574694264E+03  0.302915616590E+03  0.299299870914E+03  0.295724069682E+03
  0.292184899067E+03  0.288679131064E+03  0.285203609470E+03  0.281755263093E+03  0.278331084139E+03
  0.274928141697E+03  0.271543571874E+03  0.268174583151E+03  0.264818446232E+03  0.261472499730E+03
  0.258134148838E+03  0.254800860429E+03  0.251470167080E+03  0.248139664729E+03  0.244807012515E+03
  0.241469933276E+03  0.238126214837E+03  0.234773708338E+03  0.231410331518E+03  0.228034067430E+03
  0.224642967884E+03  0.221235152549E+03  0.217808812578E+03  0.214362211321E+03  0.210893686873E+03
  0.207401654730E+03  0.203884608980E+03  0.200341129515E+03  0.196769877134E+03  0.193169606603E+03
  0.189539163597E+03  0.185877494139E+03  0.182183641673E+03  0.178456762539E+03  0.174696121752E+03
  0.170901106362E+03  0.167071227354E+03  0.163206128863E+03  0.159305597765E+03  0.155369569511E+03
  0.151398140369E+03  0.147391578475E+03  0.143350333815E+03  0.139275055419E+03  0.135166602484E+03
  0.131026064809E+03  0.126854779237E+03  0.122654350771E+03  0.118426675927E+03  0.114173966698E+03
  0.109898777547E+03  0.105604034017E+03  0.101293061860E+03  0.969696176104E+02  0.926379170010E+02
  0.883026618122E+02  0.839690603347E+02  0.796428400752E+02  0.753302467340E+02  0.710380241347E+02
  0.667733692999E+02  0.625438536771E+02  0.583573021615E+02  0.542216223692E+02  0.501445752941E+02
  0.461334853757E+02  0.421948919050E+02  0.383341564271E+02  0.345550596133E+02  0.308594460357E+02
  0.272470131216E+02  0.237153844155E+02  0.202606519146E+02  0.168785979360E+02  0.135667855016E+02
  0.103275559346E+02  0.717171120324E+01  0.412217475754E+01  0.121643928951E+01 -0.149371313021E+01
 -0.394649594298E+01 -0.607871635775E+01 -0.783749546309E+01 -0.919251491540E+01 -0.101455146887E+02
 -0.107340144724E+02 -0.110273089098E+02 -0.111148106594E+02 -0.110896878709E+02 -0.110331787546E+02
 -0.110048823502E+02 -0.110411328858E+02 -0.111595306091E+02 -0.113658689170E+02 -0.116601886071E+02
 -0.120406625133E+02 -0.125053271576E+02 -0.130524755583E+02 -0.136804190524E+02 -0.143871615255E+02
 -0.151701785937E+02 -0.160263922297E+02 -0.169522449061E+02 -0.179438673106E+02 -0.189972273892E+02
 -0.201082660062E+02 -0.212729972107E+02 -0.224875574313E+02 -0.237482227018E+02 -0.250514056314E+02
 -0.263936114147E+02 -0.277713975090E+02 -0.291812946151E+02 -0.306197267942E+02 -0.320829057434E+02
 -0.335667024411E+02 -0.350665019389E+02 -0.365770285264E+02 -0.380921625842E+02 -0.396047476904E+02
 -0.411064266631E+02 -0.425875464805E+02 -0.440371941598E+02 -0.454434409199E+02 -0.467938813227E+02
 -0.480765239685E+02 -0.492810760689E+02 -0.504006021808E+02 -0.514334970639E+02 -0.523856422391E+02
 -0.532724095625E+02 -0.541194930524E+02 -0.549599192757E+02 -0.558221492347E+02 -0.567040039311E+02
 -0.575374186823E+02 -0.581748411143E+02 -0.584436585745E+02 -0.582637900755E+02 -0.577242990186E+02
 -0.570219948805E+02 -0.563244822328E+02 -0.557000178251E+02 -0.551423630911E+02 -0.546206287827E+02
 -0.541077631527E+02 -0.535875875124E+02 -0.530527006367E+02 -0.525007288766E+02 -0.519314348841E+02
 -0.513450499265E+02 -0.507415686538E+02 -0.501206173406E+02 -0.494816031973E+02 -0.488239402673E+02
 -0.481472378180E+02 -0.474514444822E+02 -0.467368926964E+02 -0.460043244050E+02 -0.452548546664E+02
 -0.444899176264E+02 -0.437112045257E+02 -0.429205850296E+02 -0.421200237018E+02 -0.413115072974E+02
 -0.404969513410E+02 -0.396781299124E+02 -0.388566062039E+02 -0.380336790771E+02 -0.372103585502E+02
 -0.363873685519E+02 -0.355651877597E+02 -0.347441234726E+02 -0.339244117585E+02 -0.331063297798E+02
 -0.322903058940E+02 -0.314770077412E+02 -0.306674021902E+02 -0.298627769363E+02 -0.290647259868E+02
 -0.282751026040E+02 -0.274959461988E+02 -0.267293900851E+02 -0.259775566853E+02 -0.252424466493E+02
 -0.245258289865E+02 -0.238291407208E+02 -0.231534059404E+02 -0.224991842274E+02 -0.218665562670E+02
 -0.212551496902E+02 -0.206642018830E+02 -0.200926503935E+02 -0.195392375931E+02 -0.190026154462E+02
 -0.184814384752E+02 -0.179744371498E+02 -0.174804685392E+02 -0.169985449701E+02 -0.165278440138E+02
 -0.160677043382E+02 -0.156176120731E+02 -0.151771817651E+02 -0.147461351123E+02 -0.143242797348E+02
 -0.139114894138E+02 -0.135076865810E+02 -0.131128273733E+02 -0.127268892599E+02 -0.123498610683E+02
 -0.119817351408E+02 -0.116225013249E+02 -0.112721425024E+02 -0.109306313897E+02
 core charge-density
  0.754901843372E-04  0.804429049721E-04  0.857203719165E-04  0.913438592351E-04  0.973360327547E-04
  0.103721040924E-03  0.110524611599E-03  0.117774155107E-03  0.125498874028E-03  0.133729880109E-03
  0.142500318779E-03  0.151845501747E-03  0.161803048225E-03  0.172413035313E-03  0.183718158137E-03
  0.195763900396E-03  0.208598715945E-03  0.222274222167E-03  0.236845405866E-03  0.252370842494E-03
  0.268912929573E-03  0.286538135214E-03  0.305317262719E-03  0.325325732270E-03  0.346643880830E-03
  0.369357281397E-03  0.393557082869E-03  0.419340371818E-03  0.446810557589E-03  0.476077782196E-03
  0.507259356612E-03  0.540480225116E-03  0.575873459493E-03  0.613580784979E-03  0.653753139966E-03
  0.696551271602E-03  0.742146369561E-03  0.790720740404E-03  0.842468525076E-03  0.897596462270E-03
  0.956324700546E-03  0.101888766227E-02  0.108553496259E-02  0.115653238700E-02  0.123216293100E-02
  0.131272790590E-02  0.139854811471E-02  0.148996510272E-02  0.158734248709E-02  0.169106737067E-02
  0.180155184503E-02  0.191923458835E-02  0.204458256388E-02  0.217809282528E-02  0.232029443533E-02
  0.247175050491E-02  0.263306035972E-02  0.280486184226E-02  0.298783375759E-02  0.318269847135E-02
  0.339022466919E-02  0.361123028759E-02  0.384658562598E-02  0.409721665126E-02  0.436410850604E-02
  0.464830923268E-02  0.495093372597E-02  0.527316792773E-02  0.561627327771E-02  0.598159143546E-02
  0.637054928927E-02  0.678466426835E-02  0.722554997598E-02  0.769492216188E-02  0.819460505308E-02
  0.872653806346E-02  0.929278290350E-02  0.989553111236E-02  0.105371120356E-01  0.112200012736E-01
  0.119468296257E-01  0.127203925576E-01  0.135436602195E-01  0.144197880453E-01  0.153521279625E-01
  0.163442402453E-01  0.173999060448E-01  0.185231406293E-01  0.197182073728E-01  0.209896325276E-01
  0.223422208203E-01  0.237810719116E-01  0.253115977606E-01  0.269395409369E-01  0.286709939250E-01
  0.305124194651E-01  0.324706719777E-01  0.345530201187E-01  0.367671705144E-01  0.391212927245E-01
  0.416240454843E-01  0.442846042746E-01  0.471126902730E-01  0.501186007346E-01  0.533132408534E-01
  0.567081571565E-01  0.603155724767E-01  0.641484225557E-01  0.682203943186E-01  0.725459658710E-01
  0.771404482517E-01  0.820200289858E-01  0.872018174665E-01  0.927038921976E-01  0.985453499180E-01
  0.104746356623E+00  0.111328200495E+00  0.118313346734E+00  0.125725494289E+00  0.133589634452E+00
  0.141932111297E+00  0.150780683888E+00  0.160164590217E+00  0.170114612760E+00  0.180663145556E+00
  0.191844262672E+00  0.203693787911E+00  0.216249365546E+00  0.229550531904E+00  0.243638787519E+00
  0.258557669567E+00  0.274352824276E+00  0.291072078904E+00  0.308765512881E+00  0.327485527638E+00
  0.347286914573E+00  0.368226920574E+00  0.390365310426E+00  0.413764425367E+00  0.438489236992E+00
  0.464607395598E+00  0.492189272000E+00  0.521307991744E+00  0.552039460547E+00  0.584462379699E+00
  0.618658250038E+00  0.654711363027E+00  0.692708777300E+00  0.732740278993E+00  0.774898323965E+00
  0.819277959978E+00  0.865976726705E+00  0.915094531365E+00  0.966733497615E+00  0.102099778522E+01
  0.107799337794E+01  0.113782783685E+01  0.120061001639E+01  0.126644974013E+01  0.133545743336E+01
  0.140774370937E+01  0.148341890644E+01  0.156259257234E+01  0.164537289342E+01  0.173186606505E+01
  0.182217560076E+01  0.191640157702E+01  0.201463981136E+01  0.211698097130E+01  0.222350961219E+01
  0.233430314243E+01  0.244943071483E+01  0.256895204376E+01  0.269291614812E+01  0.282136002117E+01
  0.295430722902E+01  0.309176644068E+01  0.323372989377E+01  0.338017180113E+01  0.353104670511E+01
  0.368628778800E+01  0.384580514852E+01  0.400948405641E+01  0.417718319903E+01  0.434873293609E+01
  0.452393358081E+01  0.470255372832E+01  0.488432865445E+01  0.506895881069E+01  0.525610844343E+01
  0.544540436861E+01  0.563643493484E+01  0.582874921090E+01  0.602185643540E+01  0.621522576890E+01
  0.640828638975E+01  0.660042797702E+01  0.679100162383E+01  0.697932122590E+01  0.716466538776E+01
  0.734627989020E+01  0.752338075813E+01  0.769515796653E+01  0.786077981679E+01  0.801939801081E+01
  0.817015344311E+01  0.831218272296E+01  0.844462542848E+01  0.856663208435E+01  0.867737284015E+01
  0.877604681420E+01  0.886189204988E+01  0.893419601587E+01  0.899230656236E+01  0.903564322654E+01
  0.906370876047E+01  0.907610073420E+01  0.907252304667E+01  0.905279715746E+01  0.901687283375E+01
  0.896483819022E+01  0.889692878521E+01  0.881353552556E+01  0.871521112492E+01  0.860267485814E+01
  0.847681535748E+01  0.833869120499E+01  0.818952909188E+01  0.803071933939E+01  0.786380860601E+01
  0.769048964640E+01  0.751258803372E+01  0.733204581236E+01  0.715090211022E+01  0.697127080725E+01
  0.679531542948E+01  0.662522151248E+01  0.646316675230E+01  0.631128933241E+01  0.617165488142E+01
  0.604622256031E+01  0.593681082844E+01  0.584506344826E+01  0.577241630883E+01  0.572006565360E+01
  0.568893831685E+01  0.567966460957E+01  0.569255455246E+01  0.572757822106E+01  0.578435102280E+01
  0.586212474126E+01  0.595978512478E+01  0.607585662526E+01  0.620851459210E+01  0.635560484801E+01
  0.651467021772E+01  0.668298336866E+01  0.685758530048E+01  0.703532884647E+01  0.721292661196E+01
  0.738700267934E+01  0.755414733343E+01  0.771097385477E+01  0.785417632302E+01  0.798058724287E+01
  0.808723377507E+01  0.817139131785E+01  0.823063327195E+01  0.826287583641E+01  0.826641684762E+01
  0.823996774978E+01  0.818267795752E+01  0.809415103644E+01  0.797445228158E+01  0.782410746966E+01
  0.764409276906E+01  0.743581592982E+01  0.720108913917E+01  0.694209404098E+01  0.666133964162E+01
  0.636161396371E+01  0.604593045843E+01  0.571747032510E+01  0.537952197559E+01  0.503541899895E+01
  0.468847802016E+01  0.434193791059E+01  0.399890182813E+01  0.366228356230E+01  0.333475960565E+01
  0.301872833428E+01  0.271627746309E+01  0.242916075418E+01  0.215878461332E+01  0.190620474180E+01
  0.167213261599E+01  0.145695095475E+01  0.126073664653E+01  0.108328888853E+01  0.924159314942E+00
  0.782680472189E+00  0.657990585484E+00  0.549057401246E+00  0.454709333677E+00  0.373680755783E+00
  0.304667149697E+00  0.246375730904E+00  0.197560358222E+00  0.157041066635E+00  0.123714858185E+00
  0.965628441377E-01  0.746554106251E-01  0.571553542476E-01  0.433186968313E-01  0.324931533204E-01
  0.241144943379E-01  0.177011986139E-01  0.128478462527E-01  0.921769791000E-02  0.653486577980E-02
  0.457642643750E-02  0.316476251432E-02  0.216035495005E-02  0.145518393772E-02  0.966837412135E-03
  0.633373516800E-03  0.408939568209E-03  0.260115617512E-03  0.162925899381E-03  0.100445698842E-03
  0.609233416548E-04  0.363356721947E-04  0.212989364950E-04  0.122638848322E-04  0.693275416292E-05
  0.384543255576E-05  0.209166501614E-05  0.111502377809E-05  0.582170419777E-06  0.297515904551E-06
  0.148721913350E-06  0.726683391160E-07  0.346825646497E-07  0.161566679113E-07  0.734063939636E-08
  0.325021079071E-08  0.140128082801E-08  0.587761370348E-09  0.239635090005E-09  0.948788100184E-10
  0.364449775835E-10  0.135681317488E-10  0.489062763070E-11  0.170491871281E-11  0.574187699936E-12
  0.186601976694E-12  0.584489020669E-13  0.176240019388E-13  0.510923284367E-14  0.142222799995E-14
  0.379637046867E-15  0.970422439336E-16  0.237211612805E-16  0.553689280979E-17  0.123226717617E-17
  0.261087602958E-18  0.525803876364E-19  0.100486941782E-19  0.181933877233E-20  0.311517235128E-21
  0.503543862898E-22  0.766966087687E-23  0.109867519372E-23  0.147727129759E-24  0.186064832015E-25
  0.219062271821E-26  0.240561521430E-27  0.245846997856E-28  0.233279499301E-29
 kinetic energy-density
  0.108544005157E+02  0.109561771403E+02  0.110617372283E+02  0.111712995605E+02  0.112849918015E+02
  0.114029916187E+02  0.115254358150E+02  0.116525138237E+02  0.117844127725E+02  0.119213065728E+02
  0.120634154622E+02  0.122109492914E+02  0.123641334191E+02  0.125232050336E+02  0.126884287350E+02
  0.128600610553E+02  0.130383866311E+02  0.132237032935E+02  0.134163245539E+02  0.136165762785E+02
  0.138248092952E+02  0.140413875198E+02  0.142666947075E+02  0.145011373669E+02  0.147451400831E+02
  0.149991519830E+02  0.152636450006E+02  0.155391152403E+02  0.158260854062E+02  0.161251054021E+02
  0.164367540762E+02  0.167616407265E+02  0.171004068739E+02  0.174537279783E+02  0.178223154691E+02
  0.182069186452E+02  0.186083271690E+02  0.190273726457E+02  0.194649324472E+02  0.199219305555E+02
  0.203993415853E+02  0.208981944915E+02  0.214195721274E+02  0.219646201036E+02  0.225345440884E+02
  0.231306203201E+02  0.237541927813E+02  0.244066827995E+02  0.250895911488E+02  0.258044997155E+02
  0.265530875386E+02  0.273371184208E+02  0.281584662446E+02  0.290191029735E+02  0.299211206586E+02
  0.308667261696E+02  0.318582552831E+02  0.328981785313E+02  0.339891060629E+02  0.351338034533E+02
  0.363351923433E+02  0.375963665621E+02  0.389205994545E+02  0.403113533453E+02  0.417722956926E+02
  0.433073060734E+02  0.449204915032E+02  0.466161996115E+02  0.483990349962E+02  0.502738721693E+02
  0.522458690825E+02  0.543204909896E+02  0.565035269234E+02  0.588011062671E+02  0.612197101433E+02
  0.637662237612E+02  0.664479181951E+02  0.692725053980E+02  0.722481549822E+02  0.753835117825E+02
  0.786877394350E+02  0.821705386103E+02  0.858421884191E+02  0.897135741504E+02  0.937962226454E+02
  0.981023441546E+02  0.102644872996E+03  0.107437504355E+03  0.112494738914E+03  0.117831938919E+03
  0.123465367262E+03  0.129412240763E+03  0.135690797227E+03  0.142320335632E+03  0.149321293173E+03
  0.156715298117E+03  0.164525242766E+03  0.172775359801E+03  0.181491285774E+03  0.190700149093E+03
  0.200430649429E+03  0.210713148141E+03  0.221579752000E+03  0.233064420265E+03  0.245203053046E+03
  0.258033613902E+03  0.271596200269E+03  0.285933232755E+03  0.301089491398E+03  0.317112300827E+03
  0.334051622274E+03  0.351960236909E+03  0.370893842322E+03  0.390911213132E+03  0.412074386666E+03
  0.434448778710E+03  0.458103375140E+03  0.483110903283E+03  0.509547994651E+03  0.537495388695E+03
  0.567038112502E+03  0.598265667637E+03  0.631272247203E+03  0.666156927975E+03  0.703023889585E+03
  0.741982616556E+03  0.783148133569E+03  0.826641209220E+03  0.872588589482E+03  0.921123221127E+03
  0.972384479767E+03  0.102651838309E+04  0.108367784193E+04  0.114402284541E+04  0.120772071139E+04
  0.127494627587E+04  0.134588210347E+04  0.142071868472E+04  0.149965460587E+04  0.158289672500E+04
  0.167066031262E+04  0.176316918534E+04  0.186065579959E+04  0.196336133685E+04  0.207153573868E+04
  0.218543772459E+04  0.230533471878E+04  0.243150285881E+04  0.256422673772E+04  0.270379932991E+04
  0.285052167014E+04  0.300470255783E+04  0.316665813752E+04  0.333671144378E+04  0.351519179389E+04
  0.370243411403E+04  0.389877818385E+04  0.410456767401E+04  0.432014917891E+04  0.454587098471E+04
  0.478208180073E+04  0.502912927515E+04  0.528735833186E+04  0.555710941267E+04  0.583871640700E+04
  0.613250454347E+04  0.643878793157E+04  0.675786697709E+04  0.709002557644E+04  0.743552804832E+04
  0.779461587161E+04  0.816750415287E+04  0.855437791941E+04  0.895538811061E+04  0.937064737158E+04
  0.980022563799E+04  0.102441454495E+05  0.107023771267E+05  0.111748336886E+05  0.116613656667E+05
  0.121617557192E+05  0.126757131697E+05  0.132028684607E+05  0.137427675424E+05  0.142948663258E+05
  0.148585251468E+05  0.154330034032E+05  0.160174543503E+05  0.166109202065E+05  0.172123275675E+05
  0.178204833161E+05  0.184340710105E+05  0.190516480093E+05  0.196716432035E+05  0.202923557785E+05
  0.209119548301E+05  0.215284801402E+05  0.221398442197E+05  0.227438355313E+05  0.233381234126E+05
  0.239202643607E+05  0.244877101716E+05  0.250378177004E+05  0.255678606026E+05  0.260750429898E+05
  0.265565149798E+05  0.270093903573E+05  0.274307661176E+05  0.278177441094E+05  0.281674543917E+05
  0.284770805608E+05  0.287438865964E+05  0.289652451909E+05  0.291386673396E+05  0.292618327975E+05
  0.293326212095E+05  0.293491434646E+05  0.293097728017E+05  0.292131753941E+05  0.290583396726E+05
  0.288446040224E+05  0.285716822146E+05  0.282396860250E+05  0.278491443939E+05  0.274010186175E+05
  0.268967129067E+05  0.263380798063E+05  0.257274200261E+05  0.250674761098E+05  0.243614197575E+05
  0.236128324022E+05  0.228256790452E+05  0.220042753117E+05  0.211532479361E+05  0.202774891407E+05
  0.193821054109E+05  0.184723615917E+05  0.175536212259E+05  0.166312844078E+05  0.157107241915E+05
  0.147972232807E+05  0.138959114602E+05  0.130117049818E+05  0.121492481082E+05  0.113128569295E+05
  0.105064655840E+05  0.973357553692E+04  0.899720950651E+04  0.829987258045E+04  0.764352354187E+04
  0.702955907970E+04  0.645881245269E+04  0.593156666119E+04  0.544758061233E+04  0.500612558800E+04
  0.460602883299E+04  0.424572148332E+04  0.392328901459E+04  0.363652334090E+04  0.338297607457E+04
  0.316001267177E+04  0.296486675263E+04  0.279469384559E+04  0.264662348742E+04  0.251780884305E+04
  0.240547257209E+04  0.230694843020E+04  0.221971757546E+04  0.214143930346E+04  0.206997561645E+04
  0.200340976193E+04  0.194005855029E+04  0.187847882655E+04  0.181746832039E+04  0.175606160894E+04
  0.169352137778E+04  0.162932603928E+04  0.156315398275E+04  0.149486550144E+04  0.142448262010E+04
  0.135216789875E+04  0.127820243317E+04  0.120296375512E+04  0.112690404393E+04  0.105052899265E+04
  0.974377709040E+03  0.899003816901E+03  0.824957975094E+03  0.752771935818E+03  0.682944185182E+03
  0.615927326840E+03  0.552117353673E+03  0.491844948761E+03  0.435369073370E+03  0.382873295544E+03
  0.334464551516E+03  0.290175323308E+03  0.249969030594E+03  0.213749435218E+03  0.181374407478E+03
  0.152672678248E+03  0.127458149398E+03  0.105533229273E+03  0.866781851113E+02  0.706379856112E+02
  0.571242969341E+02  0.458354464525E+02  0.364795177161E+02  0.287876747724E+02  0.225175636839E+02
  0.174523410741E+02  0.133990282291E+02  0.101871892126E+02  0.766780720382E+01  0.571209965056E+01
  0.421014385228E+01  0.306930485634E+01  0.221251971462E+01  0.157651224751E+01  0.111000954941E+01
  0.772019556209E+00  0.530214862230E+00  0.359454272006E+00  0.240461528729E+00  0.158670129847E+00
  0.103234437022E+00  0.662003540235E-01  0.418237006154E-01  0.260210169997E-01  0.159357162899E-01
  0.960201607451E-02  0.568966327092E-02  0.331379216527E-02  0.189605576900E-02  0.106519194628E-02
  0.587233165362E-03  0.317501291774E-03  0.168255888568E-03  0.873401458286E-04  0.443809639043E-04
  0.220612501392E-04  0.107205277774E-04  0.508917148270E-05  0.235832951007E-05  0.106600324536E-05
  0.469642059545E-06  0.201499643079E-06  0.841221847599E-07  0.341421376275E-07  0.134590297677E-07
  0.514827898077E-08  0.190897856301E-08  0.685454851749E-09  0.238081931582E-09  0.799020175109E-10
  0.258803447222E-10  0.808061439109E-11  0.242910249096E-11  0.702140318667E-12  0.194900316695E-12
  0.518835905881E-13  0.132275266315E-13  0.322510740815E-14  0.750922633559E-15  0.166717883445E-15
  0.352400650937E-16  0.708060427368E-17  0.135012403638E-17  0.243901997963E-18  0.416716761703E-19
  0.672158994592E-20  0.102165651236E-20  0.146052820333E-21  0.195988371117E-22  0.246366129531E-23
  0.289499561526E-24  0.317312171791E-25  0.323684549508E-26  0.306581471060E-27
 mkinetic energy-density pseudized
  0.199498484154E-05  0.212683817424E-05  0.226740600983E-05  0.241726431073E-05  0.257702710602E-05
  0.274734900750E-05  0.292892789178E-05  0.312250775984E-05  0.332888178544E-05  0.354889556511E-05
  0.378345058286E-05  0.403350790395E-05  0.430009211275E-05  0.458429551082E-05  0.488728259259E-05
  0.521029481669E-05  0.555465569270E-05  0.592177620413E-05  0.631316058976E-05  0.673041250709E-05
  0.717524160320E-05  0.764947051978E-05  0.815504236128E-05  0.869402865658E-05  0.926863784679E-05
  0.988122433420E-05  0.105342981291E-04  0.112305351344E-04  0.119727881098E-04  0.127640983606E-04
  0.136077081992E-04  0.145070742301E-04  0.154658815132E-04  0.164880586625E-04  0.175777939436E-04
  0.187395524342E-04  0.199780943199E-04  0.212984943979E-04  0.227061628711E-04  0.242068675150E-04
  0.258067573114E-04  0.275123876425E-04  0.293307471512E-04  0.312692863762E-04  0.333359482797E-04
  0.355392007931E-04  0.378880715128E-04  0.403921846902E-04  0.430618006662E-04  0.459078579109E-04
  0.489420178436E-04  0.521767126137E-04  0.556251960399E-04  0.593015979164E-04  0.632209819077E-04
  0.673994072705E-04  0.718539946542E-04  0.766029962511E-04  0.816658705816E-04  0.870633622242E-04
  0.928175868126E-04  0.989521216523E-04  0.105492102325E-03  0.112464325680E-03  0.119897359627E-03
  0.127821660192E-03  0.136269696308E-03  0.145276082846E-03  0.154877722450E-03  0.165113956739E-03
  0.176026727500E-03  0.187660748542E-03  0.200063688901E-03  0.213286368156E-03  0.227382964657E-03
  0.242411237505E-03  0.258432763219E-03  0.275513188024E-03  0.293722496832E-03  0.313135299988E-03
  0.333831138973E-03  0.355894812305E-03  0.379416722989E-03  0.404493248917E-03  0.431227137760E-03
  0.459727927946E-03  0.490112397474E-03  0.522505042376E-03  0.557038586810E-03  0.593854526860E-03
  0.633103710274E-03  0.674946954519E-03  0.719555705679E-03  0.767112740902E-03  0.817812917263E-03
  0.871863970124E-03  0.929487364250E-03  0.990919201175E-03  0.105641118653E-02  0.112623166131E-02
  0.120066670124E-02  0.128002128890E-02  0.136462056316E-02  0.145481115134E-02  0.155096258927E-02
  0.165346883525E-02  0.176274988409E-02  0.187925348771E-02  0.200345698955E-02  0.213586928010E-02
  0.227703288168E-02  0.242752617101E-02  0.258796574860E-02  0.275900896472E-02  0.294135661223E-02
  0.313575579739E-02  0.334300300030E-02  0.356394733757E-02  0.379949404056E-02  0.405060816336E-02
  0.431831853580E-02  0.460372197761E-02  0.490798779088E-02  0.523236254943E-02  0.557817520444E-02
  0.594684252738E-02  0.633987491245E-02  0.675888256230E-02  0.720558208219E-02  0.768180350982E-02
  0.818949780927E-02  0.873074485991E-02  0.930776197278E-02  0.992291296935E-02  0.105787178597E-01
  0.112778631597E-01  0.120232128892E-01  0.128178202962E-01  0.136649403552E-01  0.145680430901E-01
  0.155308277763E-01  0.165572380803E-01  0.176514781981E-01  0.188180300579E-01  0.200616716584E-01
  0.213874966159E-01  0.228009350005E-01  0.243077755473E-01  0.259141893301E-01  0.276267549978E-01
  0.294524856716E-01  0.313988576171E-01  0.334738408032E-01  0.356859314749E-01  0.380441868713E-01
  0.405582622283E-01  0.432384502175E-01  0.460957229800E-01  0.491417769256E-01  0.523890804771E-01
  0.558509249541E-01  0.595414788003E-01  0.634758453731E-01  0.676701245277E-01  0.721414782432E-01
  0.769082005546E-01  0.819897920693E-01  0.874070393685E-01  0.931820996082E-01  0.993385906595E-01
  0.105901687144E+00  0.112898222751E+00  0.120356799231E+00  0.128307902516E+00  0.136784026400E+00
  0.145819804288E+00  0.155452149519E+00  0.165720404811E+00  0.176666501423E+00  0.188335128636E+00
  0.200773914220E+00  0.214033616584E+00  0.228168329341E+00  0.243235699073E+00  0.259297157128E+00
  0.276418166319E+00  0.294668483469E+00  0.314122438761E+00  0.334859232959E+00  0.356963253575E+00
  0.380524411160E+00  0.405638496921E+00  0.432407562981E+00  0.460940326611E+00  0.491352599889E+00
  0.523767746266E+00  0.558317165642E+00  0.595140809588E+00  0.634387728447E+00  0.676216652155E+00
  0.720796606632E+00  0.768307567763E+00  0.818941154982E+00  0.872901366621E+00  0.930405359212E+00
  0.991684273023E+00  0.105698410617E+01  0.112656663974E+01  0.120071041628E+01  0.127971177429E+01
  0.136388594113E+01  0.145356818686E+01  0.154911504165E+01  0.165090557905E+01  0.175934276770E+01
  0.187485489379E+01  0.199789705622E+01  0.212895273680E+01  0.226853544694E+01  0.241719045245E+01
  0.257549657738E+01  0.274406808764E+01  0.292355665425E+01  0.311465339575E+01  0.331809099813E+01
  0.353464590997E+01  0.376514060916E+01  0.401044593628E+01  0.427148348826E+01  0.454922806399E+01
  0.484471015151E+01  0.515901844404E+01  0.549330236925E+01  0.584877461298E+01  0.622671361503E+01
  0.662846601031E+01  0.705544898405E+01  0.750915250420E+01  0.799114138815E+01  0.850305715388E+01
  0.904661959780E+01  0.962362803295E+01  0.102359621111E+02  0.108855821417E+02  0.115745288076E+02
  0.123049221645E+02  0.130789597967E+02  0.138989139819E+02  0.147671277047E+02  0.156860093322E+02
  0.166580257498E+02  0.176856937256E+02  0.187715692511E+02  0.199182345760E+02  0.211282826279E+02
  0.224042984758E+02  0.237488374676E+02  0.251643996385E+02  0.266533999552E+02  0.282181339321E+02
  0.298607381256E+02  0.315831449866E+02  0.333870315332E+02  0.352737612909E+02  0.372443189442E+02
  0.392992371564E+02  0.414385150382E+02  0.436615277969E+02  0.459669271738E+02  0.483525323870E+02
  0.508152114492E+02  0.533507529305E+02  0.559537284973E+02  0.586173468914E+02  0.613333004249E+02
  0.640916055801E+02  0.668804399192E+02  0.696859782512E+02  0.724922318813E+02  0.752808957931E+02
  0.780312097919E+02  0.807198409834E+02  0.833207964550E+02  0.858053766724E+02  0.881421818632E+02
  0.902971854862E+02  0.922338907202E+02  0.939135876360E+02  0.952957302025E+02  0.963384533464E+02
  0.969992506676E+02  0.972358328229E+02  0.970071846231E+02  0.962748350900E+02  0.950043485321E+02
  0.931670354951E+02  0.907418695365E+02  0.877175784235E+02  0.840948558725E+02  0.798886117003E+02
  0.751301438581E+02  0.698690752402E+02  0.641748519539E+02  0.581375493454E+02  0.518676801242E+02
  0.454946496606E+02  0.391634632436E+02  0.330292675766E+02  0.272493157586E+02  0.219719963030E+02
  0.173226803042E+02  0.133863371487E+02  0.101871697784E+02  0.766780720382E+01  0.571209965056E+01
  0.421014385228E+01  0.306930485634E+01  0.221251971462E+01  0.157651224751E+01  0.111000954941E+01
  0.772019556209E+00  0.530214862230E+00  0.359454272006E+00  0.240461528729E+00  0.158670129847E+00
  0.103234437022E+00  0.662003540235E-01  0.418237006154E-01  0.260210169997E-01  0.159357162899E-01
  0.960201607451E-02  0.568966327092E-02  0.331379216527E-02  0.189605576900E-02  0.106519194628E-02
  0.587233165362E-03  0.317501291774E-03  0.168255888568E-03  0.873401458286E-04  0.443809639043E-04
  0.220612501392E-04  0.107205277774E-04  0.508917148270E-05  0.235832951007E-05  0.106600324536E-05
  0.469642059545E-06  0.201499643079E-06  0.841221847599E-07  0.341421376275E-07  0.134590297677E-07
  0.514827898077E-08  0.190897856301E-08  0.685454851749E-09  0.238081931582E-09  0.799020175109E-10
  0.258803447222E-10  0.808061439109E-11  0.242910249096E-11  0.702140318667E-12  0.194900316695E-12
  0.518835905881E-13  0.132275266315E-13  0.322510740815E-14  0.750922633559E-15  0.166717883445E-15
  0.352400650937E-16  0.708060427368E-17  0.135012403638E-17  0.243901997963E-18  0.416716761703E-19
  0.672158994592E-20  0.102165651236E-20  0.146052820333E-21  0.195988371117E-22  0.246366129531E-23
  0.289499561526E-24  0.317312171791E-25  0.323684549508E-26  0.306581471060E-27
 local pseudopotential core
 -0.178066138161E+03 -0.178064251130E+03 -0.178062423526E+03 -0.178060653479E+03 -0.178058939177E+03
 -0.178057278861E+03 -0.178055670835E+03 -0.178054113449E+03 -0.178052605109E+03 -0.178051144271E+03
 -0.178049729438E+03 -0.178048359161E+03 -0.178047032037E+03 -0.178045746707E+03 -0.178044501855E+03
 -0.178043296206E+03 -0.178042128524E+03 -0.178040997614E+03 -0.178039902318E+03 -0.178038841514E+03
 -0.178037814116E+03 -0.178036819071E+03 -0.178035855360E+03 -0.178034921997E+03 -0.178034018024E+03
 -0.178033142517E+03 -0.178032294579E+03 -0.178031473341E+03 -0.178030677962E+03 -0.178029907627E+03
 -0.178029161547E+03 -0.178028438959E+03 -0.178027739121E+03 -0.178027061317E+03 -0.178026404853E+03
 -0.178025769056E+03 -0.178025153274E+03 -0.178024556878E+03 -0.178023979255E+03 -0.178023419814E+03
 -0.178022877982E+03 -0.178022353204E+03 -0.178021844941E+03 -0.178021352673E+03 -0.178020875896E+03
 -0.178020414120E+03 -0.178019966873E+03 -0.178019533695E+03 -0.178019114143E+03 -0.178018707786E+03
 -0.178018314208E+03 -0.178017933005E+03 -0.178017563787E+03 -0.178017206173E+03 -0.178016859797E+03
 -0.178016524304E+03 -0.178016199349E+03 -0.178015884598E+03 -0.178015579729E+03 -0.178015284427E+03
 -0.178014998390E+03 -0.178014721323E+03 -0.178014452941E+03 -0.178014192968E+03 -0.178013941136E+03
 -0.178013697187E+03 -0.178013460867E+03 -0.178013231934E+03 -0.178013010151E+03 -0.178012795289E+03
 -0.178012587126E+03 -0.178012385447E+03 -0.178012190042E+03 -0.178012000709E+03 -0.178011817251E+03
 -0.178011639478E+03 -0.178011467203E+03 -0.178011300248E+03 -0.178011138438E+03 -0.178010981603E+03
 -0.178010829579E+03 -0.178010682206E+03 -0.178010539327E+03 -0.178010400793E+03 -0.178010266455E+03
 -0.178010136171E+03 -0.178010009801E+03 -0.178009887210E+03 -0.178009768265E+03 -0.178009652838E+03
 -0.178009540801E+03 -0.178009432033E+03 -0.178009326414E+03 -0.178009223825E+03 -0.178009124152E+03
 -0.178009027282E+03 -0.178008933105E+03 -0.178008841512E+03 -0.178008752397E+03 -0.178008665654E+03
 -0.178008581181E+03 -0.178008498875E+03 -0.178008418636E+03 -0.178008340363E+03 -0.178008263957E+03
 -0.178008189321E+03 -0.178008116357E+03 -0.178008044966E+03 -0.178007975052E+03 -0.178007906518E+03
 -0.178007839264E+03 -0.178007773193E+03 -0.178007708206E+03 -0.178007644203E+03 -0.178007581083E+03
 -0.178007518743E+03 -0.178007457078E+03 -0.178007395982E+03 -0.178007335346E+03 -0.178007275060E+03
 -0.178007215009E+03 -0.178007155076E+03 -0.178007095140E+03 -0.178007035075E+03 -0.178006974754E+03
 -0.178006914041E+03 -0.178006852798E+03 -0.178006790880E+03 -0.178006728136E+03 -0.178006664409E+03
 -0.178006599534E+03 -0.178006533339E+03 -0.178006465643E+03 -0.178006396256E+03 -0.178006324979E+03
 -0.178006251603E+03 -0.178006175905E+03 -0.178006097653E+03 -0.178006016602E+03 -0.178005932490E+03
 -0.178005845045E+03 -0.178005753974E+03 -0.178005658972E+03 -0.178005559711E+03 -0.178005455848E+03
 -0.178005347016E+03 -0.178005232827E+03 -0.178005112869E+03 -0.178004986705E+03 -0.178004853871E+03
 -0.178004713872E+03 -0.178004566184E+03 -0.178004410251E+03 -0.178004245479E+03 -0.178004071237E+03
 -0.178003886856E+03 -0.178003691620E+03 -0.178003484772E+03 -0.178003265502E+03 -0.178003032950E+03
 -0.178002786200E+03 -0.178002524277E+03 -0.178002246141E+03 -0.178001950686E+03 -0.178001636733E+03
 -0.178001303028E+03 -0.178000948232E+03 -0.178000570922E+03 -0.178000169578E+03 -0.177999742584E+03
 -0.177999288216E+03 -0.177998804636E+03 -0.177998289888E+03 -0.177997741886E+03 -0.177997158406E+03
 -0.177996537079E+03 -0.177995875379E+03 -0.177995170614E+03 -0.177994419914E+03 -0.177993620222E+03
 -0.177992768277E+03 -0.177991860602E+03 -0.177990893495E+03 -0.177989863003E+03 -0.177988764918E+03
 -0.177987594750E+03 -0.177986347715E+03 -0.177985018709E+03 -0.177983602294E+03 -0.177982092671E+03
 -0.177980483656E+03 -0.177978768659E+03 -0.177976940649E+03 -0.177974992134E+03 -0.177972915122E+03
 -0.177970701093E+03 -0.177968340963E+03 -0.177965825044E+03 -0.177963143007E+03 -0.177960283836E+03
 -0.177957235786E+03 -0.177953986330E+03 -0.177950522111E+03 -0.177946828882E+03 -0.177942891452E+03
 -0.177938693618E+03 -0.177934218098E+03 -0.177929446463E+03 -0.177924359055E+03 -0.177918934905E+03
 -0.177913151647E+03 -0.177906985425E+03 -0.177900410788E+03 -0.177893400587E+03 -0.177885925858E+03
 -0.177877955700E+03 -0.177869457142E+03 -0.177860395008E+03 -0.177850731758E+03 -0.177840427338E+03
 -0.177829439001E+03 -0.177817721123E+03 -0.177805225012E+03 -0.177791898693E+03 -0.177777686681E+03
 -0.177762529744E+03 -0.177746364642E+03 -0.177729123846E+03 -0.177710735247E+03 -0.177691121829E+03
 -0.177670201334E+03 -0.177647885889E+03 -0.177624081614E+03 -0.177598688194E+03 -0.177571598429E+03
 -0.177542697740E+03 -0.177511863644E+03 -0.177478965183E+03 -0.177443862320E+03 -0.177406405277E+03
 -0.177366433826E+03 -0.177323776528E+03 -0.177278249908E+03 -0.177229657563E+03 -0.177177789206E+03
 -0.177122419622E+03 -0.177063307553E+03 -0.177000194476E+03 -0.176932803297E+03 -0.176860836921E+03
 -0.176783976713E+03 -0.176701880821E+03 -0.176614182368E+03 -0.176520487474E+03 -0.176420373119E+03
 -0.176313384814E+03 -0.176199034073E+03 -0.176076795656E+03 -0.175946104573E+03 -0.175806352817E+03
 -0.175656885807E+03 -0.175496998511E+03 -0.175325931210E+03 -0.175142864893E+03 -0.174946916215E+03
 -0.174737132007E+03 -0.174512483279E+03 -0.174271858677E+03 -0.174014057342E+03 -0.173737781115E+03
 -0.173441626038E+03 -0.173124073085E+03 -0.172783478060E+03 -0.172418060599E+03 -0.172025892203E+03
 -0.171604883232E+03 -0.171152768790E+03 -0.170667093444E+03 -0.170145194695E+03 -0.169584185157E+03
 -0.168980933415E+03 -0.168332043518E+03 -0.167633833141E+03 -0.166882310459E+03 -0.166073149844E+03
 -0.165201666601E+03 -0.164262791021E+03 -0.163251042248E+03 -0.162160502604E+03 -0.160984793333E+03
 -0.159717053065E+03 -0.158349920818E+03 -0.156875525954E+03 -0.155285488390E+03 -0.153570933402E+03
 -0.151722526769E+03 -0.149730537721E+03 -0.147584939334E+03 -0.145275558573E+03 -0.142792291245E+03
 -0.140125400422E+03 -0.137265920227E+03 -0.134206189689E+03 -0.130940542569E+03 -0.127466177236E+03
 -0.123784223586E+03 -0.119901009102E+03 -0.115829500742E+03 -0.111590861696E+03 -0.107216012573E+03
 -0.102747029446E+03 -0.982381568248E+02 -0.937560666667E+02 -0.893959031933E+02 -0.852880627959E+02
 -0.815415341135E+02 -0.782665714615E+02 -0.755675280547E+02 -0.735264046364E+02 -0.720490400685E+02
 -0.704463226026E+02 -0.682292597467E+02 -0.660801762749E+02 -0.639988888564E+02 -0.619832202755E+02
 -0.600310809036E+02 -0.581404544584E+02 -0.563093862069E+02 -0.545359995063E+02 -0.528184708125E+02
 -0.511550360548E+02 -0.495439921002E+02 -0.479836857452E+02 -0.464725191299E+02 -0.450089448993E+02
 -0.435914631223E+02 -0.422186225285E+02 -0.408890171366E+02 -0.396012856798E+02 -0.383541075300E+02
 -0.371462086985E+02 -0.359763499331E+02 -0.348433338020E+02 -0.337459999936E+02 -0.326832247443E+02
 -0.316539196995E+02 -0.306570307881E+02 -0.296915371137E+02 -0.287564499467E+02 -0.278508117143E+02
 -0.269736949797E+02 -0.261242015380E+02 -0.253014614645E+02 -0.245046322263E+02 -0.237328978287E+02
 -0.229854679619E+02 -0.222615772082E+02 -0.215604842471E+02 -0.208814711040E+02 -0.202238424099E+02
 -0.195869246953E+02 -0.189700656982E+02 -0.183726336982E+02 -0.177940168701E+02 -0.172336226570E+02
 -0.166908771643E+02 -0.161652245717E+02 -0.156561265641E+02 -0.151630617804E+02 -0.146855252793E+02
 -0.142230280220E+02 -0.137750963718E+02 -0.133412716083E+02 -0.129211094581E+02 -0.125141796396E+02
 -0.121200654221E+02 -0.117383631995E+02 -0.113686820763E+02 -0.110106434679E+02
 pspotential valence only
 -0.538078081777E+02 -0.538059211568E+02 -0.538040935650E+02 -0.538023235303E+02 -0.538006092408E+02
 -0.537989489397E+02 -0.537973409277E+02 -0.537957835582E+02 -0.537942752352E+02 -0.537928144150E+02
 -0.537913996013E+02 -0.537900293450E+02 -0.537887022435E+02 -0.537874169368E+02 -0.537861721099E+02
 -0.537849664870E+02 -0.537837988337E+02 -0.537826679541E+02 -0.537815726904E+02 -0.537805119209E+02
 -0.537794845593E+02 -0.537784895535E+02 -0.537775258844E+02 -0.537765925652E+02 -0.537756886404E+02
 -0.537748131840E+02 -0.537739652996E+02 -0.537731441190E+02 -0.537723488009E+02 -0.537715785314E+02
 -0.537708325212E+02 -0.537701100069E+02 -0.537694102482E+02 -0.537687325286E+02 -0.537680761541E+02
 -0.537674404527E+02 -0.537668247734E+02 -0.537662284857E+02 -0.537656509791E+02 -0.537650916620E+02
 -0.537645499621E+02 -0.537640253242E+02 -0.537635172115E+02 -0.537630251035E+02 -0.537625484965E+02
 -0.537620869023E+02 -0.537616398485E+02 -0.537612068773E+02 -0.537607875454E+02 -0.537603814235E+02
 -0.537599880958E+02 -0.537596071596E+02 -0.537592382251E+02 -0.537588809145E+02 -0.537585348620E+02
 -0.537581997134E+02 -0.537578751258E+02 -0.537575607669E+02 -0.537572563150E+02 -0.537569614585E+02
 -0.537566758957E+02 -0.537563993345E+02 -0.537561314918E+02 -0.537558720938E+02 -0.537556208750E+02
 -0.537553775786E+02 -0.537551419555E+02 -0.537549137651E+02 -0.537546927740E+02 -0.537544787564E+02
 -0.537542714934E+02 -0.537540707735E+02 -0.537538763914E+02 -0.537536881487E+02 -0.537535058532E+02
 -0.537533293189E+02 -0.537531583656E+02 -0.537529928190E+02 -0.537528325104E+02 -0.537526772763E+02
 -0.537525269588E+02 -0.537523814046E+02 -0.537522404659E+02 -0.537521039993E+02 -0.537519718661E+02
 -0.537518439323E+02 -0.537517200681E+02 -0.537516001480E+02 -0.537514840508E+02 -0.537513716589E+02
 -0.537512628591E+02 -0.537511575415E+02 -0.537510556004E+02 -0.537509569331E+02 -0.537508614409E+02
 -0.537507690282E+02 -0.537506796027E+02 -0.537505930756E+02 -0.537505093609E+02 -0.537504283758E+02
 -0.537503500406E+02 -0.537502742783E+02 -0.537502010150E+02 -0.537501301793E+02 -0.537500617027E+02
 -0.537499955196E+02 -0.537499315665E+02 -0.537498697831E+02 -0.537498101112E+02 -0.537497524953E+02
 -0.537496968822E+02 -0.537496432215E+02 -0.537495914648E+02 -0.537495415664E+02 -0.537494934828E+02
 -0.537494471729E+02 -0.537494025981E+02 -0.537493597219E+02 -0.537493185104E+02 -0.537492789319E+02
 -0.537492409571E+02 -0.537492045591E+02 -0.537491697135E+02 -0.537491363981E+02 -0.537491045935E+02
 -0.537490742825E+02 -0.537490454506E+02 -0.537490180858E+02 -0.537489921791E+02 -0.537489677237E+02
 -0.537489447160E+02 -0.537489231552E+02 -0.537489030435E+02 -0.537488843861E+02 -0.537488671914E+02
 -0.537488514713E+02 -0.537488372409E+02 -0.537488245191E+02 -0.537488133284E+02 -0.537488036954E+02
 -0.537487956506E+02 -0.537487892289E+02 -0.537487844697E+02 -0.537487814172E+02 -0.537487801205E+02
 -0.537487806339E+02 -0.537487830174E+02 -0.537487873367E+02 -0.537487936638E+02 -0.537488020771E+02
 -0.537488126618E+02 -0.537488255107E+02 -0.537488407240E+02 -0.537488584103E+02 -0.537488786867E+02
 -0.537489016796E+02 -0.537489275251E+02 -0.537489563698E+02 -0.537489883710E+02 -0.537490236980E+02
 -0.537490625324E+02 -0.537491050689E+02 -0.537491515163E+02 -0.537492020982E+02 -0.537492570543E+02
 -0.537493166410E+02 -0.537493811327E+02 -0.537494508228E+02 -0.537495260251E+02 -0.537496070751E+02
 -0.537496943313E+02 -0.537497881767E+02 -0.537498890204E+02 -0.537499972993E+02 -0.537501134800E+02
 -0.537502380605E+02 -0.537503715724E+02 -0.537505145833E+02 -0.537506676985E+02 -0.537508315642E+02
 -0.537510068697E+02 -0.537511943503E+02 -0.537513947906E+02 -0.537516090270E+02 -0.537518379520E+02
 -0.537520825171E+02 -0.537523437370E+02 -0.537526226937E+02 -0.537529205410E+02 -0.537532385088E+02
 -0.537535779083E+02 -0.537539401375E+02 -0.537543266864E+02 -0.537547391433E+02 -0.537551792012E+02
 -0.537556486644E+02 -0.537561494559E+02 -0.537566836249E+02 -0.537572533552E+02 -0.537578609738E+02
 -0.537585089601E+02 -0.537591999558E+02 -0.537599367754E+02 -0.537607224171E+02 -0.537615600749E+02
 -0.537624531509E+02 -0.537634052688E+02 -0.537644202877E+02 -0.537655023177E+02 -0.537666557351E+02
 -0.537678851999E+02 -0.537691956734E+02 -0.537705924372E+02 -0.537720811132E+02 -0.537736676851E+02
 -0.537753585210E+02 -0.537771603970E+02 -0.537790805222E+02 -0.537811265660E+02 -0.537833066857E+02
 -0.537856295563E+02 -0.537881044017E+02 -0.537907410279E+02 -0.537935498577E+02 -0.537965419666E+02
 -0.537997291220E+02 -0.538031238228E+02 -0.538067393417E+02 -0.538105897694E+02 -0.538146900604E+02
 -0.538190560815E+02 -0.538237046612E+02 -0.538286536421E+02 -0.538339219347E+02 -0.538395295730E+02
 -0.538454977718E+02 -0.538518489858E+02 -0.538586069698E+02 -0.538657968407E+02 -0.538734451390E+02
 -0.538815798925E+02 -0.538902306792E+02 -0.538994286896E+02 -0.539092067888E+02 -0.539195995760E+02
 -0.539306434427E+02 -0.539423766260E+02 -0.539548392582E+02 -0.539680734107E+02 -0.539821231298E+02
 -0.539970344644E+02 -0.540128554816E+02 -0.540296362700E+02 -0.540474289272E+02 -0.540662875287E+02
 -0.540862680744E+02 -0.541074284113E+02 -0.541298281252E+02 -0.541535284001E+02 -0.541785918374E+02
 -0.542050822318E+02 -0.542330642956E+02 -0.542626033264E+02 -0.542937648092E+02 -0.543266139452E+02
 -0.543612150986E+02 -0.543976311505E+02 -0.544359227494E+02 -0.544761474472E+02 -0.545183587056E+02
 -0.545626047616E+02 -0.546089273334E+02 -0.546573601529E+02 -0.547079273037E+02 -0.547606413458E+02
 -0.548155012030E+02 -0.548724897892E+02 -0.549315713438E+02 -0.549926884444E+02 -0.550557586602E+02
 -0.551206708028E+02 -0.551872807245E+02 -0.552554066074E+02 -0.553248236736E+02 -0.553952582371E+02
 -0.554663810057E+02 -0.555377995236E+02 -0.556090496346E+02 -0.556795858297E+02 -0.557487703339E+02
 -0.558158607865E+02 -0.558799963787E+02 -0.559401823477E+02 -0.559952727902E+02 -0.560439518775E+02
 -0.560847137318E+02 -0.561158415019E+02 -0.561353865623E+02 -0.561411492887E+02 -0.561306635338E+02
 -0.561011877158E+02 -0.560497062448E+02 -0.559729456333E+02 -0.558674096888E+02 -0.557294370865E+02
 -0.555552816136E+02 -0.553412097843E+02 -0.550836021624E+02 -0.547790346782E+02 -0.544243075791E+02
 -0.540163881765E+02 -0.535522482271E+02 -0.530285055698E+02 -0.524577560602E+02 -0.518769265046E+02
 -0.512938245452E+02 -0.507148783045E+02 -0.501448575883E+02 -0.495787304428E+02 -0.488567603745E+02
 -0.481451702658E+02 -0.474514444822E+02 -0.467368926964E+02 -0.460043244050E+02 -0.452548546664E+02
 -0.444899176264E+02 -0.437112045257E+02 -0.429205850296E+02 -0.421200237018E+02 -0.413115072974E+02
 -0.404969513410E+02 -0.396781299123E+02 -0.388566062039E+02 -0.380336790771E+02 -0.372103585502E+02
 -0.363873685519E+02 -0.355651877597E+02 -0.347441234726E+02 -0.339244117585E+02 -0.331063297798E+02
 -0.322903058940E+02 -0.314770077412E+02 -0.306674021902E+02 -0.298627769363E+02 -0.290647259868E+02
 -0.282751026040E+02 -0.274959461988E+02 -0.267293900851E+02 -0.259775566853E+02 -0.252424466493E+02
 -0.245258289865E+02 -0.238291407208E+02 -0.231534059404E+02 -0.224991842274E+02 -0.218665562670E+02
 -0.212551496902E+02 -0.206642018830E+02 -0.200926503935E+02 -0.195392375931E+02 -0.190026154462E+02
 -0.184814384752E+02 -0.179744371498E+02 -0.174804685392E+02 -0.169985449701E+02 -0.165278440138E+02
 -0.160677043381E+02 -0.156176120731E+02 -0.151771817651E+02 -0.147461351123E+02 -0.143242797348E+02
 -0.139114894138E+02 -0.135076865810E+02 -0.131128273733E+02 -0.127268892599E+02 -0.123498610683E+02
 -0.119817351408E+02 -0.116225013249E+02 -0.112721425024E+02 -0.109306313897E+02
 core charge-density (pseudized)
  0.106061948838E-07  0.113071837403E-07  0.120545026310E-07  0.128512136191E-07  0.137005811465E-07
  0.146060854103E-07  0.155714366217E-07  0.166005902091E-07  0.176977630241E-07  0.188674506207E-07
  0.201144456743E-07  0.214438576201E-07  0.228611335877E-07  0.243720807208E-07  0.259828899711E-07
  0.277001614649E-07  0.295309315469E-07  0.314827016103E-07  0.335634688336E-07  0.357817589476E-07
  0.381466611694E-07  0.406678654438E-07  0.433557021473E-07  0.462211844156E-07  0.492760532688E-07
  0.525328257189E-07  0.560048460573E-07  0.597063405310E-07  0.636524756337E-07  0.678594202488E-07
  0.723444118994E-07  0.771258273777E-07  0.822232580416E-07  0.876575900880E-07  0.934510901326E-07
  0.996274964440E-07  0.106212116209E-06  0.113231929227E-06  0.120715698456E-06  0.128694087863E-06
  0.137199788074E-06  0.146267650310E-06  0.155934829194E-06  0.166240934986E-06  0.177228195878E-06
  0.188941631025E-06  0.201429235001E-06  0.214742174453E-06  0.228934997754E-06  0.244065858501E-06
  0.260196753801E-06  0.277393778290E-06  0.295727394954E-06  0.315272723837E-06  0.336109849840E-06
  0.358324150859E-06  0.382006647608E-06  0.407254376568E-06  0.434170787580E-06  0.462866167719E-06
  0.493458093179E-06  0.526071911027E-06  0.560841252797E-06  0.597908582028E-06  0.637425777984E-06
  0.679554757964E-06  0.724468140732E-06  0.772349953799E-06  0.823396387446E-06  0.877816598588E-06
  0.935833567761E-06  0.997685012748E-06  0.106362436259E-05  0.113392179597E-05  0.120886534824E-05
  0.128876209156E-05  0.137393939310E-05  0.146474625638E-05  0.156155475119E-05  0.166476153816E-05
  0.177478949390E-05  0.189208944373E-05  0.201714200880E-05  0.215045957534E-05  0.229258839406E-05
  0.244411081825E-05  0.260564768985E-05  0.277786088321E-05  0.296145601689E-05  0.315718534482E-05
  0.336585083837E-05  0.358830747221E-05  0.382546672733E-05  0.407830032551E-05  0.434784421061E-05
  0.463520279301E-05  0.494155347450E-05  0.526815147222E-05  0.561633496142E-05  0.598753055803E-05
  0.638325916359E-05  0.680514219640E-05  0.725490823451E-05  0.773440009762E-05  0.824558239702E-05
  0.879054958444E-05  0.937153453280E-05  0.999091768389E-05  0.106512368007E-04  0.113551973638E-04
  0.121056836555E-04  0.129057705753E-04  0.137587362369E-04  0.146680753972E-04  0.156375137730E-04
  0.166710233029E-04  0.177728384184E-04  0.189474733894E-04  0.201997408161E-04  0.215347713424E-04
  0.229580346715E-04  0.244753619706E-04  0.260929697547E-04  0.278174853488E-04  0.296559740318E-04
  0.316159679738E-04  0.337054970840E-04  0.359331218968E-04  0.383079686298E-04  0.408397665568E-04
  0.435388878497E-04  0.464163900502E-04  0.494840613476E-04  0.527544688453E-04  0.562410100141E-04
  0.599579675432E-04  0.639205678118E-04  0.681450432205E-04  0.726486986371E-04  0.774499822280E-04
  0.825685609638E-04  0.880254011078E-04  0.938428540147E-04  0.100044747590E-03  0.106656483784E-03
  0.113705142512E-03  0.121219592434E-03  0.129230609036E-03  0.137771000493E-03  0.146875741837E-03
  0.156582117957E-03  0.166929876034E-03  0.177961388007E-03  0.189721823749E-03  0.202259335643E-03
  0.215625255307E-03  0.229874303276E-03  0.245064812477E-03  0.261258966397E-03  0.278523052930E-03
  0.296927734894E-03  0.316548338342E-03  0.337465159800E-03  0.359763793684E-03  0.383535481211E-03
  0.408877482199E-03  0.435893471243E-03  0.464693959860E-03  0.495396746290E-03  0.528127394736E-03
  0.563019745956E-03  0.600216461245E-03  0.639869601945E-03  0.682141246792E-03  0.727204149523E-03
  0.775242439345E-03  0.826452366998E-03  0.881043099348E-03  0.939237565599E-03  0.100127335842E-02
  0.106740369349E-02  0.113789843110E-02  0.121304516387E-02  0.129315037456E-02  0.137854066861E-02
  0.146956408579E-02  0.156659149625E-02  0.167001808584E-02  0.178026493650E-02  0.189778070745E-02
  0.202304342333E-02  0.215656237583E-02  0.229888014568E-02  0.245057475221E-02  0.261226193810E-02
  0.278459759728E-02  0.296828035446E-02  0.316405430502E-02  0.337271192455E-02  0.359509715762E-02
  0.383210869600E-02  0.408470345670E-02  0.435390027080E-02  0.464078379453E-02  0.494650865419E-02
  0.527230383718E-02  0.561947734156E-02  0.598942109696E-02  0.638361616994E-02  0.680363826714E-02
  0.725116354954E-02  0.772797477146E-02  0.823596775762E-02  0.877715823163E-02  0.935368900876E-02
  0.996783756542E-02  0.106220239971E-01  0.113188193751E-01  0.120609545126E-01  0.128513291461E-01
  0.136930215395E-01  0.145892985143E-01  0.155436259044E-01  0.165596794353E-01  0.176413560168E-01
  0.187927854399E-01  0.200183424562E-01  0.213226592174E-01  0.227106380376E-01  0.241874644385E-01
  0.257586204197E-01  0.274298978899E-01  0.292074121744E-01  0.310976155017E-01  0.331073103502E-01
  0.352436625147E-01  0.375142137264E-01  0.399268936341E-01  0.424900309168E-01  0.452123632673E-01
  0.481030459402E-01  0.511716585135E-01  0.544282094602E-01  0.578831380689E-01  0.615473131853E-01
  0.654320281767E-01  0.695489914397E-01  0.739103116835E-01  0.785284771251E-01  0.834163276248E-01
  0.885870186747E-01  0.940539760309E-01  0.998308396398E-01  0.105931395370E+00  0.112369492908E+00
  0.119158948007E+00  0.126313427137E+00  0.133846312378E+00  0.141770544273E+00  0.150098440150E+00
  0.158841485313E+00  0.168010094315E+00  0.177613339472E+00  0.187658643657E+00  0.198151434417E+00
  0.209094756508E+00  0.220488840064E+00  0.232330621896E+00  0.244613217784E+00  0.257325344214E+00
  0.270450688830E+00  0.283967229860E+00  0.297846506231E+00  0.312052841750E+00  0.326542528973E+00
  0.341262981018E+00  0.356151862881E+00  0.371136217682E+00  0.386131607935E+00  0.401041297321E+00
  0.415755504693E+00  0.430150769134E+00  0.444089472811E+00  0.457419577087E+00  0.469974636656E+00
  0.481574166225E+00  0.492024444005E+00  0.501119845527E+00  0.508644809320E+00  0.514376541791E+00
  0.518088570927E+00  0.519555255596E+00  0.518557347195E+00  0.514888680734E+00  0.508364040249E+00
  0.498828195383E+00  0.486166038361E+00  0.470313659598E+00  0.451270082030E+00  0.429109225561E+00
  0.403991491729E+00  0.376174144418E+00  0.346019418031E+00  0.313999017360E+00  0.280693397034E+00
  0.246783945046E+00  0.213035977313E+00  0.180270324662E+00  0.149321321471E+00  0.120979264675E+00
  0.959159975244E-01  0.745932927678E-01  0.571552796852E-01  0.433186968313E-01  0.324931533204E-01
  0.241144943379E-01  0.177011986139E-01  0.128478462527E-01  0.921769791000E-02  0.653486577980E-02
  0.457642643750E-02  0.316476251432E-02  0.216035495005E-02  0.145518393772E-02  0.966837412135E-03
  0.633373516800E-03  0.408939568209E-03  0.260115617512E-03  0.162925899381E-03  0.100445698842E-03
  0.609233416548E-04  0.363356721947E-04  0.212989364950E-04  0.122638848322E-04  0.693275416292E-05
  0.384543255576E-05  0.209166501614E-05  0.111502377809E-05  0.582170419777E-06  0.297515904551E-06
  0.148721913350E-06  0.726683391160E-07  0.346825646497E-07  0.161566679113E-07  0.734063939636E-08
  0.325021079071E-08  0.140128082801E-08  0.587761370348E-09  0.239635090005E-09  0.948788100184E-10
  0.364449775835E-10  0.135681317488E-10  0.489062763070E-11  0.170491871281E-11  0.574187699936E-12
  0.186601976694E-12  0.584489020669E-13  0.176240019388E-13  0.510923284367E-14  0.142222799995E-14
  0.379637046867E-15  0.970422439336E-16  0.237211612805E-16  0.553689280979E-17  0.123226717617E-17
  0.261087602958E-18  0.525803876364E-19  0.100486941782E-19  0.181933877233E-20  0.311517235128E-21
  0.503543862898E-22  0.766966087687E-23  0.109867519372E-23  0.147727129759E-24  0.186064832015E-25
  0.219062271821E-26  0.240561521430E-27  0.245846997856E-28  0.233279499301E-29
 pseudo wavefunction
  0.911856052367E-04  0.941507336303E-04  0.972122806015E-04  0.100373381442E-03  0.103637273394E-03
  0.107007298969E-03  0.110486909368E-03  0.114079668014E-03  0.117789254208E-03  0.121619466888E-03
  0.125574228528E-03  0.129657589149E-03  0.133873730468E-03  0.138226970182E-03  0.142721766389E-03
  0.147362722153E-03  0.152154590217E-03  0.157102277873E-03  0.162210851985E-03  0.167485544178E-03
  0.172931756197E-03  0.178555065440E-03  0.184361230665E-03  0.190356197892E-03  0.196546106491E-03
  0.202937295468E-03  0.209536309958E-03  0.216349907928E-03  0.223385067095E-03  0.230648992077E-03
  0.238149121765E-03  0.245893136947E-03  0.253888968168E-03  0.262144803858E-03  0.270669098710E-03
  0.279470582345E-03  0.288558268249E-03  0.297941463003E-03  0.307629775816E-03  0.317633128362E-03
  0.327961764946E-03  0.338626262990E-03  0.349637543866E-03  0.361006884083E-03  0.372745926834E-03
  0.384866693917E-03  0.397381598051E-03  0.410303455584E-03  0.423645499617E-03  0.437421393562E-03
  0.451645245127E-03  0.466331620768E-03  0.481495560604E-03  0.497152593822E-03  0.513318754577E-03
  0.530010598414E-03  0.547245219222E-03  0.565040266738E-03  0.583413964624E-03  0.602385129129E-03
  0.621973188356E-03  0.642198202161E-03  0.663080882693E-03  0.684642615606E-03  0.706905481960E-03
  0.729892280833E-03  0.753626552669E-03  0.778132603384E-03  0.803435529259E-03  0.829561242638E-03
  0.856536498465E-03  0.884388921684E-03  0.913147035525E-03  0.942840290720E-03  0.973499095654E-03
  0.100515484751E-02  0.103783996442E-02  0.107158791867E-02  0.110643327096E-02  0.114241170582E-02
  0.117956006812E-02  0.121791640083E-02  0.125751998398E-02  0.129841137485E-02  0.134063244954E-02
  0.138422644582E-02  0.142923800743E-02  0.147571322980E-02  0.152369970722E-02  0.157324658161E-02
  0.162440459283E-02  0.167722613063E-02  0.173176528832E-02  0.178807791813E-02  0.184622168842E-02
  0.190625614273E-02  0.196824276075E-02  0.203224502127E-02  0.209832846718E-02  0.216656077259E-02
  0.223701181211E-02  0.230975373241E-02  0.238486102608E-02  0.246241060791E-02  0.254248189364E-02
  0.262515688127E-02  0.271052023504E-02  0.279865937205E-02  0.288966455185E-02  0.298362896876E-02
  0.308064884734E-02  0.318082354090E-02  0.328425563318E-02  0.339105104338E-02  0.350131913463E-02
  0.361517282590E-02  0.373272870759E-02  0.385410716090E-02  0.397943248106E-02  0.410883300451E-02
  0.424244124030E-02  0.438039400571E-02  0.452283256626E-02  0.466990278027E-02  0.482175524817E-02
  0.497854546661E-02  0.514043398753E-02  0.530758658248E-02  0.548017441224E-02  0.565837420192E-02
  0.584236842174E-02  0.603234547374E-02  0.622849988446E-02  0.643103250391E-02  0.664015071102E-02
  0.685606862566E-02  0.707900732767E-02  0.730919508283E-02  0.754686757626E-02  0.779226815335E-02
  0.804564806848E-02  0.830726674182E-02  0.857739202437E-02  0.885630047167E-02  0.914427762628E-02
  0.944161830946E-02  0.974862692220E-02  0.100656177560E-01  0.103929153139E-01  0.107308546412E-01
  0.110797816680E-01  0.114400535612E-01  0.118120390897E-01  0.121961189998E-01  0.125926864033E-01
  0.130021471783E-01  0.134249203823E-01  0.138614386794E-01  0.143121487801E-01  0.147775118963E-01
  0.152580042099E-01  0.157541173572E-01  0.162663589284E-01  0.167952529827E-01  0.173413405807E-01
  0.179051803326E-01  0.184873489652E-01  0.190884419053E-01  0.197090738831E-01  0.203498795536E-01
  0.210115141380E-01  0.216946540856E-01  0.223999977557E-01  0.231282661220E-01  0.238802034980E-01
  0.246565782852E-01  0.254581837457E-01  0.262858387968E-01  0.271403888321E-01  0.280227065664E-01
  0.289336929075E-01  0.298742778541E-01  0.308454214212E-01  0.318481145936E-01  0.328833803080E-01
  0.339522744644E-01  0.350558869681E-01  0.361953428018E-01  0.373718031302E-01  0.385864664357E-01
  0.398405696880E-01  0.411353895467E-01  0.424722435982E-01  0.438524916274E-01  0.452775369250E-01
  0.467488276307E-01  0.482678581127E-01  0.498361703841E-01  0.514553555574E-01  0.531270553354E-01
  0.548529635413E-01  0.566348276861E-01  0.584744505747E-01  0.603736919501E-01  0.623344701750E-01
  0.643587639522E-01  0.664486140813E-01  0.686061252522E-01  0.708334678748E-01  0.731328799423E-01
  0.755066689287E-01  0.779572137173E-01  0.804869665591E-01  0.830984550582E-01  0.857942841818E-01
  0.885771382918E-01  0.914497831937E-01  0.944150681989E-01  0.974759281959E-01  0.100635385724E+00
  0.103896553045E+00  0.107262634201E+00  0.110736927060E+00  0.114322825328E+00  0.118023820528E+00
  0.121843503924E+00  0.125785568395E+00  0.129853810217E+00  0.134052130769E+00  0.138384538118E+00
  0.142855148484E+00  0.147468187546E+00  0.152227991580E+00  0.157139008391E+00  0.162205798016E+00
  0.167433033162E+00  0.172825499344E+00  0.178388094686E+00  0.184125829330E+00  0.190043824424E+00
  0.196147310615E+00  0.202441626003E+00  0.208932213488E+00  0.215624617438E+00  0.222524479596E+00
  0.229637534160E+00  0.236969601922E+00  0.244526583380E+00  0.252314450707E+00  0.260339238466E+00
  0.268607032924E+00  0.277123959850E+00  0.285896170621E+00  0.294929826486E+00  0.304231080801E+00
  0.313806059046E+00  0.323660836428E+00  0.333801412817E+00  0.344233684822E+00  0.354963414707E+00
  0.365996195910E+00  0.377337414863E+00  0.388992208807E+00  0.400965419285E+00  0.413261540985E+00
  0.425884665559E+00  0.438838420084E+00  0.452125899764E+00  0.465749594506E+00  0.479711308977E+00
  0.494012075749E+00  0.508652061169E+00  0.523630463562E+00  0.538945403438E+00  0.554593805374E+00
  0.570571271316E+00  0.586871945060E+00  0.603488367798E+00  0.620411324662E+00  0.637629682330E+00
  0.655130217910E+00  0.672897439454E+00  0.690913398673E+00  0.709157496639E+00  0.727606283525E+00
  0.746233253743E+00  0.765008638165E+00  0.783899195493E+00  0.802868005278E+00  0.821874265508E+00
  0.840873098182E+00  0.859815366784E+00  0.878647510073E+00  0.897311397075E+00  0.915744208649E+00
  0.933878351338E+00  0.951641409504E+00  0.968956141820E+00  0.985740528057E+00  0.100190787166E+01
  0.101736696270E+01  0.103202230449E+01  0.104577440511E+01  0.105852013218E+01  0.107015312599E+01
  0.108056426075E+01  0.108964213852E+01  0.109727359287E+01  0.110334417116E+01  0.110773855475E+01
  0.111034086562E+01  0.111103479685E+01  0.110970349257E+01  0.110622909242E+01  0.110049184680E+01
  0.109236870379E+01  0.108173126988E+01  0.106844305601E+01  0.105235594229E+01  0.103330583339E+01
  0.101111132883E+01  0.985807687503E+00  0.957639882149E+00  0.926887071694E+00  0.893843778634E+00
  0.858816011951E+00  0.822117367942E+00  0.784065177104E+00  0.744976749970E+00  0.705165768212E+00
  0.664938851888E+00  0.624592334510E+00  0.584409264544E+00  0.544656652387E+00  0.505582982225E+00
  0.467416013031E+00  0.430360900360E+00  0.394598677625E+00  0.360285140099E+00  0.327550173044E+00
  0.296497555566E+00  0.267205254725E+00  0.239726200399E+00  0.214089506845E+00  0.190302083046E+00
  0.168350556072E+00  0.148203420903E+00  0.129813327194E+00  0.113119417551E+00  0.980496415609E-01
  0.845229834322E-01  0.724515569619E-01  0.617425379926E-01  0.522999200262E-01  0.440260916811E-01
  0.368232439206E-01  0.305946197194E-01  0.252456191386E-01  0.206847696216E-01  0.168245663541E-01
  0.135821825848E-01  0.108800463991E-01  0.864627943153E-02  0.681499449879E-02  0.532645263090E-02
  0.412708464123E-02  0.316938730899E-02  0.241170868255E-02  0.181794041903E-02  0.135713717817E-02
  0.100308383162E-02  0.733830745116E-03  0.531215855812E-03  0.380389970185E-03  0.269358927600E-03
  0.188553272104E-03  0.130433074709E-03  0.891327285631E-04  0.601480295980E-04
 ae wavefunction
  0.903426078624E-03  0.932590946104E-03  0.962696243482E-03  0.993772224547E-03  0.102585011199E-02
  0.105896212791E-02  0.109314152576E-02  0.112842262287E-02  0.116484083410E-02  0.120243270661E-02
  0.124123595567E-02  0.128128950143E-02  0.132263350704E-02  0.136530941782E-02  0.140936000159E-02
  0.145482939035E-02  0.150176312312E-02  0.155020819018E-02  0.160021307858E-02  0.165182781908E-02
  0.170510403449E-02  0.176009498944E-02  0.181685564176E-02  0.187544269526E-02  0.193591465419E-02
  0.199833187932E-02  0.206275664564E-02  0.212925320186E-02  0.219788783158E-02  0.226872891639E-02
  0.234184700067E-02  0.241731485849E-02  0.249520756226E-02  0.257560255357E-02  0.265857971599E-02
  0.274422144995E-02  0.283261274990E-02  0.292384128354E-02  0.301799747346E-02  0.311517458097E-02
  0.321546879238E-02  0.331897930770E-02  0.342580843184E-02  0.353606166830E-02  0.364984781548E-02
  0.376727906570E-02  0.388847110682E-02  0.401354322671E-02  0.414261842050E-02  0.427582350072E-02
  0.441328921037E-02  0.455515033893E-02  0.470154584146E-02  0.485261896077E-02  0.500851735272E-02
  0.516939321465E-02  0.533540341719E-02  0.550670963919E-02  0.568347850602E-02  0.586588173132E-02
  0.605409626196E-02  0.624830442667E-02  0.644869408788E-02  0.665545879720E-02  0.686879795444E-02
  0.708891696997E-02  0.731602743080E-02  0.755034727009E-02  0.779210094024E-02  0.804151958944E-02
  0.829884124180E-02  0.856431098098E-02  0.883818113703E-02  0.912071147692E-02  0.941216939831E-02
  0.971283012635E-02  0.100229769140E-01  0.103429012452E-01  0.106729030410E-01  0.110132908688E-01
  0.113643821534E-01  0.117265033920E-01  0.120999903701E-01  0.124851883801E-01  0.128824524420E-01
  0.132921475251E-01  0.137146487712E-01  0.141503417190E-01  0.145996225288E-01  0.150628982077E-01
  0.155405868336E-01  0.160331177802E-01  0.165409319394E-01  0.170644819417E-01  0.176042323759E-01
  0.181606600036E-01  0.187342539715E-01  0.193255160182E-01  0.199349606759E-01  0.205631154658E-01
  0.212105210863E-01  0.218777315920E-01  0.225653145642E-01  0.232738512700E-01  0.240039368094E-01
  0.247561802488E-01  0.255312047399E-01  0.263296476211E-01  0.271521605007E-01  0.279994093207E-01
  0.288720743966E-01  0.297708504340E-01  0.306964465179E-01  0.316495860726E-01  0.326310067903E-01
  0.336414605245E-01  0.346817131458E-01  0.357525443578E-01  0.368547474674E-01  0.379891291091E-01
  0.391565089164E-01  0.403577191387E-01  0.415936041984E-01  0.428650201828E-01  0.441728342687E-01
  0.455179240713E-01  0.469011769151E-01  0.483234890188E-01  0.497857645899E-01  0.512889148217E-01
  0.528338567875E-01  0.544215122221E-01  0.560528061879E-01  0.577286656129E-01  0.594500176967E-01
  0.612177881736E-01  0.630328994248E-01  0.648962684304E-01  0.668088045522E-01  0.687714071354E-01
  0.707849629213E-01  0.728503432576E-01  0.749684010971E-01  0.771399677714E-01  0.793658495284E-01
  0.816468238205E-01  0.839836353321E-01  0.863769917291E-01  0.888275591226E-01  0.913359572270E-01
  0.939027542020E-01  0.965284611625E-01  0.992135263409E-01  0.101958328889E+00  0.104763172300E+00
  0.107628277445E+00  0.110553775191E+00  0.113539698609E+00  0.116585974736E+00  0.119692415891E+00
  0.122858710520E+00  0.126084413566E+00  0.129368936348E+00  0.132711535932E+00  0.136111303991E+00
  0.139567155140E+00  0.143077814740E+00  0.146641806164E+00  0.150257437527E+00  0.153922787859E+00
  0.157635692752E+00  0.161393729460E+00  0.165194201471E+00  0.169034122561E+00  0.172910200341E+00
  0.176818819327E+00  0.180756023548E+00  0.184717498731E+00  0.188698554093E+00  0.192694103795E+00
  0.196698648097E+00  0.200706254289E+00  0.204710537451E+00  0.208704641134E+00  0.212681218042E+00
  0.216632410817E+00  0.220549833043E+00  0.224424550579E+00  0.228247063383E+00  0.232007287947E+00
  0.235694540534E+00  0.239297521387E+00  0.242804300111E+00  0.246202302434E+00  0.249478298604E+00
  0.252618393636E+00  0.255608019708E+00  0.258431930985E+00  0.261074201175E+00  0.263518224142E+00
  0.265746717935E+00  0.267741732585E+00  0.269484662062E+00  0.270956260793E+00  0.272136665158E+00
  0.273005420404E+00  0.273541513425E+00  0.273723411867E+00  0.273529110032E+00  0.272936182059E+00
  0.271921842865E+00  0.270463017315E+00  0.268536418116E+00  0.266118632871E+00  0.263186220760E+00
  0.259715819257E+00  0.255684261275E+00  0.251068703078E+00  0.245846763274E+00  0.239996673102E+00
  0.233497438202E+00  0.226329011930E+00  0.218472480223E+00  0.209910257886E+00  0.200626296068E+00
  0.190606300566E+00  0.179837960434E+00  0.168311186250E+00  0.156018357195E+00  0.142954575939E+00
  0.129117930142E+00  0.114509759130E+00  0.991349241228E-01  0.830020801053E-01  0.661239471428E-01
  0.485175786222E-01  0.302046235254E-01  0.112115794481E-01 -0.842996730679E-02 -0.286831185218E-01
 -0.495054617937E-01 -0.708488929197E-01 -0.926594658127E-01 -0.114877271318E+00 -0.137436344396E+00
 -0.160264597383E+00 -0.183283776403E+00 -0.206409439403E+00 -0.229550958329E+00 -0.252611554080E+00
 -0.275488379593E+00 -0.298072671434E+00 -0.320249990665E+00 -0.341900568055E+00 -0.362899757902E+00
 -0.383118593051E+00 -0.402424426502E+00 -0.420681645702E+00 -0.437752449871E+00 -0.453497687492E+00
 -0.467777752815E+00 -0.480453541722E+00 -0.491387463483E+00 -0.500444503381E+00 -0.507493327930E+00
 -0.512407423601E+00 -0.515066258108E+00 -0.515356454739E+00 -0.513172968342E+00 -0.508420253860E+00
 -0.501013416916E+00 -0.490879337017E+00 -0.477957754120E+00 -0.462202308701E+00 -0.443581525716E+00
 -0.422079733191E+00 -0.397697904065E+00 -0.370454411608E+00 -0.340385685768E+00 -0.307546758381E+00
 -0.272011683454E+00 -0.233873817997E+00 -0.193245948419E+00 -0.150260247126E+00 -0.105068045590E+00
 -0.578394119947E-01 -0.876252620286E-02  0.419571491219E-01  0.940978947347E-01  0.147422943822E+00
  0.201681853231E+00  0.256612016094E+00  0.311940304778E+00  0.367384858053E+00  0.422657071783E+00
  0.477463917876E+00  0.531510805019E+00  0.584505255755E+00  0.636161612162E+00  0.686206527196E+00
  0.734383858938E+00  0.780455998376E+00  0.824198389792E+00  0.865387706669E+00  0.903790900433E+00
  0.939164603471E+00  0.971266708477E+00  0.999872155994E+00  0.102478437430E+01  0.104584031281E+01
  0.106291156439E+01  0.107590428077E+01  0.108475917795E+01  0.108945187557E+01  0.108999336564E+01
  0.108643031054E+01  0.107884491610E+01  0.106735423210E+01  0.105210881811E+01  0.103329079211E+01
  0.101111132883E+01  0.985807687503E+00  0.957639882149E+00  0.926887071694E+00  0.893843778634E+00
  0.858816011951E+00  0.822117367942E+00  0.784065177104E+00  0.744976749970E+00  0.705165768212E+00
  0.664938851888E+00  0.624592334510E+00  0.584409264544E+00  0.544656652387E+00  0.505582982225E+00
  0.467416013031E+00  0.430360900360E+00  0.394598677625E+00  0.360285140099E+00  0.327550173044E+00
  0.296497555566E+00  0.267205254725E+00  0.239726200399E+00  0.214089506845E+00  0.190302083046E+00
  0.168350556072E+00  0.148203420903E+00  0.129813327194E+00  0.113119417551E+00  0.980496415609E-01
  0.845229834322E-01  0.724515569619E-01  0.617425379926E-01  0.522999200262E-01  0.440260916811E-01
  0.368232439206E-01  0.305946197194E-01  0.252456191386E-01  0.206847696216E-01  0.168245663541E-01
  0.135821825848E-01  0.108800463991E-01  0.864627943153E-02  0.681499449879E-02  0.532645263090E-02
  0.412708464123E-02  0.316938730899E-02  0.241170868255E-02  0.181794041903E-02  0.135713717817E-02
  0.100308383162E-02  0.733830745116E-03  0.531215855812E-03  0.380389970185E-03  0.269358927600E-03
  0.188553272104E-03  0.130433074709E-03  0.891327285631E-04  0.601480295980E-04
 pseudo wavefunction
  0.115012624033E-03  0.118752547634E-03  0.122614084220E-03  0.126601188341E-03  0.130717943140E-03
  0.134968564534E-03  0.139357405530E-03  0.143888960685E-03  0.148567870706E-03  0.153398927207E-03
  0.158387077611E-03  0.163537430219E-03  0.168855259443E-03  0.174346011204E-03  0.180015308511E-03
  0.185868957219E-03  0.191912951977E-03  0.198153482361E-03  0.204596939220E-03  0.211249921216E-03
  0.218119241584E-03  0.225211935106E-03  0.232535265320E-03  0.240096731955E-03  0.247904078613E-03
  0.255965300697E-03  0.264288653603E-03  0.272882661168E-03  0.281756124407E-03  0.290918130520E-03
  0.300378062199E-03  0.310145607240E-03  0.320230768459E-03  0.330643873940E-03  0.341395587610E-03
  0.352496920161E-03  0.363959240324E-03  0.375794286513E-03  0.388014178845E-03  0.400631431553E-03
  0.413658965801E-03  0.427110122918E-03  0.440998678057E-03  0.455338854307E-03  0.470145337253E-03
  0.485433290019E-03  0.501218368798E-03  0.517516738878E-03  0.534345091204E-03  0.551720659468E-03
  0.569661237757E-03  0.588185198777E-03  0.607311512666E-03  0.627059766424E-03  0.647450183970E-03
  0.668503646852E-03  0.690241715632E-03  0.712686651967E-03  0.735861441405E-03  0.759789816925E-03
  0.784496283240E-03  0.810006141894E-03  0.836345517169E-03  0.863541382843E-03  0.891621589808E-03
  0.920614894595E-03  0.950550988822E-03  0.981460529598E-03  0.101337517092E-02  0.104632759609E-02
  0.108035155119E-02  0.111548187961E-02  0.115175455778E-02  0.118920673196E-02  0.122787675634E-02
  0.126780423225E-02  0.130903004875E-02  0.135159642452E-02  0.139554695104E-02  0.144092663729E-02
  0.148778195581E-02  0.153616089027E-02  0.158611298465E-02  0.163768939396E-02  0.169094293659E-02
  0.174592814847E-02  0.180270133884E-02  0.186132064795E-02  0.192184610661E-02  0.198433969761E-02
  0.204886541925E-02  0.211548935085E-02  0.218427972040E-02  0.225530697444E-02  0.232864385020E-02
  0.240436545007E-02  0.248254931850E-02  0.256327552144E-02  0.264662672826E-02  0.273268829644E-02
  0.282154835898E-02  0.291329791459E-02  0.300803092094E-02  0.310584439078E-02  0.320683849135E-02
  0.331111664687E-02  0.341878564447E-02  0.352995574353E-02  0.364474078853E-02  0.376325832565E-02
  0.388562972307E-02  0.401198029525E-02  0.414243943123E-02  0.427714072705E-02  0.441622212256E-02
  0.455982604258E-02  0.470809954276E-02  0.486119446001E-02  0.501926756804E-02  0.518248073772E-02
  0.535100110282E-02  0.552500123107E-02  0.570465930075E-02  0.589015928304E-02  0.608169113032E-02
  0.627945097053E-02  0.648364130784E-02  0.669447122992E-02  0.691215662180E-02  0.713692038677E-02
  0.736899267444E-02  0.760861111612E-02  0.785602106794E-02  0.811147586179E-02  0.837523706436E-02
  0.864757474472E-02  0.892876775037E-02  0.921910399242E-02  0.951888073990E-02  0.982840492363E-02
  0.101479934499E-01  0.104779735244E-01  0.108186829866E-01  0.111704706545E-01  0.115336966818E-01
  0.119087329247E-01  0.122959633225E-01  0.126957842889E-01  0.131086051172E-01  0.135348483976E-01
  0.139749504485E-01  0.144293617615E-01  0.148985474611E-01  0.153829877784E-01  0.158831785407E-01
  0.163996316770E-01  0.169328757389E-01  0.174834564391E-01  0.180519372066E-01  0.186388997601E-01
  0.192449446992E-01  0.198706921151E-01  0.205167822204E-01  0.211838759993E-01  0.218726558782E-01
  0.225838264179E-01  0.233181150273E-01  0.240762727008E-01  0.248590747775E-01  0.256673217261E-01
  0.265018399528E-01  0.273634826364E-01  0.282531305881E-01  0.291716931394E-01  0.301201090566E-01
  0.310993474853E-01  0.321104089226E-01  0.331543262208E-01  0.342321656210E-01  0.353450278197E-01
  0.364940490666E-01  0.376804022973E-01  0.389052982996E-01  0.401699869151E-01  0.414757582777E-01
  0.428239440877E-01  0.442159189256E-01  0.456531016031E-01  0.471369565548E-01  0.486689952698E-01
  0.502507777650E-01  0.518839141007E-01  0.535700659385E-01  0.553109481439E-01  0.571083304326E-01
  0.589640390622E-01  0.608799585696E-01  0.628580335553E-01  0.649002705134E-01  0.670087397100E-01
  0.691855771082E-01  0.714329863414E-01  0.737532407340E-01  0.761486853702E-01  0.786217392095E-01
  0.811748972499E-01  0.838107327370E-01  0.865318994189E-01  0.893411338445E-01  0.922412577055E-01
  0.952351802192E-01  0.983259005494E-01  0.101516510264E+00  0.104810195827E+00  0.108210241116E+00
  0.111720029971E+00  0.115343048757E+00  0.119082888949E+00  0.122943249720E+00  0.126927940530E+00
  0.131040883715E+00  0.135286117054E+00  0.139667796311E+00  0.144190197741E+00  0.148857720543E+00
  0.153674889247E+00  0.158646356020E+00  0.163776902872E+00  0.169071443737E+00  0.174535026414E+00
  0.180172834335E+00  0.185990188141E+00  0.191992547020E+00  0.198185509787E+00  0.204574815668E+00
  0.211166344721E+00  0.217966117890E+00  0.224980296594E+00  0.232215181830E+00  0.239677212710E+00
  0.247372964362E+00  0.255309145129E+00  0.263492592975E+00  0.271930271011E+00  0.280629262034E+00
  0.289596761982E+00  0.298840072170E+00  0.308366590188E+00  0.318183799316E+00  0.328299256293E+00
  0.338720577282E+00  0.349455421834E+00  0.360511474666E+00  0.371896425022E+00  0.383617943390E+00
  0.395683655329E+00  0.408101112105E+00  0.420877757885E+00  0.434020893128E+00  0.447537633871E+00
  0.461434866519E+00  0.475719197784E+00  0.490396899328E+00  0.505473846708E+00  0.520955452150E+00
  0.536846590667E+00  0.553151519037E+00  0.569873787102E+00  0.587016140860E+00  0.604580416802E+00
  0.622567426925E+00  0.640976833871E+00  0.659807015636E+00  0.679054919303E+00  0.698715903302E+00
  0.718783567706E+00  0.739249572163E+00  0.760103441113E+00  0.781332356049E+00  0.802920934705E+00
  0.824850997181E+00  0.847101319236E+00  0.869647373154E+00  0.892461056891E+00  0.915510412462E+00
  0.938759334922E+00  0.962167273653E+00  0.985688928128E+00  0.100927394083E+01  0.103286659050E+01
  0.105640548953E+01  0.107982328993E+01  0.110304640277E+01  0.112599473700E+01  0.114858146370E+01
  0.117071281280E+01  0.119228790935E+01  0.121319865710E+01  0.123332967699E+01  0.125255830783E+01
  0.127075467602E+01  0.128778183999E+01  0.130349601287E+01  0.131774686500E+01  0.133037790368E+01
  0.134122692379E+01  0.135012651665E+01  0.135690461825E+01  0.136138506942E+01  0.136338815178E+01
  0.136273105310E+01  0.135922820528E+01  0.135269142818E+01  0.134292980335E+01  0.132974919606E+01
  0.131295134241E+01  0.129233242442E+01  0.126768107237E+01  0.123877576437E+01  0.120538164232E+01
  0.116725783119E+01  0.112440203268E+01  0.107707525393E+01  0.102556721761E+01  0.000000000000E+00
  0.000000000000E+00  0.000000000000E+00  0.000000000000E+00  0.000000000000E+00  0.000000000000E+00
  0.000000000000E+00  0.000000000000E+00  0.000000000000E+00  0.000000000000E+00  0.000000000000E+00
  0.000000000000E+00  0.000000000000E+00  0.000000000000E+00  0.000000000000E+00  0.000000000000E+00
  0.000000000000E+00  0.000000000000E+00  0.000000000000E+00  0.000000000000E+00  0.000000000000E+00
  0.000000000000E+00  0.000000000000E+00  0.000000000000E+00  0.000000000000E+00  0.000000000000E+00
  0.000000000000E+00  0.000000000000E+00  0.000000000000E+00  0.000000000000E+00  0.000000000000E+00
  0.000000000000E+00  0.000000000000E+00  0.000000000000E+00  0.000000000000E+00  0.000000000000E+00
  0.000000000000E+00  0.000000000000E+00  0.000000000000E+00  0.000000000000E+00  0.000000000000E+00
  0.000000000000E+00  0.000000000000E+00  0.000000000000E+00  0.000000000000E+00  0.000000000000E+00
  0.000000000000E+00  0.000000000000E+00  0.000000000000E+00  0.000000000000E+00  0.000000000000E+00
  0.000000000000E+00  0.000000000000E+00  0.000000000000E+00  0.000000000000E+00
 ae wavefunction
  0.112835692434E-02  0.116478312552E-02  0.120238390047E-02  0.124119703542E-02  0.128126152675E-02
  0.132261761905E-02  0.136530684509E-02  0.140937206636E-02  0.145485751512E-02  0.150180883791E-02
  0.155027314014E-02  0.160029903213E-02  0.165193667666E-02  0.170523783793E-02  0.176025593186E-02
  0.181704607825E-02  0.187566515420E-02  0.193617184942E-02  0.199862672304E-02  0.206309226223E-02
  0.212963294260E-02  0.219831529039E-02  0.226920794654E-02  0.234238173271E-02  0.241790971928E-02
  0.249586729533E-02  0.257633224082E-02  0.265938480077E-02  0.274510776178E-02  0.283358653074E-02
  0.292490921586E-02  0.301916671013E-02  0.311645277715E-02  0.321686413954E-02  0.332050056989E-02
  0.342746498433E-02  0.353786353878E-02  0.365180572806E-02  0.376940448772E-02  0.389077629883E-02
  0.401604129570E-02  0.414532337671E-02  0.427875031812E-02  0.441645389118E-02  0.455856998243E-02
  0.470523871725E-02  0.485660458691E-02  0.501281657900E-02  0.517402831137E-02  0.534039816973E-02
  0.551208944881E-02  0.568927049732E-02  0.587211486668E-02  0.606080146356E-02  0.625551470646E-02
  0.645644468606E-02  0.666378732986E-02  0.687774457067E-02  0.709852451944E-02  0.732634164219E-02
  0.756141694114E-02  0.780397814028E-02  0.805425987507E-02  0.831250388662E-02  0.857895922027E-02
  0.885388242839E-02  0.913753777783E-02  0.943019746160E-02  0.973214181507E-02  0.100436595365E-01
  0.103650479119E-01  0.106966130446E-01  0.110386700885E-01  0.113915434857E-01  0.117555672093E-01
  0.121310850084E-01  0.125184506586E-01  0.129180282159E-01  0.133301922741E-01  0.137553282256E-01
  0.141938325262E-01  0.146461129623E-01  0.151125889210E-01  0.155936916640E-01  0.160898646015E-01
  0.166015635708E-01  0.171292571142E-01  0.176734267593E-01  0.182345672998E-01  0.188131870766E-01
  0.194098082580E-01  0.200249671203E-01  0.206592143251E-01  0.213131151962E-01  0.219872499919E-01
  0.226822141746E-01  0.233986186748E-01  0.241370901500E-01  0.248982712368E-01  0.256828207941E-01
  0.264914141387E-01  0.273247432690E-01  0.281835170776E-01  0.290684615501E-01  0.299803199487E-01
  0.309198529793E-01  0.318878389393E-01  0.328850738450E-01  0.339123715350E-01  0.349705637497E-01
  0.360605001817E-01  0.371830484956E-01  0.383390943152E-01  0.395295411733E-01  0.407553104223E-01
  0.420173411007E-01  0.433165897540E-01  0.446540302034E-01  0.460306532598E-01  0.474474663788E-01
  0.489054932506E-01  0.504057733211E-01  0.519493612388E-01  0.535373262203E-01  0.551707513308E-01
  0.568507326717E-01  0.585783784691E-01  0.603548080559E-01  0.621811507408E-01  0.640585445555E-01
  0.659881348726E-01  0.679710728852E-01  0.700085139385E-01  0.721016157052E-01  0.742515361936E-01
  0.764594315780E-01  0.787264538406E-01  0.810537482134E-01  0.834424504080E-01  0.858936836206E-01
  0.884085552991E-01  0.909881536588E-01  0.936335439335E-01  0.963457643443E-01  0.991258217758E-01
  0.101974687138E+00  0.104893290405E+00  0.107882515304E+00  0.110943193650E+00  0.114076099297E+00
  0.117281941695E+00  0.120561359029E+00  0.123914910930E+00  0.127343070730E+00  0.130846217249E+00
  0.134424626087E+00  0.138078460411E+00  0.141807761219E+00  0.145612437044E+00  0.149492253111E+00
  0.153446819899E+00  0.157475581108E+00  0.161577801018E+00  0.165752551207E+00  0.169998696638E+00
  0.174314881084E+00  0.178699511891E+00  0.183150744072E+00  0.187666463720E+00  0.192244270745E+00
  0.196881460936E+00  0.201575007343E+00  0.206321541008E+00  0.211117331035E+00  0.215958264043E+00
  0.220839823004E+00  0.225757065518E+00  0.230704601551E+00  0.235676570690E+00  0.240666618963E+00
  0.245667875300E+00  0.250672927696E+00  0.255673799181E+00  0.260661923670E+00  0.265628121827E+00
  0.270562577056E+00  0.275454811755E+00  0.280293664001E+00  0.285067264819E+00  0.289763016241E+00
  0.294367570351E+00  0.298866809549E+00  0.303245828277E+00  0.307488916476E+00  0.311579545069E+00
  0.315500353777E+00  0.319233141607E+00  0.322758860371E+00  0.326057611627E+00  0.329108647435E+00
  0.331890375387E+00  0.334380368334E+00  0.336555379327E+00  0.338391362244E+00  0.339863498652E+00
  0.340946231435E+00  0.341613305747E+00  0.341837817886E+00  0.341592272664E+00  0.340848649863E+00
  0.339578480410E+00  0.337752932837E+00  0.335342910639E+00  0.332319161108E+00  0.328652396190E+00
  0.324313425907E+00  0.319273304817E+00  0.313503491953E+00  0.306976024618E+00  0.299663706326E+00
  0.291540309103E+00  0.282580790254E+00  0.272761523580E+00  0.262060544913E+00  0.250457811659E+00
  0.237935475915E+00  0.224478170506E+00  0.210073307134E+00  0.194711385591E+00  0.178386312787E+00
  0.161095730075E+00  0.142841347136E+00  0.123629280343E+00  0.103470393243E+00  0.823806364186E-01
  0.603813835705E-01  0.374997602077E-01  0.137689608420E-01 -0.107714499064E-01 -0.360752572407E-01
 -0.620893422249E-01 -0.887534585789E-01 -0.116000043827E+00 -0.143754066521E+00 -0.171932908886E+00
 -0.200446282039E+00 -0.229196170145E+00 -0.258076801642E+00 -0.286974650711E+00 -0.315768479823E+00
 -0.344329442622E+00 -0.372521272605E+00 -0.400200583665E+00 -0.427217301295E+00 -0.453415229894E+00
 -0.478632746903E+00 -0.502703605639E+00 -0.525457829470E+00 -0.546722685399E+00 -0.566323733549E+00
 -0.584085951214E+00 -0.599834931992E+00 -0.613398155792E+00 -0.624606323525E+00 -0.633294746253E+00
 -0.639304777565E+00 -0.642485275611E+00 -0.642694083036E+00 -0.639799510676E+00 -0.633681813794E+00
 -0.624234647821E+00 -0.611366491926E+00 -0.595002028953E+00 -0.575083469478E+00 -0.551571808039E+00
 -0.524447999991E+00 -0.493714044790E+00 -0.459393963589E+00 -0.421534655265E+00 -0.380206615729E+00
 -0.335504503111E+00 -0.287547530522E+00 -0.236479667443E+00 -0.182469630279E+00 -0.125710644701E+00
 -0.664199646058E-01 -0.483813839371E-02  0.587719791710E-01  0.124126461644E+00  0.190921774263E+00
  0.258836440679E+00  0.327532887649E+00  0.396659454741E+00  0.465852587636E+00  0.534739290721E+00
  0.602939996510E+00  0.670072120093E+00  0.735754641423E+00  0.799613976930E+00  0.861290827159E+00
  0.920446257915E+00  0.976763296354E+00  0.102994001410E+01  0.107967473687E+01  0.112565245354E+01
  0.116754424429E+01  0.120502190201E+01  0.123777772143E+01  0.126553878936E+01  0.128807325816E+01
  0.130519174661E+01  0.131674723807E+01  0.132263507543E+01  0.132279333787E+01  0.131720332923E+01
  0.130588979116E+01  0.128892051501E+01  0.126640515937E+01  0.123849318595E+01  0.120537092396E+01
  0.116725783119E+01  0.112440203268E+01  0.107707525393E+01  0.102556721761E+01  0.000000000000E+00
  0.000000000000E+00  0.000000000000E+00  0.000000000000E+00  0.000000000000E+00  0.000000000000E+00
  0.000000000000E+00  0.000000000000E+00  0.000000000000E+00  0.000000000000E+00  0.000000000000E+00
  0.000000000000E+00  0.000000000000E+00  0.000000000000E+00  0.000000000000E+00  0.000000000000E+00
  0.000000000000E+00  0.000000000000E+00  0.000000000000E+00  0.000000000000E+00  0.000000000000E+00
  0.000000000000E+00  0.000000000000E+00  0.000000000000E+00  0.000000000000E+00  0.000000000000E+00
  0.000000000000E+00  0.000000000000E+00  0.000000000000E+00  0.000000000000E+00  0.000000000000E+00
  0.000000000000E+00  0.000000000000E+00  0.000000000000E+00  0.000000000000E+00  0.000000000000E+00
  0.000000000000E+00  0.000000000000E+00  0.000000000000E+00  0.000000000000E+00  0.000000000000E+00
  0.000000000000E+00  0.000000000000E+00  0.000000000000E+00  0.000000000000E+00  0.000000000000E+00
  0.000000000000E+00  0.000000000000E+00  0.000000000000E+00  0.000000000000E+00  0.000000000000E+00
  0.000000000000E+00  0.000000000000E+00  0.000000000000E+00  0.000000000000E+00
 pseudo wavefunction
  0.491295143029E-08  0.523766017452E-08  0.558382969845E-08  0.595287839647E-08  0.634631840806E-08
  0.676576181362E-08  0.721292723983E-08  0.768964690148E-08  0.819787410888E-08  0.873969127127E-08
  0.931731842930E-08  0.993312235146E-08  0.105896262316E-07  0.112895200275E-07  0.120356714828E-07
  0.128311378771E-07  0.136791785528E-07  0.145832682702E-07  0.155471114450E-07  0.165746573262E-07
  0.176701161785E-07  0.188379765328E-07  0.200830235780E-07  0.214103587674E-07  0.228254207215E-07
  0.243340075126E-07  0.259423004210E-07  0.276568892631E-07  0.294847993915E-07  0.314335204816E-07
  0.335110372192E-07  0.357258620170E-07  0.380870698934E-07  0.406043356567E-07  0.432879735460E-07
  0.461489794934E-07  0.491990761783E-07  0.524507610599E-07  0.559173575845E-07  0.596130697766E-07
  0.635530404385E-07  0.677534131965E-07  0.722313986476E-07  0.770053448781E-07  0.820948126430E-07
  0.875206555142E-07  0.933051053258E-07  0.994718632664E-07  0.106046196993E-06  0.113055044161E-06
  0.120527122800E-06  0.128493048983E-06  0.136985462270E-06  0.146039159448E-06  0.155691237106E-06
  0.165981243633E-06  0.176951341266E-06  0.188646478842E-06  0.201114575973E-06  0.214406719391E-06
  0.228577372271E-06  0.243684597384E-06  0.259790295008E-06  0.276960456555E-06  0.295265434962E-06
  0.314780232955E-06  0.335584810367E-06  0.357764411759E-06  0.381409915703E-06  0.406618207147E-06
  0.433492574386E-06  0.462143132277E-06  0.492687273418E-06  0.525250149154E-06  0.559965182365E-06
  0.596974614152E-06  0.636430086651E-06  0.678493264366E-06  0.723336496573E-06  0.771143523492E-06
  0.822110229143E-06  0.876445443949E-06  0.934371800396E-06  0.996126645233E-06  0.106196301197E-05
  0.113215065764E-05  0.120697716810E-05  0.128674913636E-05  0.137179341880E-05  0.146245847440E-05
  0.155911579255E-05  0.166216141508E-05  0.177201755903E-05  0.188913434663E-05  0.201399164951E-05
  0.214710105497E-05  0.228900796208E-05  0.244029381632E-05  0.260157849198E-05  0.277352283192E-05
  0.295683135527E-05  0.315225514401E-05  0.336059492035E-05  0.358270432754E-05  0.381949342738E-05
  0.407193242905E-05  0.434105566419E-05  0.462796582485E-05  0.493383848141E-05  0.525992689913E-05
  0.560756717299E-05  0.597818370188E-05  0.637329502462E-05  0.679452004154E-05  0.724358464737E-05
  0.772232880234E-05  0.823271407067E-05  0.877683165719E-05  0.935691097504E-05  0.997532877966E-05
  0.106346189062E-04  0.113374826507E-04  0.120867998369E-04  0.128856406146E-04  0.137372780378E-04
  0.146452014736E-04  0.156131308975E-04  0.166450321332E-04  0.177451330993E-04  0.189179411297E-04
  0.201682614384E-04  0.215012168042E-04  0.229222685562E-04  0.244372389457E-04  0.260523349967E-04
  0.277741739312E-04  0.296098102753E-04  0.315667647555E-04  0.336530551042E-04  0.358772289000E-04
  0.382483985783E-04  0.407762787531E-04  0.434712260058E-04  0.463442813008E-04  0.494072152037E-04
  0.526725760853E-04  0.561537415099E-04  0.598649730164E-04  0.638214745185E-04  0.680394545599E-04
  0.725361926811E-04  0.773301101683E-04  0.824408454724E-04  0.878893346083E-04  0.936978968603E-04
  0.998903261462E-04  0.106491988410E-03  0.113529925443E-03  0.121032965558E-03  0.129031841561E-03
  0.137559316511E-03  0.146650317774E-03  0.156342079921E-03  0.166674297046E-03  0.177689285135E-03
  0.189432155130E-03  0.201950997415E-03  0.215297078450E-03  0.229525050367E-03  0.244693174378E-03
  0.260863558895E-03  0.278102413332E-03  0.296480318621E-03  0.316072515533E-03  0.336959211969E-03
  0.359225910473E-03  0.382963757279E-03  0.408269914311E-03  0.435247955628E-03  0.464008289920E-03
  0.494668610743E-03  0.527354376316E-03  0.562199320796E-03  0.599345999085E-03  0.638946367350E-03
  0.681162401573E-03  0.726166756597E-03  0.774143468302E-03  0.825288701694E-03  0.879811547871E-03
  0.937934873029E-03  0.999896222860E-03  0.106594878589E-02  0.113636241958E-02  0.121142474311E-02
  0.129144230130E-02  0.137674180395E-02  0.146767144565E-02  0.156460231095E-02  0.166792987048E-02
  0.177807557359E-02  0.189548854370E-02  0.202064738275E-02  0.215406209149E-02  0.229627611301E-02
  0.244786850687E-02  0.260945626209E-02  0.278169675744E-02  0.296529037790E-02  0.316098329701E-02
  0.336957043474E-02  0.359189860178E-02  0.382886984090E-02  0.408144497731E-02  0.435064739003E-02
  0.463756701705E-02  0.494336460775E-02  0.526927623638E-02  0.561661809135E-02  0.598679155535E-02
  0.638128859216E-02  0.680169745647E-02  0.724970874356E-02  0.772712179636E-02  0.823585148766E-02
  0.877793539591E-02  0.935554139316E-02  0.997097566419E-02  0.106266911757E-01  0.113252966151E-01
  0.120695658166E-01  0.128624476957E-01  0.137070767065E-01  0.146067838426E-01  0.155651081953E-01
  0.165858090841E-01  0.176728787729E-01  0.188305557806E-01  0.200633387947E-01  0.213760011901E-01
  0.227736061527E-01  0.242615224011E-01  0.258454404945E-01  0.275313897060E-01  0.293257554334E-01
  0.312352971078E-01  0.332671665505E-01  0.354289267138E-01  0.377285707253E-01  0.401745411397E-01
  0.427757492777E-01  0.455415945135E-01  0.484819833403E-01  0.516073480169E-01  0.549286645648E-01
  0.584574698437E-01  0.622058773942E-01  0.661865916883E-01  0.704129203720E-01  0.748987840304E-01
  0.796587229373E-01  0.847079001810E-01  0.900621004797E-01  0.957377239167E-01  0.101751773730E+00
  0.108121837198E+00  0.114866058553E+00  0.122003102741E+00  0.129552108748E+00  0.137532631061E+00
  0.145964567752E+00  0.154868073511E+00  0.164263455872E+00  0.174171052757E+00  0.184611089347E+00
  0.195603512268E+00  0.207167798962E+00  0.219322740180E+00  0.232086193507E+00  0.245474805986E+00
  0.259503704054E+00  0.274186149296E+00  0.289533158912E+00  0.305553090341E+00  0.322251190147E+00
  0.339629108213E+00  0.357684379355E+00  0.376409875838E+00  0.395793235907E+00  0.415816275354E+00
  0.436454391381E+00  0.457675970539E+00  0.479441815374E+00  0.501704607504E+00  0.524408428123E+00
  0.547488360338E+00  0.570870201001E+00  0.594470312745E+00  0.618195649290E+00  0.641943988501E+00
  0.665604407565E+00  0.689058032365E+00  0.712179088030E+00  0.734836268657E+00  0.756894430536E+00
  0.778216593643E+00  0.798666209656E+00  0.818109620309E+00  0.836418586674E+00  0.853472717646E+00
  0.869161564846E+00  0.883386082766E+00  0.896059080236E+00  0.907104217236E+00  0.916453037330E+00
  0.924039481607E+00  0.929791319649E+00  0.933617975746E+00  0.935394347453E+00  0.934940435212E+00
  0.932000150764E+00  0.926453951972E+00  0.918353454858E+00  0.907781441120E+00  0.894836841187E+00
  0.879633511513E+00  0.862298917620E+00  0.842972751931E+00  0.821805508735E+00  0.798957014276E+00
  0.774594934653E+00  0.748893239003E+00  0.722030614826E+00  0.694188824273E+00  0.665550983659E+00
  0.636299769906E+00  0.606615561454E+00  0.576674547032E+00  0.546646852545E+00  0.516694755551E+00
  0.486971065295E+00  0.457617745339E+00  0.428764843312E+00  0.400529771797E+00  0.373016955607E+00
  0.346317832902E+00  0.320511171399E+00  0.295663639908E+00  0.271830561148E+00  0.249056764651E+00
  0.227377458861E+00  0.206819049332E+00  0.187399844944E+00  0.169130615483E+00  0.152014989672E+00
  0.136049709456E+00  0.121224779781E+00  0.107523569217E+00  0.949229228435E-01  0.833933444121E-01
  0.728992917419E-01  0.633996109496E-01  0.548481153782E-01  0.471942972578E-01  0.403841464126E-01
  0.343610416644E-01  0.290666768510E-01  0.244419838142E-01  0.204280182263E-01  0.169667796172E-01
  0.140019434580E-01  0.114794898993E-01  0.934822020057E-02  0.756015768227E-02  0.607083497393E-02
  0.483947334516E-02  0.382906298189E-02  0.300635525500E-02  0.234177940308E-02
 ae wavefunction
 -0.334028943372E-06 -0.354388576073E-06 -0.375878980838E-06 -0.398569474333E-06 -0.422533355379E-06
 -0.447848165451E-06 -0.474595943808E-06 -0.502863515392E-06 -0.532742791620E-06 -0.564331084899E-06
 -0.597731447436E-06 -0.633053031057E-06 -0.670411467525E-06 -0.709929270257E-06 -0.751736269637E-06
 -0.795970064574E-06 -0.842776510383E-06 -0.892310233520E-06 -0.944735180707E-06 -0.100022520006E-05
 -0.105896466210E-05 -0.112114911769E-05 -0.118698599796E-05 -0.125669535960E-05 -0.133051067641E-05
 -0.140867968146E-05 -0.149146526335E-05 -0.157914641845E-05 -0.167201926495E-05 -0.177039812115E-05
 -0.187461665258E-05 -0.198502909280E-05 -0.210201154216E-05 -0.222596334991E-05 -0.235730858497E-05
 -0.249649760108E-05 -0.264400870265E-05 -0.280034991750E-05 -0.296606088413E-05 -0.314171485988E-05
 -0.332792085892E-05 -0.352532592849E-05 -0.373461757052E-05 -0.395652632148E-05 -0.419182849628E-05
 -0.444134911278E-05 -0.470596500195E-05 -0.498660812015E-05 -0.528426907732E-05 -0.560000088900E-05
 -0.593492297667E-05 -0.629022542134E-05 -0.666717349589E-05 -0.706711248905E-05 -0.749147284070E-05
 -0.794177561311E-05 -0.841963831006E-05 -0.892678107768E-05 -0.946503330446E-05 -0.100363406453E-04
 -0.106427725068E-04 -0.112865300069E-04 -0.119699544583E-04 -0.126955363944E-04 -0.134659251778E-04
 -0.142839392354E-04 -0.151525769482E-04 -0.160750282446E-04 -0.170546869456E-04 -0.180951639058E-04
 -0.192003009967E-04 -0.203741859891E-04 -0.216211684112E-04 -0.229458764142E-04 -0.243532347042E-04
 -0.258484836789E-04 -0.274371997417E-04 -0.291253169430E-04 -0.309191500259E-04 -0.328254189137E-04
 -0.348512748063E-04 -0.370043279085E-04 -0.392926769816E-04 -0.417249407327E-04 -0.443102912515E-04
 -0.470584895586E-04 -0.499799234301E-04 -0.530856476369E-04 -0.563874267324E-04 -0.598977805747E-04
 -0.636300327426E-04 -0.675983620064E-04 -0.718178570856E-04 -0.763045748581E-04 -0.810756022560E-04
 -0.861491220759E-04 -0.915444829200E-04 -0.972822735808E-04 -0.103384402062E-03 -0.109874179596E-03
 -0.116776409908E-03 -0.124117484086E-03 -0.131925481364E-03 -0.140230276213E-03 -0.149063652074E-03
 -0.158459422210E-03 -0.168453557977E-03 -0.179084325129E-03 -0.190392428488E-03 -0.202421165541E-03
 -0.215216589484E-03 -0.228827682300E-03 -0.243306538406E-03 -0.258708559492E-03 -0.275092661287E-03
 -0.292521492831E-03 -0.311061669036E-03 -0.330784017301E-03 -0.351763838950E-03 -0.374081186369E-03
 -0.397821156707E-03 -0.423074203073E-03 -0.449936464197E-03 -0.478510113599E-03 -0.508903729314E-03
 -0.541232685297E-03 -0.575619565689E-03 -0.612194603165E-03 -0.651096142635E-03 -0.692471131648E-03
 -0.736475638884E-03 -0.783275402156E-03 -0.833046407501E-03 -0.885975500821E-03 -0.942261033792E-03
 -0.100211354566E-02 -0.106575648270E-02 -0.113342695711E-02 -0.120537654719E-02 -0.128187214074E-02
 -0.136319682363E-02 -0.144965081547E-02 -0.154155245454E-02 -0.163923923402E-02 -0.174306889157E-02
 -0.185342055464E-02 -0.197069594326E-02 -0.209532063302E-02 -0.222774537998E-02 -0.236844750988E-02
 -0.251793237382E-02 -0.267673487243E-02 -0.284542105055E-02 -0.302458976460E-02 -0.321487442421E-02
 -0.341694481014E-02 -0.363150896998E-02 -0.385931519293E-02 -0.410115406524E-02 -0.435786060678E-02
 -0.463031648993E-02 -0.491945234072E-02 -0.522625012247E-02 -0.555174560132E-02 -0.589703089275E-02
 -0.626325708753E-02 -0.665163695512E-02 -0.706344772137E-02 -0.750003391739E-02 -0.796281029461E-02
 -0.845326480104E-02 -0.897296161194E-02 -0.952354420752E-02 -0.101067384885E-01 -0.107243559194E-01
 -0.113782966878E-01 -0.120705528655E-01 -0.128032115575E-01 -0.135784580198E-01 -0.143985787280E-01
 -0.152659643752E-01 -0.161831127729E-01 -0.171526316312E-01 -0.181772411864E-01 -0.192597766440E-01
 -0.204031904018E-01 -0.216105540130E-01 -0.228850598468E-01 -0.242300224002E-01 -0.256488792098E-01
 -0.271451913082E-01 -0.287226431673E-01 -0.303850420629E-01 -0.321363167933E-01 -0.339805156778E-01
 -0.359218037570E-01 -0.379644591115E-01 -0.401128682099E-01 -0.423715201938E-01 -0.447449999986E-01
 -0.472379802099E-01 -0.498552115429E-01 -0.526015118349E-01 -0.554817534316E-01 -0.585008488466E-01
 -0.616637345693E-01 -0.649753528938E-01 -0.684406316392E-01 -0.720644616323E-01 -0.758516718204E-01
 -0.798070018870E-01 -0.839350722440E-01 -0.882403512774E-01 -0.927271197326E-01 -0.973994321301E-01
 -0.102261075116E+00 -0.107315522660E+00 -0.112565888039E+00 -0.118014872541E+00 -0.123664710878E+00
 -0.129517113286E+00 -0.135573204339E+00 -0.141833458534E+00 -0.148297632724E+00 -0.154964695527E+00
 -0.161832753883E+00 -0.168898976958E+00 -0.176159517685E+00 -0.183609432250E+00 -0.191242597930E+00
 -0.199051629768E+00 -0.207027796662E+00 -0.215160937550E+00 -0.223439378541E+00 -0.231849851952E+00
 -0.240377418388E+00 -0.249005393154E+00 -0.257715278375E+00 -0.266486702142E+00 -0.275297365886E+00
 -0.284123000320E+00 -0.292937329893E+00 -0.301712043703E+00 -0.310416769841E+00 -0.319019048763E+00
 -0.327484301274E+00 -0.335775788522E+00 -0.343854565252E+00 -0.351679433186E+00 -0.359206907175E+00
 -0.366391211041E+00 -0.373184320789E+00 -0.379536068527E+00 -0.385394311210E+00 -0.390705157055E+00
 -0.395413233773E+00 -0.399461980814E+00 -0.402793953479E+00 -0.405351133822E+00 -0.407075250688E+00
 -0.407908112326E+00 -0.407791955906E+00 -0.406669814476E+00 -0.404485900802E+00 -0.401186005191E+00
 -0.396717904351E+00 -0.391031777382E+00 -0.384080626600E+00 -0.375820699759E+00 -0.366211912233E+00
 -0.355218266731E+00 -0.342808269029E+00 -0.328955338257E+00 -0.313638209836E+00 -0.296841329224E+00
 -0.278555234772E+00 -0.258776926368E+00 -0.237510217582E+00 -0.214766066748E+00 -0.190562882662E+00
 -0.164926799089E+00 -0.137891911528E+00 -0.109500468978E+00 -0.798030128223E-01 -0.488584554802E-01
 -0.167340921345E-01  0.164944587780E-01  0.507433874190E-01  0.859208936547E-01  0.121927450051E+00
  0.158656116506E+00  0.195992897397E+00  0.233817140114E+00  0.272001992322E+00  0.310414968323E+00
  0.348918722482E+00  0.387372193269E+00  0.425632329138E+00  0.463556569434E+00  0.501005932695E+00
  0.537847740760E+00  0.573955830148E+00  0.609205836279E+00  0.643465762317E+00  0.676587015213E+00
  0.708402949644E+00  0.738736519240E+00  0.767411361536E+00  0.794259983153E+00  0.819127400558E+00
  0.841872012222E+00  0.862365711590E+00  0.880494239004E+00  0.896157985135E+00  0.909273108915E+00
  0.919772744019E+00  0.927608087737E+00  0.932749236722E+00  0.935185692079E+00  0.934926514873E+00
  0.932000150764E+00  0.926453951972E+00  0.918353454858E+00  0.907781441120E+00  0.894836841187E+00
  0.879633511513E+00  0.862298917620E+00  0.842972751931E+00  0.821805508735E+00  0.798957014276E+00
  0.774594934653E+00  0.748893239003E+00  0.722030614826E+00  0.694188824273E+00  0.665550983659E+00
  0.636299769906E+00  0.606615561454E+00  0.576674547032E+00  0.546646852545E+00  0.516694755551E+00
  0.486971065295E+00  0.457617745339E+00  0.428764843312E+00  0.400529771797E+00  0.373016955607E+00
  0.346317832902E+00  0.320511171399E+00  0.295663639908E+00  0.271830561148E+00  0.249056764651E+00
  0.227377458861E+00  0.206819049332E+00  0.187399844944E+00  0.169130615483E+00  0.152014989672E+00
  0.136049709456E+00  0.121224779781E+00  0.107523569217E+00  0.949229228435E-01  0.833933444121E-01
  0.728992917419E-01  0.633996109496E-01  0.548481153782E-01  0.471942972578E-01  0.403841464126E-01
  0.343610416644E-01  0.290666768510E-01  0.244419838142E-01  0.204280182263E-01  0.169667796172E-01
  0.140019434580E-01  0.114794898993E-01  0.934822020057E-02  0.756015768227E-02  0.607083497393E-02
  0.483947334516E-02  0.382906298189E-02  0.300635525500E-02  0.234177940308E-02
 pseudo wavefunction
  0.791173641949E-08  0.843464205649E-08  0.899210778118E-08  0.958641775264E-08  0.102200070955E-07
  0.108954718776E-07  0.116155797471E-07  0.123832812727E-07  0.132017220333E-07  0.140742555065E-07
  0.150044568095E-07  0.159961373474E-07  0.170533604301E-07  0.181804579217E-07  0.193820479893E-07
  0.206630540258E-07  0.220287248230E-07  0.234846560779E-07  0.250368133204E-07  0.266915563567E-07
  0.284556653279E-07  0.303363684905E-07  0.323413718341E-07  0.344788906556E-07  0.367576832204E-07
  0.391870866485E-07  0.417770551729E-07  0.445382009253E-07  0.474818374187E-07  0.506200259033E-07
  0.539656247861E-07  0.575323423168E-07  0.613347927564E-07  0.653885562571E-07  0.697102427006E-07
  0.743175597554E-07  0.792293854321E-07  0.844658454340E-07  0.900483956202E-07  0.959999099187E-07
  0.102344774050E-06  0.109108985444E-06  0.116320259765E-06  0.124008144470E-06  0.132204139876E-06
  0.140941828234E-06  0.150257011325E-06  0.160187857153E-06  0.170775056339E-06  0.182061988839E-06
  0.194094901699E-06  0.206923098537E-06  0.220599141567E-06  0.235179066961E-06  0.250722614457E-06
  0.267293472132E-06  0.284959537356E-06  0.303793195001E-06  0.323871614020E-06  0.345277063647E-06
  0.368097250482E-06  0.392425677858E-06  0.418362028963E-06  0.446012575280E-06  0.475490612021E-06
  0.506916922343E-06  0.540420272240E-06  0.576137938152E-06  0.614216269432E-06  0.654811288002E-06
  0.698089327629E-06  0.744227715463E-06  0.793415498605E-06  0.845854218715E-06  0.901758737794E-06
  0.961358118559E-06  0.102489656300E-05  0.109263441296E-05  0.116484921685E-05  0.124183686689E-05
  0.132391281145E-05  0.141141334757E-05  0.150469699893E-05  0.160414598477E-05  0.171016778606E-05
  0.182319681504E-05  0.194369619516E-05  0.207215965869E-05  0.220911356970E-05  0.235511908072E-05
  0.251077443199E-05  0.267671740268E-05  0.285362792403E-05  0.304223086526E-05  0.324329900361E-05
  0.345765619062E-05  0.368618072771E-05  0.392980896486E-05  0.418953913710E-05  0.446643545453E-05
  0.476163246274E-05  0.507633969131E-05  0.541184660958E-05  0.576952790994E-05  0.615084914024E-05
  0.655737270854E-05  0.699076428458E-05  0.745279962443E-05  0.794537184606E-05  0.847049918584E-05
  0.903033326756E-05  0.962716791797E-05  0.102634485649E-04  0.109417822565E-04  0.116649483426E-04
  0.124359098619E-04  0.132578256815E-04  0.141340634394E-04  0.150682133414E-04  0.160641028703E-04
  0.171258124666E-04  0.182576922464E-04  0.194643798230E-04  0.207508193065E-04  0.221222815594E-04
  0.235843857901E-04  0.251431225733E-04  0.268048783918E-04  0.285764617999E-04  0.304651313152E-04
  0.324786251543E-04  0.346251929316E-04  0.369136294545E-04  0.393533107497E-04  0.419542324708E-04
  0.447270508432E-04  0.476831263138E-04  0.508345700849E-04  0.541942937215E-04  0.577760620366E-04
  0.615945494693E-04  0.656654001875E-04  0.700052921604E-04  0.746320054631E-04  0.795644950928E-04
  0.848229685942E-04  0.904289688112E-04  0.964054621039E-04  0.102776932391E-03  0.109569481402E-03
  0.116810935549E-03  0.124530959853E-03  0.132761179397E-03  0.141535308789E-03  0.150889290176E-03
  0.160861440368E-03  0.171492607669E-03  0.182826339058E-03  0.194909058404E-03  0.207790256439E-03
  0.221522693260E-03  0.236162614193E-03  0.251769979892E-03  0.268408711616E-03  0.286146952668E-03
  0.305057347086E-03  0.325217336685E-03  0.346709477692E-03  0.369621778233E-03  0.394048058055E-03
  0.420088331943E-03  0.447849218383E-03  0.477444375122E-03  0.508994963405E-03  0.542630142744E-03
  0.578487598239E-03  0.616714102572E-03  0.657466114936E-03  0.700910419326E-03  0.747224804750E-03
  0.796598790098E-03  0.849234396588E-03  0.905346970874E-03  0.965166062123E-03  0.102893635656E-02
  0.109691867322E-02  0.116939102487E-02  0.124664974832E-02  0.132901070862E-02  0.141681058188E-02
  0.151040822187E-02  0.161018611560E-02  0.171655193393E-02  0.182994018285E-02  0.195081396232E-02
  0.207966683925E-02  0.221702484194E-02  0.236344858380E-02  0.251953552438E-02  0.268592237658E-02
  0.286328766900E-02  0.305235447340E-02  0.325389330739E-02  0.346872522344E-02  0.369772509559E-02
  0.394182511618E-02  0.420201851547E-02  0.447936351773E-02  0.477498754814E-02  0.509009170578E-02
  0.542595551839E-02  0.578394199601E-02  0.616550300079E-02  0.657218495177E-02  0.700563488383E-02
  0.746760688129E-02  0.795996890729E-02  0.848471005127E-02  0.904394821754E-02  0.963993827907E-02
  0.102750807215E-01  0.109519308028E-01  0.116732082561E-01  0.124418075619E-01  0.132608088188E-01
  0.141334892409E-01  0.150633353107E-01  0.160540556179E-01  0.171095944125E-01  0.182341459020E-01
  0.194321693218E-01  0.207084048066E-01  0.220678900904E-01  0.235159780588E-01  0.250583551801E-01
  0.267010608313E-01  0.284505075401E-01  0.303135021521E-01  0.322972679323E-01  0.344094676011E-01
  0.366582272968E-01  0.390521614503E-01  0.416003985415E-01  0.443126077010E-01  0.471990260990E-01
  0.502704870503E-01  0.535384487418E-01  0.570150234674E-01  0.607130072259E-01  0.646459095092E-01
  0.688279830720E-01  0.732742534325E-01  0.780005478125E-01  0.830235231689E-01  0.883606929145E-01
  0.940304518583E-01  0.100052098826E+00  0.106445856333E+00  0.113232886602E+00  0.120435303107E+00
  0.128076176714E+00  0.136179535380E+00  0.144770356224E+00  0.153874548634E+00  0.163518926937E+00
  0.173731170973E+00  0.184539772730E+00  0.195973967015E+00  0.208063643934E+00  0.220839240730E+00
  0.234331610348E+00  0.248571863834E+00  0.263591183519E+00  0.279420603698E+00  0.296090755375E+00
  0.313631571457E+00  0.332071948722E+00  0.351439362795E+00  0.371759432434E+00  0.393055429534E+00
  0.415347731528E+00  0.438653213244E+00  0.462984575907E+00  0.488349611750E+00  0.514750403806E+00
  0.542182461820E+00  0.570633796964E+00  0.600083940163E+00  0.630502911405E+00  0.661850150472E+00
  0.694073423037E+00  0.727107720143E+00  0.760874173609E+00  0.795279014867E+00  0.830212610046E+00
  0.865548609590E+00  0.901143256067E+00  0.936834898847E+00  0.972443768369E+00  0.100777206537E+01
  0.104260442079E+01  0.107670877923E+01  0.110983775180E+01  0.114173047131E+01  0.117211496318E+01
  0.120071101711E+01  0.122723350624E+01  0.125139605107E+01  0.127291486357E+01  0.129151253346E+01
  0.130692143346E+01  0.131888632791E+01  0.132716567388E+01  0.133153101477E+01  0.133176379675E+01
  0.132764890527E+01  0.131896424601E+01  0.130546581085E+01  0.128686790943E+01  0.126281864711E+01
  0.123288319788E+01  0.119679968712E+01  0.115456546998E+01  0.110621675007E+01  0.000000000000E+00
  0.000000000000E+00  0.000000000000E+00  0.000000000000E+00  0.000000000000E+00  0.000000000000E+00
  0.000000000000E+00  0.000000000000E+00  0.000000000000E+00  0.000000000000E+00  0.000000000000E+00
  0.000000000000E+00  0.000000000000E+00  0.000000000000E+00  0.000000000000E+00  0.000000000000E+00
  0.000000000000E+00  0.000000000000E+00  0.000000000000E+00  0.000000000000E+00  0.000000000000E+00
  0.000000000000E+00  0.000000000000E+00  0.000000000000E+00  0.000000000000E+00  0.000000000000E+00
  0.000000000000E+00  0.000000000000E+00  0.000000000000E+00  0.000000000000E+00  0.000000000000E+00
  0.000000000000E+00  0.000000000000E+00  0.000000000000E+00  0.000000000000E+00  0.000000000000E+00
  0.000000000000E+00  0.000000000000E+00  0.000000000000E+00  0.000000000000E+00  0.000000000000E+00
  0.000000000000E+00  0.000000000000E+00  0.000000000000E+00  0.000000000000E+00  0.000000000000E+00
  0.000000000000E+00  0.000000000000E+00  0.000000000000E+00  0.000000000000E+00  0.000000000000E+00
  0.000000000000E+00  0.000000000000E+00  0.000000000000E+00  0.000000000000E+00
 ae wavefunction
 -0.521199654712E-06 -0.552967671797E-06 -0.586500081311E-06 -0.621905041071E-06 -0.659296922425E-06
 -0.698796716723E-06 -0.740532433396E-06 -0.784639549193E-06 -0.831261477512E-06 -0.880550059146E-06
 -0.932666090956E-06 -0.987779887303E-06 -0.104607187348E-05 -0.110773321252E-05 -0.117296648446E-05
 -0.124198639087E-05 -0.131502051621E-05 -0.139231013087E-05 -0.147411104812E-05 -0.156069453077E-05
 -0.165234826023E-05 -0.174937736307E-05 -0.185210550318E-05 -0.196087604465E-05 -0.207605328691E-05
 -0.219802377871E-05 -0.232719771668E-05 -0.246401043111E-05 -0.260892396821E-05 -0.276242877263E-05
 -0.292504547736E-05 -0.309732680859E-05 -0.327985961224E-05 -0.347326701053E-05 -0.367821069683E-05
 -0.389539337793E-05 -0.412556137323E-05 -0.436950738095E-05 -0.462807342279E-05 -0.490215397746E-05
 -0.519269931662E-05 -0.550071905663E-05 -0.582728593705E-05 -0.617353984618E-05 -0.654069210246E-05
 -0.693003001765E-05 -0.734292174986E-05 -0.778082147175E-05 -0.824527487579E-05 -0.873792502864E-05
 -0.926051861313E-05 -0.981491256527E-05 -0.104030811463E-04 -0.110271234696E-04 -0.116892715139E-04
 -0.123918986600E-04 -0.131375287704E-04 -0.139288458654E-04 -0.147687044207E-04 -0.156601403277E-04
 -0.166063825733E-04 -0.176108656590E-04 -0.186772428386E-04 -0.198094002016E-04 -0.210114716658E-04
 -0.222878549474E-04 -0.236432285527E-04 -0.250825698683E-04 -0.266111744231E-04 -0.282346763931E-04
 -0.299590704204E-04 -0.317907348344E-04 -0.337364563961E-04 -0.358034566142E-04 -0.379994197253E-04
 -0.403325225531E-04 -0.428114662058E-04 -0.454455098441E-04 -0.482445066399E-04 -0.512189419856E-04
 -0.543799742133E-04 -0.577394778604E-04 -0.613100897803E-04 -0.651052581204E-04 -0.691392944948E-04
 -0.734274294525E-04 -0.779858714955E-04 -0.828318698669E-04 -0.879837813141E-04 -0.934611411183E-04
 -0.992847386414E-04 -0.105476697636E-03 -0.112060561689E-03 -0.119061385043E-03 -0.126505829181E-03
 -0.134422265508E-03 -0.142840884483E-03 -0.151793811690E-03 -0.161315231128E-03 -0.171441516317E-03
 -0.182211369571E-03 -0.193665970035E-03 -0.205849130936E-03 -0.218807466679E-03 -0.232590570318E-03
 -0.247251202115E-03 -0.262845489692E-03 -0.279433140713E-03 -0.297077668612E-03 -0.315846632262E-03
 -0.335811890376E-03 -0.357049871559E-03 -0.379641860871E-03 -0.403674303830E-03 -0.429239129044E-03
 -0.456434090331E-03 -0.485363129613E-03 -0.516136761698E-03 -0.548872482216E-03 -0.583695200041E-03
 -0.620737695559E-03 -0.660141106234E-03 -0.702055440990E-03 -0.746640125015E-03 -0.794064576664E-03
 -0.844508818155E-03 -0.898164121971E-03 -0.955233694806E-03 -0.101593340109E-02 -0.108049252816E-02
 -0.114915459526E-02 -0.122217820863E-02 -0.129983796497E-02 -0.138242540590E-02 -0.147025002563E-02
 -0.156364033489E-02 -0.166294498338E-02 -0.176853394389E-02 -0.188079976084E-02 -0.200015886615E-02
 -0.212705296565E-02 -0.226195049896E-02 -0.240534817627E-02 -0.255777259502E-02 -0.271978194002E-02
 -0.289196777024E-02 -0.307495689554E-02 -0.326941334714E-02 -0.347604044470E-02 -0.369558296382E-02
 -0.392882940707E-02 -0.417661438193E-02 -0.443982108882E-02 -0.471938392225E-02 -0.501629118811E-02
 -0.533158793966E-02 -0.566637893497E-02 -0.602183171775E-02 -0.639917982372E-02 -0.679972611382E-02
 -0.722484623541E-02 -0.767599221198E-02 -0.815469616137E-02 -0.866257414155E-02 -0.920133012273E-02
 -0.977276008324E-02 -0.103787562258E-01 -0.110213113102E-01 -0.117025230955E-01 -0.124245988868E-01
 -0.131898601760E-01 -0.140007473677E-01 -0.148598245775E-01 -0.157697844900E-01 -0.167334532581E-01
 -0.177537954283E-01 -0.188339188667E-01 -0.199770796666E-01 -0.211866870056E-01 -0.224663079266E-01
 -0.238196720048E-01 -0.252506758657E-01 -0.267633875106E-01 -0.283620504036E-01 -0.300510872701E-01
 -0.318351035485E-01 -0.337188904356E-01 -0.357074274580E-01 -0.378058844954E-01 -0.400196231785E-01
 -0.423541975729E-01 -0.448153540589E-01 -0.474090303048E-01 -0.501413532280E-01 -0.530186358281E-01
 -0.560473727692E-01 -0.592342345815E-01 -0.625860603415E-01 -0.661098486869E-01 -0.698127470082E-01
 -0.737020386570E-01 -0.777851279987E-01 -0.820695231337E-01 -0.865628161014E-01 -0.912726603777E-01
 -0.962067454692E-01 -0.101372768406E+00 -0.106778401927E+00 -0.112431259155E+00 -0.118338854556E+00
 -0.124508560985E+00 -0.130947562605E+00 -0.137662803503E+00 -0.144660931817E+00 -0.151948239195E+00
 -0.159530595439E+00 -0.167413378205E+00 -0.175601397635E+00 -0.184098815848E+00 -0.192909061243E+00
 -0.202034737588E+00 -0.211477527946E+00 -0.221238093489E+00 -0.231315967362E+00 -0.241709443759E+00
 -0.252415462488E+00 -0.263429489354E+00 -0.274745392756E+00 -0.286355317042E+00 -0.298249553212E+00
 -0.310416407733E+00 -0.322842070372E+00 -0.335510482123E+00 -0.348403204513E+00 -0.361499291838E+00
 -0.374775168070E+00 -0.388204510477E+00 -0.401758142062E+00 -0.415403934952E+00 -0.429106726563E+00
 -0.442828249105E+00 -0.456527072362E+00 -0.470158556551E+00 -0.483674810585E+00 -0.497024648878E+00
 -0.510153539912E+00 -0.523003542488E+00 -0.535513231767E+00 -0.547617625794E+00 -0.559248132344E+00
 -0.570332542495E+00 -0.580795098527E+00 -0.590556656985E+00 -0.599534953340E+00 -0.607644957169E+00
 -0.614799293235E+00 -0.620908700843E+00 -0.625882512702E+00 -0.629629145559E+00 -0.632056606384E+00
 -0.633073019647E+00 -0.632587182567E+00 -0.630509149351E+00 -0.626750843726E+00 -0.621226695447E+00
 -0.613854296422E+00 -0.604555070592E+00 -0.593254954258E+00 -0.579885081738E+00 -0.564382474412E+00
 -0.546690729633E+00 -0.526760707416E+00 -0.504551212917E+00 -0.480029671957E+00 -0.453172797020E+00
 -0.423967241222E+00 -0.392410235356E+00 -0.358510204510E+00 -0.322287357315E+00 -0.283774241119E+00
 -0.243016254065E+00 -0.200072103814E+00 -0.155014201593E+00 -0.107928979160E+00 -0.589171172230E-01
 -0.809367485740E-02  0.444118867542E-01  0.984557878778E-01  0.153880116153E+00  0.210513103430E+00
  0.268169477828E+00  0.326650877698E+00  0.385746327489E+00  0.445232805485E+00  0.504875986175E+00
  0.564431315043E+00  0.623645676090E+00  0.682259983370E+00  0.740012959962E+00  0.796645850042E+00
  0.851906504301E+00  0.905549447341E+00  0.957328190817E+00  0.100698027543E+01  0.105421331571E+01
  0.109870304325E+01  0.114010562147E+01  0.117807516518E+01  0.121227658247E+01  0.124239130005E+01
  0.126811873316E+01  0.128917664816E+01  0.130530195106E+01  0.131625220605E+01  0.132180765194E+01
  0.132177335587E+01  0.131598118326E+01  0.130429137736E+01  0.128659363507E+01  0.126280765593E+01
  0.123288319788E+01  0.119679968712E+01  0.115456546998E+01  0.110621675007E+01  0.000000000000E+00
  0.000000000000E+00  0.000000000000E+00  0.000000000000E+00  0.000000000000E+00  0.000000000000E+00
  0.000000000000E+00  0.000000000000E+00  0.000000000000E+00  0.000000000000E+00  0.000000000000E+00
  0.000000000000E+00  0.000000000000E+00  0.000000000000E+00  0.000000000000E+00  0.000000000000E+00
  0.000000000000E+00  0.000000000000E+00  0.000000000000E+00  0.000000000000E+00  0.000000000000E+00
  0.000000000000E+00  0.000000000000E+00  0.000000000000E+00  0.000000000000E+00  0.000000000000E+00
  0.000000000000E+00  0.000000000000E+00  0.000000000000E+00  0.000000000000E+00  0.000000000000E+00
  0.000000000000E+00  0.000000000000E+00  0.000000000000E+00  0.000000000000E+00  0.000000000000E+00
  0.000000000000E+00  0.000000000000E+00  0.000000000000E+00  0.000000000000E+00  0.000000000000E+00
  0.000000000000E+00  0.000000000000E+00  0.000000000000E+00  0.000000000000E+00  0.000000000000E+00
  0.000000000000E+00  0.000000000000E+00  0.000000000000E+00  0.000000000000E+00  0.000000000000E+00
  0.000000000000E+00  0.000000000000E+00  0.000000000000E+00  0.000000000000E+00
 End of Dataset
  PAW_PBE S 06Sep2000                    
   6.00000000000000     
 parameters from PSCTR are:
   SHA256 =  0fc7481fb0695f01bdc6462160264c5c84044ae9ec85a907d398b887a2bc3132 S/POTCAR
   COPYR  = (c) Copyright 06Sep2000 Georg Kresse
   COPYR  = This file is part of the software VASP. Any use, copying, and all other rights are regulated by the VASP license agreement.
   COPYR  = If you do not have a valid VASP license, you may not use, copy or distribute this file.
   VRHFIN =S : s2p4
   LEXCH  = PE
   EATOM  =   276.8230 eV,   20.3459 Ry

   TITEL  = PAW_PBE S 06Sep2000
   LULTRA =        F    use ultrasoft PP ?
   IUNSCR =        1    unscreen: 0-lin 1-nonlin 2-no
   RPACOR =    1.500    partial core radius
   POMASS =   32.066; ZVAL   =    6.000    mass and valenz
   RCORE  =    1.900    outmost cutoff radius
   RWIGS  =    2.200; RWIGS  =    1.164    wigner-seitz radius (au A)
   ENMAX  =  258.689; ENMIN  =  194.016 eV
   ICORE  =        2    local potential
   LCOR   =        T    correct aug charges
   LPAW   =        T    paw PP
   EAUG   =  335.092
   DEXC   =    0.000
   RMAX   =    1.942    core radius for proj-oper
   RAUG   =    1.300    factor for augmentation sphere
   RDEP   =    1.954    radius for radial grids
   RDEPT  =    1.744    core radius for aug-charge
 
   Atomic configuration
    6 entries
     n  l   j            E        occ.
     1  0  0.50     -2405.8406   2.0000
     2  0  0.50      -211.7007   2.0000
     2  1  1.50      -156.4958   6.0000
     3  0  0.50       -17.2562   2.0000
     3  1  0.50        -7.0085   4.0000
     3  2  1.50        -6.8029   0.0000
   Description
     l       E           TYP  RCUT    TYP  RCUT
     0    -17.2561641     23  1.900
     0    -15.8743224     23  1.900
     1     -7.0085400     23  1.900
     1     -2.7779785     23  1.900
     2     -6.8029130     23  1.900
   Error from kinetic energy argument (eV)
   NDATA  =      100
   STEP   =   20.000   1.050
  72.2      68.7      66.9      63.4      61.7      58.3      55.0      53.3
  50.2      47.1      45.6      42.7      39.9      37.2      34.7      32.3
  30.0      27.8      25.8      22.9      21.2      19.6      17.3      15.9
  14.6      12.8      11.3      10.3      9.01      7.85      6.83      5.92
  5.13      4.43      3.82      3.28      2.67      2.28      1.84      1.56
  1.25     0.993     0.784     0.615     0.478     0.369     0.283     0.200
 0.149     0.102     0.687E-01 0.494E-01 0.323E-01 0.209E-01 0.127E-01 0.884E-02
 0.671E-02 0.553E-02 0.514E-02 0.503E-02 0.493E-02 0.472E-02 0.435E-02 0.377E-02
 0.320E-02 0.254E-02 0.195E-02 0.149E-02 0.113E-02 0.946E-03 0.844E-03 0.805E-03
 0.781E-03 0.741E-03 0.665E-03 0.575E-03 0.467E-03 0.373E-03 0.300E-03 0.263E-03
 0.244E-03 0.234E-03 0.219E-03 0.193E-03 0.161E-03 0.131E-03 0.111E-03 0.987E-04
 0.931E-04 0.872E-04 0.769E-04 0.651E-04 0.532E-04 0.466E-04 0.433E-04 0.405E-04
 0.356E-04 0.300E-04 0.251E-04 0.228E-04
END of PSCTR-controll parameters
 local part
   98.2657514061040     
  0.25157640E+02  0.25164091E+02  0.25172622E+02  0.25186821E+02  0.25206654E+02
  0.25232074E+02  0.25263018E+02  0.25299401E+02  0.25341121E+02  0.25388051E+02
  0.25440043E+02  0.25496925E+02  0.25558502E+02  0.25624558E+02  0.25694855E+02
  0.25769136E+02  0.25847124E+02  0.25928527E+02  0.26013035E+02  0.26100324E+02
  0.26190051E+02  0.26281860E+02  0.26375378E+02  0.26470219E+02  0.26565978E+02
  0.26662235E+02  0.26758557E+02  0.26854496E+02  0.26949591E+02  0.27043367E+02
  0.27135341E+02  0.27225019E+02  0.27311902E+02  0.27395479E+02  0.27475240E+02
  0.27550666E+02  0.27621239E+02  0.27686438E+02  0.27745744E+02  0.27798640E+02
  0.27844611E+02  0.27883150E+02  0.27913758E+02  0.27935945E+02  0.27949234E+02
  0.27953160E+02  0.27947278E+02  0.27931156E+02  0.27904385E+02  0.27866578E+02
  0.27817369E+02  0.27756421E+02  0.27683420E+02  0.27598084E+02  0.27500159E+02
  0.27389424E+02  0.27265693E+02  0.27128812E+02  0.26978666E+02  0.26815176E+02
  0.26638300E+02  0.26448037E+02  0.26244425E+02  0.26027542E+02  0.25797505E+02
  0.25554473E+02  0.25298644E+02  0.25030259E+02  0.24749594E+02  0.24456969E+02
  0.24152740E+02  0.23837301E+02  0.23511082E+02  0.23174550E+02  0.22828205E+02
  0.22472578E+02  0.22108230E+02  0.21735753E+02  0.21355762E+02  0.20968899E+02
  0.20575824E+02  0.20177220E+02  0.19773783E+02  0.19366226E+02  0.18955273E+02
  0.18541655E+02  0.18126109E+02  0.17709377E+02  0.17292198E+02  0.16875310E+02
  0.16459445E+02  0.16045325E+02  0.15633662E+02  0.15225153E+02  0.14820479E+02
  0.14420299E+02  0.14025254E+02  0.13635957E+02  0.13252997E+02  0.12876932E+02
  0.12508292E+02  0.12147572E+02  0.11795234E+02  0.11451704E+02  0.11117372E+02
  0.10792588E+02  0.10477664E+02  0.10172873E+02  0.98784452E+01  0.95945735E+01
  0.93214083E+01  0.90590595E+01  0.88075971E+01  0.85670508E+01  0.83374114E+01
  0.81186311E+01  0.79106248E+01  0.77132711E+01  0.75264139E+01  0.73498637E+01
  0.71833995E+01  0.70267703E+01  0.68796973E+01  0.67418758E+01  0.66129774E+01
  0.64926519E+01  0.63805299E+01  0.62762251E+01  0.61793363E+01  0.60894501E+01
  0.60061434E+01  0.59289854E+01  0.58575404E+01  0.57913701E+01  0.57300356E+01
  0.56731002E+01  0.56201313E+01  0.55707022E+01  0.55243951E+01  0.54808018E+01
  0.54395266E+01  0.54001872E+01  0.53624167E+01  0.53258651E+01  0.52902004E+01
  0.52551098E+01  0.52203007E+01  0.51855020E+01  0.51504642E+01  0.51149604E+01
  0.50787866E+01  0.50417616E+01  0.50037278E+01  0.49645507E+01  0.49241186E+01
  0.48823425E+01  0.48391558E+01  0.47945134E+01  0.47483910E+01  0.47007846E+01
  0.46517094E+01  0.46011988E+01  0.45493031E+01  0.44960887E+01  0.44416366E+01
  0.43860412E+01  0.43294088E+01  0.42718562E+01  0.42135096E+01  0.41545028E+01
  0.40949759E+01  0.40350741E+01  0.39749459E+01  0.39147420E+01  0.38546139E+01
  0.37947124E+01  0.37351867E+01  0.36761827E+01  0.36178423E+01  0.35603021E+01
  0.35036925E+01  0.34481366E+01  0.33937495E+01  0.33406379E+01  0.32888986E+01
  0.32386191E+01  0.31898760E+01  0.31427356E+01  0.30972530E+01  0.30534722E+01
  0.30114260E+01  0.29711360E+01  0.29326127E+01  0.28958557E+01  0.28608539E+01
  0.28275859E+01  0.27960207E+01  0.27661178E+01  0.27378278E+01  0.27110933E+01
  0.26858494E+01  0.26620243E+01  0.26395401E+01  0.26183136E+01  0.25982572E+01
  0.25792793E+01  0.25612857E+01  0.25441798E+01  0.25278637E+01  0.25122393E+01
  0.24972083E+01  0.24826740E+01  0.24685409E+01  0.24547163E+01  0.24411105E+01
  0.24276375E+01  0.24142156E+01  0.24007678E+01  0.23872224E+01  0.23735133E+01
  0.23595804E+01  0.23453699E+01  0.23308344E+01  0.23159334E+01  0.23006329E+01
  0.22849061E+01  0.22687327E+01  0.22520994E+01  0.22349994E+01  0.22174325E+01
  0.21994048E+01  0.21809281E+01  0.21620201E+01  0.21427039E+01  0.21230074E+01
  0.21029630E+01  0.20826074E+01  0.20619808E+01  0.20411265E+01  0.20200906E+01
  0.19989213E+01  0.19776685E+01  0.19563829E+01  0.19351163E+01  0.19139203E+01
  0.18928462E+01  0.18719445E+01  0.18512644E+01  0.18308534E+01  0.18107568E+01
  0.17910176E+01  0.17716760E+01  0.17527689E+01  0.17343298E+01  0.17163889E+01
  0.16989723E+01  0.16821020E+01  0.16657963E+01  0.16500690E+01  0.16349297E+01
  0.16203840E+01  0.16064331E+01  0.15930743E+01  0.15803007E+01  0.15681017E+01
  0.15564630E+01  0.15453668E+01  0.15347920E+01  0.15247146E+01  0.15151078E+01
  0.15059423E+01  0.14971869E+01  0.14888082E+01  0.14807716E+01  0.14730413E+01
  0.14655806E+01  0.14583525E+01  0.14513195E+01  0.14444446E+01  0.14376913E+01
  0.14310236E+01  0.14244068E+01  0.14178075E+01  0.14111940E+01  0.14045364E+01
  0.13978068E+01  0.13909796E+01  0.13840318E+01  0.13769427E+01  0.13696945E+01
  0.13622721E+01  0.13546633E+01  0.13468588E+01  0.13388521E+01  0.13306396E+01
  0.13222205E+01  0.13135969E+01  0.13047733E+01  0.12957571E+01  0.12865577E+01
  0.12771873E+01  0.12676597E+01  0.12579909E+01  0.12481986E+01  0.12383020E+01
  0.12283216E+01  0.12182788E+01  0.12081960E+01  0.11980962E+01  0.11880027E+01
  0.11779389E+01  0.11679282E+01  0.11579935E+01  0.11481575E+01  0.11384419E+01
  0.11288675E+01  0.11194540E+01  0.11102199E+01  0.11011822E+01  0.10923563E+01
  0.10837559E+01  0.10753930E+01  0.10672777E+01  0.10594180E+01  0.10518202E+01
  0.10444883E+01  0.10374244E+01  0.10306288E+01  0.10240996E+01  0.10178330E+01
  0.10118235E+01  0.10060636E+01  0.10005445E+01  0.99525539E+00  0.99018432E+00
  0.98531794E+00  0.98064174E+00  0.97614021E+00  0.97179699E+00  0.96759505E+00
  0.96351683E+00  0.95954443E+00  0.95565977E+00  0.95184476E+00  0.94808145E+00
  0.94435221E+00  0.94063986E+00  0.93692785E+00  0.93320035E+00  0.92944243E+00
  0.92564017E+00  0.92178074E+00  0.91785253E+00  0.91384521E+00  0.90974982E+00
  0.90555879E+00  0.90126602E+00  0.89686687E+00  0.89235820E+00  0.88773834E+00
  0.88300711E+00  0.87816575E+00  0.87321693E+00  0.86816464E+00  0.86301419E+00
  0.85777206E+00  0.85244588E+00  0.84704429E+00  0.84157688E+00  0.83605401E+00
  0.83048675E+00  0.82488675E+00  0.81926609E+00  0.81363719E+00  0.80801265E+00
  0.80240517E+00  0.79682736E+00  0.79129170E+00  0.78581034E+00  0.78039506E+00
  0.77505710E+00  0.76980710E+00  0.76465498E+00  0.75960987E+00  0.75468002E+00
  0.74987275E+00  0.74519436E+00  0.74065013E+00  0.73624425E+00  0.73197983E+00
  0.72785883E+00  0.72388212E+00  0.72004945E+00  0.71635947E+00  0.71280977E+00
  0.70939690E+00  0.70611642E+00  0.70296297E+00  0.69993031E+00  0.69701141E+00
  0.69419852E+00  0.69148325E+00  0.68885667E+00  0.68630938E+00  0.68383163E+00
  0.68141341E+00  0.67904452E+00  0.67671469E+00  0.67441369E+00  0.67213138E+00
  0.66985784E+00  0.66758345E+00  0.66529896E+00  0.66299560E+00  0.66066511E+00
  0.65829988E+00  0.65589293E+00  0.65343803E+00  0.65092970E+00  0.64836329E+00
  0.64573496E+00  0.64304175E+00  0.64028155E+00  0.63745314E+00  0.63455616E+00
  0.63159113E+00  0.62855939E+00  0.62546313E+00  0.62230529E+00  0.61908957E+00
  0.61582036E+00  0.61250269E+00  0.60914218E+00  0.60574495E+00  0.60231756E+00
  0.59886697E+00  0.59540042E+00  0.59192540E+00  0.58844952E+00  0.58498050E+00
  0.58152604E+00  0.57809377E+00  0.57469118E+00  0.57132554E+00  0.56800382E+00
  0.56473266E+00  0.56151826E+00  0.55836639E+00  0.55528225E+00  0.55227052E+00
  0.54933527E+00  0.54647992E+00  0.54370725E+00  0.54101938E+00  0.53841771E+00
  0.53590297E+00  0.53347520E+00  0.53113376E+00  0.52887732E+00  0.52670391E+00
  0.52461095E+00  0.52259525E+00  0.52065306E+00  0.51878013E+00  0.51697175E+00
  0.51522278E+00  0.51352772E+00  0.51188078E+00  0.51027593E+00  0.50870692E+00
  0.50716740E+00  0.50565097E+00  0.50415118E+00  0.50266168E+00  0.50117620E+00
  0.49968867E+00  0.49819323E+00  0.49668430E+00  0.49515664E+00  0.49360538E+00
  0.49202606E+00  0.49041470E+00  0.48876776E+00  0.48708224E+00  0.48535566E+00
  0.48358608E+00  0.48177212E+00  0.47991295E+00  0.47800832E+00  0.47605853E+00
  0.47406439E+00  0.47202730E+00  0.46994911E+00  0.46783220E+00  0.46567937E+00
  0.46349387E+00  0.46127930E+00  0.45903963E+00  0.45677910E+00  0.45450222E+00
  0.45221370E+00  0.44991839E+00  0.44762128E+00  0.44532739E+00  0.44304175E+00
  0.44076937E+00  0.43851514E+00  0.43628386E+00  0.43408010E+00  0.43190823E+00
  0.42977236E+00  0.42767627E+00  0.42562345E+00  0.42361697E+00  0.42165955E+00
  0.41975348E+00  0.41790062E+00  0.41610239E+00  0.41435976E+00  0.41267326E+00
  0.41104292E+00  0.40946837E+00  0.40794876E+00  0.40648282E+00  0.40506886E+00
  0.40370480E+00  0.40238819E+00  0.40111623E+00  0.39988581E+00  0.39869355E+00
  0.39753581E+00  0.39640878E+00  0.39530844E+00  0.39423068E+00  0.39317128E+00
  0.39212598E+00  0.39109051E+00  0.39006065E+00  0.38903224E+00  0.38800123E+00
  0.38696373E+00  0.38591604E+00  0.38485467E+00  0.38377638E+00  0.38267823E+00
  0.38155755E+00  0.38041201E+00  0.37923964E+00  0.37803879E+00  0.37680821E+00
  0.37554700E+00  0.37425463E+00  0.37293099E+00  0.37157630E+00  0.37019117E+00
  0.36877657E+00  0.36733381E+00  0.36586451E+00  0.36437062E+00  0.36285438E+00
  0.36131826E+00  0.35976498E+00  0.35819745E+00  0.35661875E+00  0.35503210E+00
  0.35344084E+00  0.35184834E+00  0.35025806E+00  0.34867341E+00  0.34709781E+00
  0.34553461E+00  0.34398705E+00  0.34245825E+00  0.34095118E+00  0.33946862E+00
  0.33801314E+00  0.33658708E+00  0.33519252E+00  0.33383128E+00  0.33250489E+00
  0.33121459E+00  0.32996129E+00  0.32874563E+00  0.32756789E+00  0.32642808E+00
  0.32532586E+00  0.32426062E+00  0.32323141E+00  0.32223704E+00  0.32127602E+00
  0.32034661E+00  0.31944684E+00  0.31857453E+00  0.31772730E+00  0.31690262E+00
  0.31609782E+00  0.31531011E+00  0.31453663E+00  0.31377445E+00  0.31302062E+00
  0.31227220E+00  0.31152626E+00  0.31077994E+00  0.31003046E+00  0.30927516E+00
  0.30851150E+00  0.30773711E+00  0.30694979E+00  0.30614755E+00  0.30532862E+00
  0.30449143E+00  0.30363470E+00  0.30275735E+00  0.30185859E+00  0.30093789E+00
  0.29999498E+00  0.29902985E+00  0.29804277E+00  0.29703425E+00  0.29600507E+00
  0.29495621E+00  0.29388893E+00  0.29280466E+00  0.29170506E+00  0.29059193E+00
  0.28946725E+00  0.28833313E+00  0.28719180E+00  0.28604556E+00  0.28489679E+00
  0.28374792E+00  0.28260139E+00  0.28145963E+00  0.28032505E+00  0.27920001E+00
  0.27808678E+00  0.27698754E+00  0.27590437E+00  0.27483918E+00  0.27379373E+00
  0.27276964E+00  0.27176831E+00  0.27079095E+00  0.26983857E+00  0.26891197E+00
  0.26801170E+00  0.26713813E+00  0.26629136E+00  0.26547130E+00  0.26467762E+00
  0.26390977E+00  0.26316699E+00  0.26244833E+00  0.26175264E+00  0.26107859E+00
  0.26042469E+00  0.25978930E+00  0.25917065E+00  0.25856688E+00  0.25797600E+00
  0.25739598E+00  0.25682473E+00  0.25626012E+00  0.25570002E+00  0.25514231E+00
  0.25458488E+00  0.25402570E+00  0.25346278E+00  0.25289424E+00  0.25231830E+00
  0.25173330E+00  0.25113772E+00  0.25053020E+00  0.24990952E+00  0.24927466E+00
  0.24862475E+00  0.24795914E+00  0.24727735E+00  0.24657909E+00  0.24586429E+00
  0.24513304E+00  0.24438566E+00  0.24362261E+00  0.24284457E+00  0.24205239E+00
  0.24124705E+00  0.24042971E+00  0.23960167E+00  0.23876433E+00  0.23791921E+00
  0.23706793E+00  0.23621217E+00  0.23535367E+00  0.23449423E+00  0.23363564E+00
  0.23277972E+00  0.23192828E+00  0.23108307E+00  0.23024583E+00  0.22941820E+00
  0.22860177E+00  0.22779802E+00  0.22700830E+00  0.22623388E+00  0.22547587E+00
  0.22473523E+00  0.22401278E+00  0.22330918E+00  0.22262493E+00  0.22196035E+00
  0.22131561E+00  0.22069069E+00  0.22008543E+00  0.21949948E+00  0.21893232E+00
  0.21838332E+00  0.21785165E+00  0.21733637E+00  0.21683642E+00  0.21635059E+00
  0.21587760E+00  0.21541606E+00  0.21496451E+00  0.21452144E+00  0.21408527E+00
  0.21365442E+00  0.21322726E+00  0.21280219E+00  0.21237761E+00  0.21195196E+00
  0.21152372E+00  0.21109143E+00  0.21065370E+00  0.21020925E+00  0.20975688E+00
  0.20929550E+00  0.20882415E+00  0.20834200E+00  0.20784833E+00  0.20734261E+00
  0.20682440E+00  0.20629344E+00  0.20574961E+00  0.20519295E+00  0.20462362E+00
  0.20404195E+00  0.20344839E+00  0.20284356E+00  0.20222816E+00  0.20160304E+00
  0.20096916E+00  0.20032758E+00  0.19967942E+00  0.19902591E+00  0.19836834E+00
  0.19770802E+00  0.19704633E+00  0.19638465E+00  0.19572439E+00  0.19506694E+00
  0.19441368E+00  0.19376596E+00  0.19312508E+00  0.19249228E+00  0.19186874E+00
  0.19125556E+00  0.19065374E+00  0.19006419E+00  0.18948770E+00  0.18892495E+00
  0.18837650E+00  0.18784279E+00  0.18732413E+00  0.18682069E+00  0.18633251E+00
  0.18585951E+00  0.18540148E+00  0.18495806E+00  0.18452880E+00  0.18411311E+00
  0.18371029E+00  0.18331956E+00  0.18294001E+00  0.18257067E+00  0.18221048E+00
  0.18185834E+00  0.18151306E+00  0.18117344E+00  0.18083824E+00  0.18050621E+00
  0.18017608E+00  0.17984661E+00  0.17951655E+00  0.17918470E+00  0.17884991E+00
  0.17851106E+00  0.17816712E+00  0.17781712E+00  0.17746016E+00  0.17709547E+00
  0.17672235E+00  0.17634020E+00  0.17594854E+00  0.17554701E+00  0.17513535E+00
  0.17471343E+00  0.17428121E+00  0.17383881E+00  0.17338642E+00  0.17292437E+00
  0.17245310E+00  0.17197313E+00  0.17148509E+00  0.17098972E+00  0.17048781E+00
  0.16998024E+00  0.16946794E+00  0.16895192E+00  0.16843322E+00  0.16791290E+00
  0.16739207E+00  0.16687182E+00  0.16635327E+00  0.16583752E+00  0.16532564E+00
  0.16481869E+00  0.16431766E+00  0.16382352E+00  0.16333717E+00  0.16285942E+00
  0.16239103E+00  0.16193266E+00  0.16148491E+00  0.16104824E+00  0.16062304E+00
  0.16020960E+00  0.15980810E+00  0.15941861E+00  0.15904111E+00  0.15867547E+00
  0.15832144E+00  0.15797870E+00  0.15764683E+00  0.15732529E+00  0.15701350E+00
  0.15671076E+00  0.15641631E+00  0.15612935E+00  0.15584901E+00  0.15557435E+00
  0.15530444E+00  0.15503829E+00  0.15477489E+00  0.15451325E+00  0.15425237E+00
  0.15399124E+00  0.15372890E+00  0.15346440E+00  0.15319685E+00  0.15292540E+00
  0.15264924E+00  0.15236764E+00  0.15207994E+00  0.15178557E+00  0.15148400E+00
  0.15117483E+00  0.15085773E+00  0.15053246E+00  0.15019887E+00  0.14985693E+00
  0.14950667E+00  0.14914823E+00  0.14878185E+00  0.14840782E+00  0.14802657E+00
  0.14763856E+00  0.14724436E+00  0.14684459E+00  0.14643994E+00  0.14603115E+00
  0.14561900E+00  0.14520433E+00  0.14478799E+00  0.14437086E+00  0.14395383E+00
  0.14353780E+00  0.14312365E+00  0.14271227E+00  0.14230452E+00  0.14190121E+00
  0.14150315E+00  0.14111106E+00  0.14072564E+00  0.14034751E+00  0.13997725E+00
  0.13961535E+00  0.13926222E+00  0.13891819E+00  0.13858354E+00  0.13825844E+00
  0.13794297E+00  0.13763714E+00  0.13734087E+00  0.13705400E+00  0.13677628E+00
  0.13650740E+00  0.13624696E+00  0.13599447E+00  0.13574943E+00  0.13551121E+00
  0.13527919E+00  0.13505266E+00  0.13483089E+00  0.13461310E+00  0.13439851E+00
  0.13418631E+00  0.13397568E+00  0.13376579E+00  0.13355584E+00  0.13334504E+00
  0.13313259E+00  0.13291776E+00  0.13269984E+00  0.13247816E+00  0.13225211E+00
  0.13202112E+00  0.13178471E+00  0.13154244E+00  0.13129395E+00  0.13103895E+00
  0.13077722E+00  0.13050862E+00  0.13023309E+00  0.12995066E+00  0.12966140E+00
  0.12936548E+00  0.12906315E+00  0.12875471E+00  0.12844055E+00  0.12812111E+00
  0.12779688E+00  0.12746841E+00  0.12713631E+00  0.12680121E+00  0.12646379E+00
  0.12612476E+00  0.12578482E+00  0.12544472E+00  0.12510519E+00  0.12476698E+00
  0.12443081E+00  0.12409740E+00  0.12376744E+00  0.12344158E+00  0.12312046E+00
  0.12280466E+00  0.12249471E+00  0.12219111E+00  0.12189426E+00  0.12160455E+00
  0.12132226E+00  0.12104763E+00  0.12078083E+00  0.12052195E+00  0.12027102E+00
  0.12002799E+00  0.11979273E+00  0.11956508E+00  0.11934477E+00  0.11913150E+00
  0.11892489E+00  0.11872451E+00  0.11852988E+00  0.11834047E+00  0.11815570E+00
  0.11797499E+00  0.11779768E+00  0.11762313E+00  0.11745066E+00  0.11727959E+00
  0.11710923E+00  0.11693891E+00  0.11676795E+00  0.11659570E+00  0.11642152E+00
  0.11624482E+00  0.11606502E+00  0.11588161E+00  0.11569409E+00  0.11550204E+00
  0.11530508E+00  0.11510289E+00  0.11489521E+00  0.11468183E+00  0.11446264E+00
  0.11423756E+00  0.11400657E+00  0.11376975E+00  0.11352722E+00  0.11327915E+00
 gradient corrections used for XC
           5
 core charge-density (partial)
  0.46517955E+00  0.46502850E+00  0.46457564E+00  0.46382177E+00  0.46276827E+00
  0.46141705E+00  0.45977054E+00  0.45783173E+00  0.45560409E+00  0.45309164E+00
  0.45029887E+00  0.44723076E+00  0.44389278E+00  0.44029082E+00  0.43643124E+00
  0.43232080E+00  0.42796668E+00  0.42337642E+00  0.41855793E+00  0.41351947E+00
  0.40826960E+00  0.40281717E+00  0.39717130E+00  0.39134138E+00  0.38533698E+00
  0.37916788E+00  0.37284405E+00  0.36637556E+00  0.35977263E+00  0.35304556E+00
  0.34620473E+00  0.33926054E+00  0.33222342E+00  0.32510378E+00  0.31791202E+00
  0.31065847E+00  0.30335338E+00  0.29600689E+00  0.28862905E+00  0.28122972E+00
  0.27381864E+00  0.26640534E+00  0.25899917E+00  0.25160923E+00  0.24424442E+00
  0.23691337E+00  0.22962446E+00  0.22238577E+00  0.21520512E+00  0.20809001E+00
  0.20104764E+00  0.19408488E+00  0.18720829E+00  0.18042409E+00  0.17373816E+00
  0.16715603E+00  0.16068291E+00  0.15432364E+00  0.14808272E+00  0.14196430E+00
  0.13597217E+00  0.13010979E+00  0.12438028E+00  0.11878639E+00  0.11333057E+00
  0.10801491E+00  0.10284120E+00  0.97810886E-01  0.92925120E-01  0.88184744E-01
  0.83590304E-01  0.79142061E-01  0.74839999E-01  0.70683834E-01  0.66673024E-01
  0.62806780E-01  0.59084080E-01  0.55503673E-01  0.52064097E-01  0.48763687E-01
  0.45600588E-01  0.42572766E-01  0.39678018E-01  0.36913987E-01  0.34278171E-01
  0.31767938E-01  0.29380532E-01  0.27113089E-01  0.24962648E-01  0.22926158E-01
  0.21000494E-01  0.19182465E-01  0.17468822E-01  0.15856275E-01  0.14341494E-01
  0.12921126E-01  0.11591798E-01  0.10350133E-01  0.91927487E-02  0.81162751E-02
  0.71173561E-02  0.61926591E-02  0.53388815E-02  0.45527570E-02  0.38310619E-02
  0.31706209E-02  0.25683122E-02  0.20210724E-02  0.15259012E-02  0.10798656E-02
  0.68010315E-03  0.32382605E-03  0.83235904E-05 -0.26903495E-03 -0.51079806E-03
 -0.71943009E-03 -0.89730957E-03 -0.10467280E-02 -0.11698888E-02 -0.12689066E-02
 -0.13458071E-02 -0.14025266E-02 -0.14409125E-02 -0.14627232E-02 -0.14696294E-02
 -0.14632144E-02 -0.14449754E-02 -0.14163248E-02 -0.13785916E-02 -0.13330227E-02
 -0.12807852E-02 -0.12229680E-02 -0.11605838E-02 -0.10945713E-02 -0.10257975E-02
 -0.95505984E-03 -0.88308896E-03 -0.81055084E-03 -0.73804947E-03 -0.66612942E-03
 -0.59527843E-03 -0.52593006E-03 -0.45846628E-03 -0.39322015E-03 -0.33047845E-03
 -0.27048430E-03 -0.21343975E-03 -0.15950836E-03 -0.10881772E-03 -0.61461966E-04
 -0.17504176E-04  0.23021206E-04  0.60106059E-04  0.93766327E-04  0.12403982E-03
  0.15098410E-03  0.17467442E-03  0.19520180E-03  0.21267106E-03  0.22719912E-03
  0.23891319E-03  0.24794918E-03  0.25445013E-03  0.25856479E-03  0.26044617E-03
  0.26025031E-03  0.25813507E-03  0.25425898E-03  0.24878021E-03  0.24185565E-03
  0.23364000E-03  0.22428500E-03  0.21393869E-03  0.20274481E-03  0.19084216E-03
  0.17836418E-03  0.16543849E-03  0.15218648E-03  0.13872309E-03  0.12515649E-03
  0.11158794E-03  0.98111604E-04  0.84814537E-04  0.71776586E-04  0.59070418E-04
  0.46761570E-04  0.34908528E-04  0.23562848E-04  0.12769311E-04  0.25660971E-05
 -0.70150012E-05 -0.15948354E-04 -0.24214241E-04 -0.31798586E-04 -0.38692673E-04
 -0.44892850E-04 -0.50400226E-04 -0.55220352E-04 -0.59362908E-04 -0.62841376E-04
 -0.65672718E-04 -0.67877050E-04 -0.69477319E-04 -0.70498989E-04 -0.70969723E-04
 -0.70919078E-04 -0.70378205E-04 -0.69379561E-04 -0.67956627E-04 -0.66143641E-04
 -0.63975339E-04 -0.61486712E-04 -0.58712773E-04 -0.55688341E-04 -0.52447833E-04
 -0.49025081E-04 -0.45453153E-04 -0.41764192E-04 -0.37989271E-04 -0.34158267E-04
 -0.30299737E-04 -0.26440821E-04 -0.22607153E-04 -0.18822788E-04 -0.15110140E-04
 -0.11489937E-04 -0.79811833E-05 -0.46011400E-05 -0.13653115E-05  0.17125530E-05
  0.46204500E-05  0.73481012E-05  0.98869241E-05  0.12229995E-04  0.14372003E-04
  0.16309196E-04  0.18039325E-04  0.19561577E-04  0.20876504E-04  0.21985951E-04
  0.22892975E-04  0.23601768E-04  0.24117568E-04  0.24446578E-04  0.24595874E-04
  0.24573322E-04  0.24387486E-04  0.24047543E-04  0.23563196E-04  0.22944584E-04
  0.22202204E-04  0.21346824E-04  0.20389407E-04  0.19341032E-04  0.18212819E-04
  0.17015864E-04  0.15761165E-04  0.14459565E-04  0.13121689E-04  0.11757891E-04
  0.10378202E-04  0.89922860E-05  0.76093952E-05  0.62383340E-05  0.48874255E-05
  0.35644829E-05  0.22767849E-05  0.10310563E-05 -0.16654870E-06 -0.13104572E-05
 -0.23956861E-05 -0.34178454E-05 -0.43731382E-05 -0.52583579E-05 -0.60708806E-05
 -0.68086557E-05 -0.74701927E-05 -0.80545454E-05 -0.85612940E-05 -0.89905239E-05
 -0.93428039E-05 -0.96191605E-05 -0.98210528E-05 -0.99503439E-05 -0.10009273E-04
 -0.10000423E-04 -0.99266957E-05 -0.97912724E-05 -0.95975891E-05 -0.93493015E-05
 -0.90502544E-05 -0.87044498E-05 -0.83160157E-05 -0.78891762E-05 -0.74282209E-05
 -0.69374766E-05 -0.64212787E-05 -0.58839448E-05 -0.53297488E-05 -0.47628965E-05
 -0.41875031E-05 -0.36075709E-05 -0.30269702E-05 -0.24494205E-05 -0.18784742E-05
 -0.13175011E-05 -0.76967546E-06 -0.23796438E-06  0.27488230E-06  0.76634008E-06
  0.12341164E-05  0.16761554E-05  0.20906416E-05  0.24760010E-05  0.28309019E-05
  0.31542532E-05  0.34452022E-05  0.37031301E-05  0.39276473E-05  0.41185867E-05
  0.42759965E-05  0.44001314E-05  0.44914434E-05  0.45505718E-05  0.45783319E-05
  0.45757034E-05  0.45438188E-05  0.44839502E-05  0.43974966E-05  0.42859709E-05
  0.41509859E-05  0.39942413E-05  0.38175099E-05  0.36226244E-05  0.34114634E-05
  0.31859390E-05  0.29479836E-05  0.26995373E-05  0.24425360E-05  0.21788995E-05
  0.19105207E-05  0.16392548E-05  0.13669093E-05  0.10952349E-05  0.82591641E-06
  0.56056541E-06  0.30071251E-06  0.47801056E-07 -0.19681862E-06 -0.43189424E-06
 -0.65627574E-06 -0.86891880E-06 -0.10688875E-05 -0.12553563E-05 -0.14276114E-05
 -0.15850510E-05 -0.17271855E-05 -0.18536362E-05 -0.19641343E-05 -0.20585186E-05
 -0.21367329E-05 -0.21988227E-05 -0.22449317E-05 -0.22752976E-05 -0.22902473E-05
 -0.22901921E-05 -0.22756227E-05 -0.22471029E-05 -0.22052644E-05 -0.21508005E-05
 -0.20844597E-05 -0.20070395E-05 -0.19193799E-05 -0.18223572E-05 -0.17168768E-05
 -0.16038674E-05 -0.14842745E-05 -0.13590538E-05 -0.12291652E-05 -0.10955669E-05
 -0.95920973E-06 -0.82103131E-06 -0.68195096E-06 -0.54286465E-06 -0.40464027E-06
 -0.26811324E-06 -0.13408247E-06 -0.33066225E-08  0.12349924E-06  0.24566664E-06
  0.36257631E-06  0.47366042E-06  0.57840448E-06  0.67634875E-06  0.76708943E-06
  0.85027936E-06  0.92562840E-06  0.99290347E-06  0.10519282E-05  0.11025824E-05
  0.11448008E-05  0.11785721E-05  0.12039374E-05  0.12209881E-05  0.12298640E-05
  0.12307513E-05  0.12238794E-05  0.12095189E-05  0.11879783E-05  0.11596014E-05
  0.11247636E-05  0.10838692E-05  0.10373480E-05  0.98565162E-06  0.92925058E-06
  0.86863055E-06  0.80428908E-06  0.73673226E-06  0.66647135E-06  0.59401953E-06
  0.51988875E-06  0.44458666E-06  0.36861361E-06  0.29245985E-06  0.21660283E-06
  0.14150469E-06  0.67609829E-07 -0.46572225E-08 -0.74893867E-07 -0.14272125E-06
 -0.20778590E-06 -0.26976114E-06 -0.32834838E-06 -0.38327806E-06 -0.43431056E-06
 -0.48123677E-06 -0.52387855E-06 -0.56208893E-06 -0.59575214E-06 -0.62478350E-06
 -0.64912900E-06 -0.66876487E-06 -0.68369686E-06 -0.69395938E-06 -0.69961457E-06
 -0.70075110E-06 -0.69748297E-06 -0.68994810E-06 -0.67830688E-06 -0.66274056E-06
 -0.64344959E-06 -0.62065193E-06 -0.59458121E-06 -0.56548492E-06 -0.53362255E-06
 -0.49926368E-06 -0.46268606E-06 -0.42417374E-06 -0.38401518E-06 -0.34250137E-06
 -0.29992397E-06 -0.25657359E-06 -0.21273801E-06 -0.16870049E-06 -0.12473821E-06
 -0.81120740E-07 -0.38108570E-07  0.40482071E-08  0.45111154E-07  0.84854635E-07
  0.12306686E-06  0.15955080E-06  0.19412504E-06  0.22662444E-06  0.25690074E-06
  0.28482303E-06  0.31027814E-06  0.33317080E-06  0.35342382E-06  0.37097813E-06
  0.38579260E-06  0.39784392E-06  0.40712623E-06  0.41365080E-06  0.41744543E-06
  0.41855398E-06  0.41703562E-06  0.41296414E-06  0.40642712E-06  0.39752507E-06
  0.38637050E-06  0.37308693E-06  0.35780790E-06  0.34067587E-06  0.32184120E-06
  0.30146099E-06  0.27969799E-06  0.25671946E-06  0.23269608E-06  0.20780080E-06
  0.18220773E-06  0.15609110E-06  0.12962416E-06  0.10297816E-06  0.76321377E-07
  0.49818150E-07  0.23627982E-07 -0.20953147E-08 -0.27204412E-07 -0.51559208E-07
 -0.75027508E-07 -0.97485635E-07 -0.11881898E-06 -0.13892249E-06 -0.15770108E-06
 -0.17506996E-06 -0.19095492E-06 -0.20529257E-06 -0.21803038E-06 -0.22912686E-06
 -0.23855147E-06 -0.24628458E-06 -0.25231735E-06 -0.25665153E-06 -0.25929918E-06
 -0.26028241E-06 -0.25963295E-06 -0.25739181E-06 -0.25360876E-06 -0.24834187E-06
 -0.24165694E-06 -0.23362695E-06 -0.22433143E-06 -0.21385586E-06 -0.20229099E-06
 -0.18973219E-06 -0.17627875E-06 -0.16203322E-06 -0.14710067E-06 -0.13158806E-06
 -0.11560347E-06 -0.99255497E-07 -0.82652541E-07 -0.65902160E-07 -0.49110443E-07
 -0.32381394E-07 -0.15816351E-07  0.48657199E-09  0.16433006E-07  0.31932820E-07
  0.46900571E-07  0.61255925E-07  0.74924024E-07  0.87835830E-07  0.99928410E-07
  0.11114519E-06  0.12143615E-06  0.13075800E-06  0.13907430E-06  0.14635549E-06
  0.15257900E-06  0.15772917E-06  0.16179720E-06  0.16478111E-06  0.16668555E-06
  0.16752166E-06  0.16730686E-06  0.16606461E-06  0.16382412E-06  0.16062009E-06
  0.15649237E-06  0.15148558E-06  0.14564877E-06  0.13903504E-06  0.13170109E-06
  0.12370686E-06  0.11511503E-06  0.10599065E-06  0.96400641E-07  0.86413401E-07
  0.76098318E-07  0.65525351E-07  0.54764588E-07  0.43885821E-07  0.32958127E-07
  0.22049467E-07  0.11226295E-07  0.55318398E-09 -0.99075204E-08 -0.20096038E-07
 -0.29955461E-07 -0.39432042E-07 -0.48475453E-07 -0.57039026E-07 -0.65079954E-07
 -0.72559479E-07 -0.79443042E-07 -0.85700410E-07 -0.91305769E-07 -0.96237793E-07
 -0.10047969E-06 -0.10401919E-06 -0.10684856E-06 -0.10896455E-06 -0.11036831E-06
 -0.11106531E-06 -0.11106520E-06 -0.11038172E-06 -0.10903246E-06 -0.10703875E-06
 -0.10442542E-06 -0.10122056E-06 -0.97455353E-07 -0.93163750E-07 -0.88382263E-07
 -0.83149670E-07 -0.77506741E-07 -0.71495955E-07 -0.65161203E-07 -0.58547502E-07
 -0.51700695E-07 -0.44667161E-07 -0.37493520E-07 -0.30226350E-07 -0.22911903E-07
 -0.15595831E-07 -0.83229227E-08 -0.11368477E-08  0.59200869E-08  0.12807166E-07
  0.19485483E-07  0.25918142E-07  0.32070441E-07  0.37910043E-07  0.43407124E-07
  0.48534509E-07  0.53267785E-07  0.57585397E-07  0.61468725E-07  0.64902142E-07
  0.67873050E-07  0.70371905E-07  0.72392209E-07  0.73930503E-07  0.74986321E-07
  0.75562145E-07  0.75663331E-07  0.75298024E-07  0.74477057E-07  0.73213836E-07
  0.71524211E-07  0.69426334E-07  0.66940510E-07  0.64089028E-07  0.60895998E-07
  0.57387163E-07  0.53589721E-07  0.49532125E-07  0.45243898E-07  0.40755425E-07
  0.36097761E-07  0.31302425E-07  0.26401203E-07  0.21425953E-07  0.16408405E-07
  0.11379978E-07  0.63715888E-08  0.14134790E-08 -0.34649592E-08 -0.82353443E-08
 -0.12870460E-07 -0.17344399E-07 -0.21632696E-07 -0.25712450E-07 -0.29562438E-07
 -0.33163208E-07 -0.36497171E-07 -0.39548672E-07 -0.42304050E-07 -0.44751687E-07
 -0.46882039E-07 -0.48687663E-07 -0.50163220E-07 -0.51305472E-07 -0.52113266E-07
 -0.52587502E-07 -0.52731093E-07 -0.52548913E-07 -0.52047730E-07 -0.51236138E-07
 -0.50124465E-07 -0.48724689E-07 -0.47050329E-07 -0.45116343E-07 -0.42939007E-07
 -0.40535798E-07 -0.37925264E-07 -0.35126897E-07 -0.32160994E-07 -0.29048525E-07
 -0.25810991E-07 -0.22470286E-07 -0.19048558E-07 -0.15568070E-07 -0.12051063E-07
 -0.85196236E-08 -0.49955493E-08 -0.15002246E-08  0.19455030E-08  0.53214398E-08
  0.86081572E-08  0.11787096E-07  0.14840665E-07  0.17752332E-07  0.20506701E-07
  0.23089595E-07  0.25488113E-07  0.27690692E-07  0.29687154E-07  0.31468741E-07
  0.33028149E-07  0.34359546E-07  0.35458581E-07  0.36322389E-07  0.36949582E-07
  0.37340234E-07  0.37495853E-07  0.37419354E-07  0.37115013E-07  0.36588421E-07
  0.35846428E-07  0.34897081E-07  0.33749555E-07  0.32414082E-07  0.30901867E-07
  0.29225007E-07  0.27396403E-07  0.25429668E-07  0.23339034E-07  0.21139257E-07
  0.18845514E-07  0.16473310E-07  0.14038377E-07  0.11556572E-07  0.90437833E-08
  0.65158328E-08  0.39883789E-08  0.14768264E-08 -0.10037630E-08 -0.34387570E-08
 -0.58140339E-08 -0.81160602E-08 -0.10331963E-07 -0.12449598E-07 -0.14457610E-07
 -0.16345492E-07 -0.18103630E-07 -0.19723355E-07 -0.21196972E-07 -0.22517799E-07
 -0.23680183E-07 -0.24679528E-07 -0.25512296E-07 -0.26176021E-07 -0.26669300E-07
 -0.26991788E-07 -0.27144185E-07 -0.27128210E-07 -0.26946581E-07 -0.26602980E-07
 -0.26102014E-07 -0.25449177E-07 -0.24650798E-07 -0.23713994E-07 -0.22646612E-07
 -0.21457170E-07 -0.20154799E-07 -0.18749173E-07 -0.17250445E-07 -0.15669177E-07
 -0.14016270E-07 -0.12302896E-07 -0.10540418E-07 -0.87403291E-08 -0.69141708E-08
 -0.50734693E-08 -0.32296626E-08 -0.13940338E-08  0.42235539E-09  0.22087278E-08
  0.39546524E-08  0.56501014E-08  0.72855055E-08  0.88518048E-08  0.10340496E-07
  0.11743674E-07  0.13054074E-07  0.14265103E-07  0.15370870E-07  0.16366214E-07
  0.17246718E-07  0.18008733E-07  0.18649381E-07  0.19166566E-07  0.19558972E-07
  0.19826060E-07  0.19968063E-07  0.19985967E-07  0.19881498E-07  0.19657102E-07
  0.19315914E-07  0.18861733E-07  0.18298990E-07  0.17632709E-07  0.16868467E-07
  0.16012358E-07  0.15070940E-07  0.14051196E-07  0.12960482E-07  0.11806476E-07
  0.10597131E-07  0.93406175E-08  0.80452740E-08  0.67195540E-08  0.53719724E-08
  0.40110531E-08  0.26452776E-08  0.12830339E-08 -0.67432710E-10 -0.13980676E-08
 -0.27010528E-08 -0.39688509E-08 -0.51942468E-08 -0.63703865E-08 -0.74908136E-08
 -0.85495026E-08 -0.95408893E-08 -0.10459898E-07 -0.11301964E-07 -0.12063057E-07
 -0.12739694E-07 -0.13328956E-07 -0.13828494E-07 -0.14236539E-07 -0.14551902E-07
 -0.14773975E-07 -0.14902722E-07 -0.14938677E-07 -0.14882929E-07 -0.14737108E-07
 -0.14503369E-07 -0.14184370E-07 -0.13783248E-07 -0.13303598E-07 -0.12749437E-07
 -0.12125181E-07 -0.11435611E-07 -0.10685833E-07 -0.98812529E-08 -0.90275300E-08
 -0.81305447E-08 -0.71963582E-08 -0.62311732E-08 -0.52412946E-08 -0.42330898E-08
 -0.32129494E-08 -0.21872478E-08 -0.11623055E-08 -0.14435099E-09  0.86051560E-09
  0.18463574E-08  0.28074349E-08  0.37382374E-08  0.46335140E-08  0.54883013E-08
  0.62979495E-08  0.70581466E-08  0.77649397E-08  0.84147540E-08  0.90044093E-08
  0.95311339E-08  0.99925759E-08  0.10386812E-07  0.10712352E-07  0.10968143E-07
  0.11153572E-07  0.11268459E-07  0.11313055E-07  0.11288036E-07  0.11194489E-07
  0.11033904E-07  0.10808158E-07  0.10519498E-07  0.10170523E-07  0.97641630E-08
  0.93036569E-08  0.87925296E-08  0.82345661E-08  0.76337851E-08  0.69944119E-08
  0.63208497E-08  0.56176506E-08  0.48894863E-08  0.41411182E-08  0.33773671E-08
  0.26030834E-08  0.18231173E-08  0.10422896E-08  0.26536259E-09 -0.50298778E-09
 -0.12581992E-08 -0.19958490E-08 -0.27116794E-08 -0.34016207E-08 -0.40618137E-08
 -0.46886304E-08 -0.52786928E-08 -0.58288900E-08 -0.63363937E-08 -0.67986718E-08
 -0.72134994E-08 -0.75789687E-08 -0.78934962E-08 -0.81558283E-08 -0.83650442E-08
 -0.85205578E-08 -0.86221162E-08 -0.86697974E-08 -0.86640054E-08 -0.86054635E-08
 -0.84952061E-08 -0.83345678E-08 -0.81251721E-08 -0.78689177E-08 -0.75679630E-08
 -0.72247103E-08 -0.68417880E-08 -0.64220314E-08 -0.59684634E-08 -0.54842735E-08
 -0.49727962E-08 -0.44374896E-08 -0.38819122E-08 -0.33097002E-08 -0.27245451E-08
 -0.21301696E-08 -0.15303057E-08 -0.92867120E-09 -0.32894793E-09  0.26524051E-09
  0.85034972E-09  0.14229351E-08  0.19796713E-08  0.25173710E-08  0.30330024E-08
  0.35237057E-08  0.39868082E-08  0.44198382E-08  0.48205372E-08  0.51868714E-08
  0.55170408E-08  0.58094872E-08  0.60629009E-08  0.62762253E-08  0.64486604E-08
  0.65796639E-08  0.66689521E-08  0.67164976E-08  0.67225269E-08  0.66875156E-08
  0.66121824E-08  0.64974820E-08  0.63445962E-08  0.61549238E-08  0.59300699E-08
  0.56718334E-08  0.53821934E-08  0.50632956E-08  0.47174369E-08  0.43470498E-08
  0.39546858E-08  0.35429986E-08  0.31147269E-08  0.26726767E-08  0.22197033E-08
  0.17586938E-08  0.12925489E-08  0.82416512E-09  0.35641768E-09 -0.10785699E-09
 -0.56587781E-09 -0.10149353E-08 -0.14524070E-08 -0.18757725E-08 -0.22826272E-08
 -0.26706958E-08 -0.30378443E-08 -0.33820912E-08 -0.37016178E-08 -0.39947773E-08
 kinetic energy density (partial)
  0.10508984E+03  0.10505593E+03  0.10495428E+03  0.10478505E+03  0.10454857E+03
  0.10424525E+03  0.10387563E+03  0.10344038E+03  0.10294027E+03  0.10237619E+03
  0.10174915E+03  0.10106026E+03  0.10031072E+03  0.99501863E+02  0.98635092E+02
  0.97711918E+02  0.96733937E+02  0.95702832E+02  0.94620366E+02  0.93488377E+02
  0.92308776E+02  0.91083536E+02  0.89814693E+02  0.88504338E+02  0.87154609E+02
  0.85767691E+02  0.84345805E+02  0.82891206E+02  0.81406175E+02  0.79893015E+02
  0.78354043E+02  0.76791588E+02  0.75207984E+02  0.73605562E+02  0.71986648E+02
  0.70353555E+02  0.68708582E+02  0.67054005E+02  0.65392072E+02  0.63725002E+02
  0.62054978E+02  0.60384143E+02  0.58714595E+02  0.57048386E+02  0.55387514E+02
  0.53733925E+02  0.52089504E+02  0.50456078E+02  0.48835406E+02  0.47229185E+02
  0.45639040E+02  0.44066527E+02  0.42513129E+02  0.40980257E+02  0.39469243E+02
  0.37981348E+02  0.36517750E+02  0.35079555E+02  0.33667788E+02  0.32283397E+02
  0.30927252E+02  0.29600144E+02  0.28302790E+02  0.27035829E+02  0.25799823E+02
  0.24595262E+02  0.23422563E+02  0.22282069E+02  0.21174055E+02  0.20098727E+02
  0.19056223E+02  0.18046619E+02  0.17069925E+02  0.16126093E+02  0.15215016E+02
  0.14336530E+02  0.13490420E+02  0.12676417E+02  0.11894206E+02  0.11143423E+02
  0.10423663E+02  0.97344785E+01  0.90753851E+01  0.84458616E+01  0.78453542E+01
  0.72732783E+01  0.67290218E+01  0.62119470E+01  0.57213934E+01  0.52566801E+01
  0.48171085E+01  0.44019644E+01  0.40105204E+01  0.36420382E+01  0.32957708E+01
  0.29709647E+01  0.26668620E+01  0.23827020E+01  0.21177239E+01  0.18711678E+01
  0.16422769E+01  0.14302992E+01  0.12344887E+01  0.10541074E+01  0.88842630E+00
  0.73672697E+00  0.59830257E+00  0.47245913E+00  0.35851654E+00  0.25580951E+00
  0.16368850E+00  0.81520415E-01  0.86893982E-02 -0.55402593E-01 -0.11133523E+00
 -0.15966935E+00 -0.20094656E+00 -0.23568894E+00 -0.26439877E+00 -0.28755837E+00
 -0.30563000E+00 -0.31905579E+00 -0.32825778E+00 -0.33363795E+00 -0.33557840E+00
 -0.33444146E+00 -0.33056998E+00 -0.32428755E+00 -0.31589883E+00 -0.30568992E+00
 -0.29392868E+00 -0.28086524E+00 -0.26673238E+00 -0.25174602E+00 -0.23610573E+00
 -0.21999525E+00 -0.20358304E+00 -0.18702280E+00 -0.17045406E+00 -0.15400276E+00
 -0.13778185E+00 -0.12189184E+00 -0.10642144E+00 -0.91448126E-01 -0.77038769E-01
 -0.63250197E-01 -0.50129801E-01 -0.37716117E-01 -0.26039401E-01 -0.15122195E-01
 -0.49798849E-02  0.43787594E-02  0.12951049E-01  0.20739864E-01  0.27753145E-01
  0.34003419E-01  0.39507318E-01  0.44285141E-01  0.48360410E-01  0.51759464E-01
  0.54511060E-01  0.56645996E-01  0.58196757E-01  0.59197178E-01  0.59682125E-01
  0.59687196E-01  0.59248448E-01  0.58402130E-01  0.57184451E-01  0.55631356E-01
  0.53778321E-01  0.51660172E-01  0.49310917E-01  0.46763596E-01  0.44050149E-01
  0.41201299E-01  0.38246451E-01  0.35213605E-01  0.32129285E-01  0.29018479E-01
  0.25904596E-01  0.22809433E-01  0.19753149E-01  0.16754261E-01  0.13829640E-01
  0.10994521E-01  0.82625182E-02  0.56456572E-02  0.31544033E-02  0.79770374E-03
 -0.14169662E-02 -0.34835515E-02 -0.53973606E-02 -0.71550052E-02 -0.87543351E-02
 -0.10194372E-01 -0.11475239E-01 -0.12598088E-01 -0.13565031E-01 -0.14379059E-01
 -0.15043974E-01 -0.15564313E-01 -0.15945271E-01 -0.16192630E-01 -0.16312690E-01
 -0.16312191E-01 -0.16198252E-01 -0.15978297E-01 -0.15659997E-01 -0.15251202E-01
 -0.14759887E-01 -0.14194088E-01 -0.13561858E-01 -0.12871207E-01 -0.12130064E-01
 -0.11346223E-01 -0.10527310E-01 -0.96807427E-02 -0.88136977E-02 -0.79330779E-02
 -0.70454874E-02 -0.61572065E-02 -0.52741716E-02 -0.44019576E-02 -0.35457634E-02
 -0.27104010E-02 -0.19002871E-02 -0.11194371E-02 -0.37146271E-03  0.34042872E-03
  0.10134319E-02  0.16451394E-02  0.22335350E-02  0.27769856E-02  0.32742306E-02
  0.37243701E-02  0.41268516E-02  0.44814550E-02  0.47882767E-02  0.50477129E-02
  0.52604411E-02  0.54274018E-02  0.55497793E-02  0.56289818E-02  0.56666215E-02
  0.56644943E-02  0.56245593E-02  0.55489190E-02  0.54397989E-02  0.52995278E-02
  0.51305183E-02  0.49352479E-02  0.47162404E-02  0.44760485E-02  0.42172363E-02
  0.39423630E-02  0.36539678E-02  0.33545547E-02  0.30465793E-02  0.27324356E-02
  0.24144445E-02  0.20948426E-02  0.17757730E-02  0.14592761E-02  0.11472817E-02
  0.84160279E-03  0.54392951E-03  0.25582439E-03 -0.21281256E-04 -0.28609018E-03
 -0.53744106E-03 -0.77430944E-03 -0.99580787E-03 -0.12011852E-02 -0.13898249E-02
 -0.15612432E-02 -0.17150858E-02 -0.18511244E-02 -0.19692528E-02 -0.20694816E-02
 -0.21519338E-02 -0.22168384E-02 -0.22645249E-02 -0.22954166E-02 -0.23100242E-02
 -0.23089387E-02 -0.22928247E-02 -0.22624125E-02 -0.22184917E-02 -0.21619031E-02
 -0.20935320E-02 -0.20143003E-02 -0.19251599E-02 -0.18270851E-02 -0.17210662E-02
 -0.16081023E-02 -0.14891953E-02 -0.13653431E-02 -0.12375341E-02 -0.11067415E-02
 -0.97391775E-03 -0.83998959E-03 -0.70585362E-03 -0.57237186E-03 -0.44036793E-03
 -0.31062353E-03 -0.18387534E-03 -0.60812298E-04  0.57926723E-04  0.17175483E-03
  0.28013868E-03  0.38259959E-03  0.47871440E-03  0.56811581E-03  0.65049254E-03
  0.72558899E-03  0.79320472E-03  0.85319350E-03  0.90546216E-03  0.94996911E-03
  0.98672263E-03  0.10157790E-02  0.10372401E-02  0.10512516E-02  0.10579996E-02
  0.10577088E-02  0.10506392E-02  0.10370834E-02  0.10173635E-02  0.99182801E-03
  0.96084889E-03  0.92481834E-03  0.88414566E-03  0.83925413E-03  0.79057791E-03
  0.73855905E-03  0.68364442E-03  0.62628288E-03  0.56692244E-03  0.50600754E-03
  0.44397651E-03  0.38125909E-03  0.31827410E-03  0.25542731E-03  0.19310937E-03
  0.13169402E-03  0.71536368E-04  0.12971385E-04 -0.43687433E-04 -0.98149230E-04
 -0.15014678E-03 -0.19943729E-03 -0.24580304E-03 -0.28905188E-03 -0.32901746E-03
 -0.36555943E-03 -0.39856334E-03 -0.42794053E-03 -0.45362775E-03 -0.47558668E-03
 -0.49380337E-03 -0.50828745E-03 -0.51907131E-03 -0.52620916E-03 -0.52977593E-03
 -0.52986617E-03 -0.52659278E-03 -0.52008574E-03 -0.51049076E-03 -0.49796788E-03
 -0.48268998E-03 -0.46484139E-03 -0.44461629E-03 -0.42221731E-03 -0.39785396E-03
 -0.37174113E-03 -0.34409766E-03 -0.31514483E-03 -0.28510493E-03 -0.25419994E-03
 -0.22265011E-03 -0.19067271E-03 -0.15848082E-03 -0.12628213E-03 -0.94277865E-04
 -0.62661763E-04 -0.31619123E-04 -0.13259507E-05  0.28051831E-04  0.56359072E-04
  0.83452009E-04  0.10919878E-03  0.13347988E-03  0.15618847E-03  0.17723068E-03
  0.19652576E-03  0.21400616E-03  0.22961756E-03  0.24331881E-03  0.25508173E-03
  0.26489095E-03  0.27274356E-03  0.27864880E-03  0.28262762E-03  0.28471218E-03
  0.28494538E-03  0.28338021E-03  0.28007916E-03  0.27511358E-03  0.26856293E-03
  0.26051412E-03  0.25106071E-03  0.24030218E-03  0.22834313E-03  0.21529251E-03
  0.20126283E-03  0.18636934E-03  0.17072933E-03  0.15446125E-03  0.13768404E-03
  0.12051636E-03  0.10307589E-03  0.85478616E-04  0.67838210E-04  0.50265375E-04
  0.32867272E-04  0.15746965E-04 -0.99708769E-06 -0.17271505E-04 -0.32988406E-04
 -0.48065788E-04 -0.62427862E-04 -0.76005339E-04 -0.88735671E-04 -0.10056324E-03
 -0.11143951E-03 -0.12132312E-03 -0.13017993E-03 -0.13798305E-03 -0.14471279E-03
 -0.15035659E-03 -0.15490887E-03 -0.15837093E-03 -0.16075071E-03 -0.16206257E-03
 -0.16232704E-03 -0.16157051E-03 -0.15982495E-03 -0.15712751E-03 -0.15352020E-03
 -0.14904948E-03 -0.14376587E-03 -0.13772353E-03 -0.13097984E-03 -0.12359497E-03
 -0.11563140E-03 -0.10715356E-03 -0.98227292E-04 -0.88919494E-04 -0.79297635E-04
 -0.69429353E-04 -0.59382034E-04 -0.49222410E-04 -0.39016167E-04 -0.28827582E-04
 -0.18719162E-04 -0.87513101E-05  0.10179808E-05  0.10533424E-04  0.19742702E-04
  0.28596709E-04  0.37049768E-04  0.45059817E-04  0.52588576E-04  0.59601680E-04
  0.66068793E-04  0.71963683E-04  0.77264284E-04  0.81952721E-04  0.86015317E-04
  0.89442566E-04  0.92229087E-04  0.94373557E-04  0.95878616E-04  0.96750749E-04
  0.97000157E-04  0.96640598E-04  0.95689217E-04  0.94166361E-04  0.92095373E-04
  0.89502376E-04  0.86416051E-04  0.82867397E-04  0.78889485E-04  0.74517211E-04
  0.69787035E-04  0.64736725E-04  0.59405096E-04  0.53831748E-04  0.48056805E-04
  0.42120663E-04  0.36063736E-04  0.29926211E-04  0.23747809E-04  0.17567554E-04
  0.11423555E-04  0.53527978E-05 -0.60905799E-06 -0.64278589E-05 -0.12071131E-04
 -0.17508238E-04 -0.22710523E-04 -0.27651434E-04 -0.32306639E-04 -0.36654121E-04
 -0.40674254E-04 -0.44349871E-04 -0.47666306E-04 -0.50611432E-04 -0.53175666E-04
 -0.55351976E-04 -0.57135862E-04 -0.58525324E-04 -0.59520820E-04 -0.60125201E-04
 -0.60343645E-04 -0.60183567E-04 -0.59654528E-04 -0.58768124E-04 -0.57537871E-04
 -0.55979079E-04 -0.54108720E-04 -0.51945285E-04 -0.49508640E-04 -0.46819871E-04
 -0.43901134E-04 -0.40775492E-04 -0.37466755E-04 -0.33999324E-04 -0.30398021E-04
 -0.26687939E-04 -0.22894276E-04 -0.19042183E-04 -0.15156613E-04 -0.11262174E-04
 -0.73829846E-05 -0.35425422E-05  0.23640778E-06  0.39319931E-05  0.75233280E-05
  0.10990618E-04  0.14315258E-04  0.17479915E-04  0.20468611E-04  0.23266785E-04
  0.25861356E-04  0.28240764E-04  0.30395016E-04  0.32315701E-04  0.33996020E-04
  0.35430782E-04  0.36616406E-04  0.37550909E-04  0.38233880E-04  0.38666453E-04
  0.38851264E-04  0.38792408E-04  0.38495375E-04  0.37966996E-04  0.37215366E-04
  0.36249775E-04  0.35080620E-04  0.33719324E-04  0.32178241E-04  0.30470564E-04
  0.28610228E-04  0.26611809E-04  0.24490420E-04  0.22261613E-04  0.19941272E-04
  0.17545511E-04  0.15090571E-04  0.12592720E-04  0.10068154E-04  0.75328964E-05
  0.50027108E-05  0.24930056E-05  0.18750366E-07 -0.24056070E-05 -0.47662166E-05
 -0.70498987E-05 -0.92442096E-05 -0.11337503E-04 -0.13318982E-04 -0.15178752E-04
 -0.16907857E-04 -0.18498320E-04 -0.19943166E-04 -0.21236451E-04 -0.22373270E-04
 -0.23349773E-04 -0.24163163E-04 -0.24811690E-04 -0.25294647E-04 -0.25612349E-04
 -0.25766112E-04 -0.25758223E-04 -0.25591911E-04 -0.25271308E-04 -0.24801401E-04
 -0.24187992E-04 -0.23437642E-04 -0.22557619E-04 -0.21555838E-04 -0.20440801E-04
 -0.19221537E-04 -0.17907532E-04 -0.16508664E-04 -0.15035140E-04 -0.13497421E-04
 -0.11906157E-04 -0.10272122E-04 -0.86061390E-05 -0.69190196E-05 -0.52214959E-05
 -0.35241578E-05 -0.18373912E-05 -0.17131912E-06  0.14642545E-05  0.30598985E-05
  0.46066040E-05  0.60958315E-05  0.75195535E-05  0.88702933E-05  0.10141160E-04
  0.11325879E-04  0.12418820E-04  0.13415015E-04  0.14310180E-04  0.15100726E-04
  0.15783770E-04  0.16357135E-04  0.16819354E-04  0.17169664E-04  0.17407998E-04
  0.17534970E-04  0.17551863E-04  0.17460606E-04  0.17263750E-04  0.16964443E-04
  0.16566397E-04  0.16073859E-04  0.15491571E-04  0.14824737E-04  0.14078977E-04
  0.13260293E-04  0.12375017E-04  0.11429773E-04  0.10431430E-04  0.93870550E-05
  0.83038657E-05  0.71891864E-05  0.60504002E-05  0.48949036E-05  0.37300613E-05
  0.25631622E-05  0.14013766E-05  0.25171483E-06 -0.87901220E-06 -0.19842309E-05
 -0.30576404E-05 -0.40932460E-05 -0.50853900E-05 -0.60287798E-05 -0.69185136E-05
 -0.77501032E-05 -0.85194939E-05 -0.92230812E-05 -0.98577246E-05 -0.10420759E-04
 -0.10910001E-04 -0.11323756E-04 -0.11660818E-04 -0.11920468E-04 -0.12102472E-04
 -0.12207071E-04 -0.12234976E-04 -0.12187347E-04 -0.12065789E-04 -0.11872325E-04
 -0.11609382E-04 -0.11279767E-04 -0.10886645E-04 -0.10433511E-04 -0.99241677E-05
 -0.93626912E-05 -0.87534060E-05 -0.81008532E-05 -0.74097588E-05 -0.66850026E-05
 -0.59315854E-05 -0.51545971E-05 -0.43591841E-05 -0.35505171E-05 -0.27337596E-05
 -0.19140363E-05 -0.10964034E-05 -0.28581823E-06  0.51288822E-06  0.12950390E-05
  0.20561369E-05  0.27918883E-05  0.34982261E-05  0.41713305E-05  0.48076478E-05
  0.54039078E-05  0.59571385E-05  0.64646792E-05  0.69241917E-05  0.73336686E-05
  0.76914405E-05  0.79961800E-05  0.82469043E-05  0.84429755E-05  0.85840986E-05
  0.86703175E-05  0.87020095E-05  0.86798771E-05  0.86049388E-05  0.84785172E-05
  0.83022265E-05  0.80779578E-05  0.78078626E-05  0.74943364E-05  0.71399995E-05
  0.67476776E-05  0.63203815E-05  0.58612857E-05  0.53737066E-05  0.48610799E-05
  0.43269382E-05  0.37748876E-05  0.32085850E-05  0.26317151E-05  0.20479673E-05
  0.14610137E-05  0.87448678E-06  0.29195834E-06 -0.28308145E-06 -0.84724372E-06
 -0.13972599E-05 -0.19299994E-05 -0.24424868E-05 -0.29319170E-05 -0.33956695E-05
 -0.38313217E-05 -0.42366601E-05 -0.46096907E-05 -0.49486471E-05 -0.52519982E-05
 -0.55184534E-05 -0.57469667E-05 -0.59367392E-05 -0.60872201E-05 -0.61981061E-05
 -0.62693391E-05 -0.63011034E-05 -0.62938200E-05 -0.62481408E-05 -0.61649411E-05
 -0.60453104E-05 -0.58905428E-05 -0.57021262E-05 -0.54817295E-05 -0.52311905E-05
 -0.49525018E-05 -0.46477962E-05 -0.43193319E-05 -0.39694766E-05 -0.36006918E-05
 -0.32155162E-05 -0.28165491E-05 -0.24064339E-05 -0.19878413E-05 -0.15634527E-05
 -0.11359439E-05 -0.70796873E-06 -0.28214370E-06  0.13896771E-06  0.55286950E-06
  0.95714736E-06  0.13494820E-05  0.17276618E-05  0.20895946E-05  0.24333185E-05
  0.27570118E-05  0.30590020E-05  0.33377737E-05  0.35919751E-05  0.38204241E-05
  0.40221131E-05  0.41962116E-05  0.43420698E-05  0.44592187E-05  0.45473710E-05
  0.46064199E-05  0.46364370E-05  0.46376692E-05  0.46105347E-05  0.45556179E-05
  0.44736634E-05  0.43655690E-05  0.42323783E-05  0.40752719E-05  0.38955583E-05
  0.36946642E-05  0.34741240E-05  0.32355692E-05  0.29807167E-05  0.27113572E-05
  0.24293437E-05  0.21365788E-05  0.18350028E-05  0.15265814E-05  0.12132931E-05
  0.89711747E-06  0.58002279E-06  0.26395445E-06 -0.49176511E-07 -0.35750454E-06
 -0.65922017E-06 -0.95258018E-06 -0.12359172E-05 -0.15076488E-05 -0.17662857E-05
 -0.20104396E-05 -0.22388300E-05 -0.24502906E-05 -0.26437745E-05 -0.28183591E-05
 -0.29732496E-05 -0.31077825E-05 -0.32214269E-05 -0.33137868E-05 -0.33846009E-05
 -0.34337427E-05 -0.34612188E-05 -0.34671677E-05 -0.34518565E-05 -0.34156777E-05
 -0.33591453E-05 -0.32828893E-05 -0.31876509E-05 -0.30742762E-05 -0.29437097E-05
 -0.27969868E-05 -0.26352270E-05 -0.24596250E-05 -0.22714434E-05 -0.20720032E-05
 -0.18626757E-05 -0.16448731E-05 -0.14200392E-05 -0.11896410E-05 -0.95515849E-06
 -0.71807621E-06 -0.47987390E-06 -0.24201768E-06 -0.59513431E-08  0.22691210E-06
  0.45519855E-06  0.67758059E-06  0.89278489E-06  0.10995992E-05  0.12968789E-05
  0.14835528E-05  0.16586289E-05  0.18211992E-05  0.19704440E-05  0.21056357E-05
  0.22261419E-05  0.23314282E-05  0.24210597E-05  0.24947025E-05  0.25521245E-05
  0.25931950E-05  0.26178847E-05  0.26262639E-05  0.26185012E-05  0.25948608E-05
  0.25557000E-05  0.25014654E-05  0.24326893E-05  0.23499849E-05  0.22540421E-05
  0.21456217E-05  0.20255504E-05  0.18947144E-05  0.17540535E-05  0.16045547E-05
  0.14472455E-05  0.12831873E-05  0.11134681E-05  0.93919624E-06  0.76149272E-06
  0.58148469E-06  0.40029835E-06  0.21905222E-06  0.38850386E-07 -0.13922392E-06
 -0.31411465E-06 -0.48479897E-06 -0.65029305E-06 -0.80965744E-06 -0.96200226E-06
 -0.11064919E-05 -0.12423494E-05 -0.13688602E-05 -0.14853762E-05 -0.15913180E-05
 -0.16861782E-05 -0.17695234E-05 -0.18409954E-05 -0.19003131E-05 -0.19472727E-05
 -0.19817481E-05 -0.20036906E-05 -0.20131283E-05 -0.20101648E-05 -0.19949779E-05
 -0.19678169E-05 -0.19290010E-05 -0.18789160E-05 -0.18180110E-05 -0.17467952E-05
 -0.16658338E-05 -0.15757441E-05 -0.14771907E-05 -0.13708814E-05 -0.12575618E-05
 -0.11380107E-05 -0.10130348E-05 -0.88346351E-06 -0.75014359E-06 -0.61393383E-06
 -0.47569966E-06 -0.33630788E-06 -0.19662132E-06 -0.57493741E-07  0.80235299E-07
  0.21574530E-06  0.34823957E-06  0.47694976E-06  0.60114014E-06  0.72011167E-06
  0.83320576E-06  0.93980776E-06  0.10393501E-05  0.11313153E-05  0.12152381E-05
  0.12907081E-05  0.13573713E-05  0.14149314E-05  0.14631514E-05  0.15018536E-05
  0.15309205E-05  0.15502945E-05  0.15599775E-05  0.15600304E-05  0.15505717E-05
  0.15317761E-05  0.15038730E-05  0.14671441E-05  0.14219214E-05  0.13685843E-05
  0.13075568E-05  0.12393043E-05  0.11643306E-05  0.10831739E-05  0.99640350E-06
  0.90461574E-06  0.80843019E-06  0.70848555E-06  0.60543556E-06  0.49994487E-06
  0.39268484E-06  0.28432945E-06  0.17555113E-06  0.67016733E-07 -0.40616447E-07
 -0.14670453E-06 -0.25062082E-06 -0.35175933E-06 -0.44953830E-06 -0.54340333E-06
 -0.63283047E-06 -0.71732902E-06 -0.79644409E-06 -0.86975894E-06 -0.93689702E-06
 atomic pseudo charge-density
  0.60000000E+01  0.59876385E+01  0.59507352E+01  0.58898286E+01  0.58057971E+01
  0.56998309E+01  0.55733955E+01  0.54281887E+01  0.52660925E+01  0.50891230E+01
  0.48993802E+01  0.46990005E+01  0.44901118E+01  0.42747944E+01  0.40550472E+01
  0.38327599E+01  0.36096921E+01  0.33874572E+01  0.31675132E+01  0.29511571E+01
  0.27395246E+01  0.25335923E+01  0.23341841E+01  0.21419781E+01  0.19575165E+01
  0.17812152E+01  0.16133757E+01  0.14541952E+01  0.13037783E+01  0.11621476E+01
  0.10292537E+01  0.90498539E+00  0.78917859E+00  0.68162457E+00  0.58207778E+00
  0.49026282E+00  0.40588074E+00  0.32861465E+00  0.25813474E+00  0.19410273E+00
  0.13617569E+00  0.84009485E-01  0.37261608E-01 -0.44062848E-02 -0.41326298E-01
 -0.73822538E-01 -0.10220968E+00 -0.12679179E+00 -0.14786146E+00 -0.16569907E+00
 -0.18057232E+00 -0.19273593E+00 -0.20243142E+00 -0.20988713E+00 -0.21531824E+00
 -0.21892693E+00 -0.22090269E+00 -0.22142254E+00 -0.22065144E+00 -0.21874271E+00
 -0.21583842E+00 -0.21206989E+00 -0.20755814E+00 -0.20241441E+00 -0.19674063E+00
 -0.19062993E+00 -0.18416714E+00 -0.17742923E+00 -0.17048584E+00 -0.16339972E+00
 -0.15622718E+00 -0.14901851E+00 -0.14181842E+00 -0.13466644E+00 -0.12759728E+00
 -0.12064121E+00 -0.11382440E+00 -0.10716928E+00 -0.10069478E+00 -0.94416703E-01
 -0.88347948E-01 -0.82498790E-01 -0.76877122E-01 -0.71488678E-01 -0.66337251E-01
 -0.61424890E-01 -0.56752084E-01 -0.52317936E-01 -0.48120322E-01 -0.44156040E-01
 -0.40420945E-01 -0.36910078E-01 -0.33617779E-01 -0.30537796E-01 -0.27663386E-01
 -0.24987399E-01 -0.22502364E-01 -0.20200562E-01 -0.18074097E-01 -0.16114953E-01
 -0.14315051E-01 -0.12666302E-01 -0.11160646E-01 -0.97900960E-02 -0.85467726E-02
 -0.74229330E-02 -0.64110000E-02 -0.55035846E-02 -0.46935064E-02 -0.39738106E-02
 -0.33377824E-02 -0.27789582E-02 -0.22911350E-02 -0.18683774E-02 -0.15050224E-02
 -0.11956826E-02 -0.93524775E-03 -0.71888432E-03 -0.54203442E-03 -0.40041288E-03
 -0.29000356E-03 -0.20705450E-03 -0.14807232E-03 -0.10981575E-03 -0.89288577E-04
 -0.83731953E-04 -0.90616239E-04 -0.10763244E-03 -0.13268327E-03 -0.16387400E-03
 -0.19950305E-03 -0.23805249E-03 -0.27817835E-03 -0.31870106E-03 -0.35859569E-03
 -0.39698243E-03 -0.43311702E-03 -0.46638138E-03 -0.49627439E-03 -0.52240283E-03
 -0.54447254E-03 -0.56227985E-03 -0.57570326E-03 -0.58469532E-03 -0.58927498E-03
 -0.58952002E-03 -0.58556003E-03 -0.57756952E-03 -0.56576155E-03 -0.55038152E-03
 -0.53170150E-03 -0.51001473E-03 -0.48563062E-03 -0.45886999E-03 -0.43006076E-03
 -0.39953387E-03 -0.36761967E-03 -0.33464453E-03 -0.30092786E-03 -0.26677938E-03
 -0.23249681E-03 -0.19836370E-03 -0.16464773E-03 -0.13159915E-03 -0.99449546E-04
 -0.68410883E-04 -0.38674736E-04 -0.10411793E-04  0.16228443E-04  0.41117753E-04
  0.64149105E-04  0.85236386E-04  0.10431398E-03  0.12133620E-03  0.13627657E-03
  0.14912704E-03  0.15989702E-03  0.16861242E-03  0.17531452E-03  0.18005884E-03
  0.18291397E-03  0.18396027E-03  0.18328866E-03  0.18099931E-03  0.17720038E-03
  0.17200672E-03  0.16553861E-03  0.15792053E-03  0.14927991E-03  0.13974603E-03
  0.12944882E-03  0.11851784E-03  0.10708120E-03  0.95264675E-04  0.83190775E-04
  0.70977921E-04  0.58739710E-04  0.46584229E-04  0.34613465E-04  0.22922772E-04
  0.11600432E-04  0.72727877E-06 -0.96235935E-05 -0.19387052E-04 -0.28506072E-04
 -0.36931816E-04 -0.44623644E-04 -0.51549056E-04 -0.57683579E-04 -0.63010591E-04
 -0.67521095E-04 -0.71213441E-04 -0.74093000E-04 -0.76171806E-04 -0.77468151E-04
 -0.78006153E-04 -0.77815301E-04 -0.76929966E-04 -0.75388907E-04 -0.73234757E-04
 -0.70513497E-04 -0.67273937E-04 -0.63567183E-04 -0.59446119E-04 -0.54964889E-04
 -0.50178399E-04 -0.45141822E-04 -0.39910134E-04 -0.34537662E-04 -0.29077659E-04
 -0.23581905E-04 -0.18100336E-04 -0.12680701E-04 -0.73682564E-05 -0.22054847E-05
  0.27681471E-05  0.75163969E-05  0.12006423E-04  0.16208922E-04  0.20098240E-04
  0.23652439E-04  0.26853337E-04  0.29686517E-04  0.32141300E-04  0.34210692E-04
  0.35891300E-04  0.37183225E-04  0.38089927E-04  0.38618069E-04  0.38777339E-04
  0.38580256E-04  0.38041959E-04  0.37179980E-04  0.36014006E-04  0.34565634E-04
  0.32858120E-04  0.30916117E-04  0.28765415E-04  0.26432685E-04  0.23945214E-04
  0.21330655E-04  0.18616777E-04  0.15831224E-04  0.13001282E-04  0.10153659E-04
  0.73142815E-05  0.45080919E-05  0.17588755E-05 -0.91090590E-06 -0.34802603E-05
 -0.59297956E-05 -0.82418309E-05 -0.10400491E-04 -0.12391781E-04 -0.14203643E-04
 -0.15825998E-04 -0.17250762E-04 -0.18471853E-04 -0.19485175E-04 -0.20288589E-04
 -0.20881868E-04 -0.21266636E-04 -0.21446292E-04 -0.21425926E-04 -0.21212221E-04
 -0.20813339E-04 -0.20238809E-04 -0.19499400E-04 -0.18606983E-04 -0.17574403E-04
 -0.16415327E-04 -0.15144107E-04 -0.13775633E-04 -0.12325182E-04 -0.10808281E-04
 -0.92405583E-05 -0.76376085E-05 -0.60148560E-05 -0.43874265E-05 -0.27700251E-05
 -0.11768203E-05  0.37866278E-06  0.18836408E-05  0.33261618E-05  0.46951840E-05
  0.59806457E-05  0.71735234E-05  0.82658807E-05  0.92509048E-05  0.10122934E-04
  0.10877473E-04  0.11511198E-04  0.12021953E-04  0.12408734E-04  0.12671664E-04
  0.12811963E-04  0.12831902E-04  0.12734753E-04  0.12524737E-04  0.12206955E-04
  0.11787320E-04  0.11272484E-04  0.10669757E-04  0.99870245E-05  0.92326636E-05
  0.84154545E-05  0.75444929E-05  0.66291012E-05  0.56787400E-05  0.47029212E-05
  0.37111233E-05  0.27127080E-05  0.17168417E-05  0.73241966E-06 -0.23200536E-06
 -0.11682889E-05 -0.20687561E-05 -0.29262567E-05 -0.37342142E-05 -0.44866690E-05
 -0.51783146E-05 -0.58045273E-05 -0.63613893E-05 -0.68457047E-05 -0.72550093E-05
 -0.75875729E-05 -0.78423962E-05 -0.80192005E-05 -0.81184116E-05 -0.81411380E-05
 -0.80891438E-05 -0.79648161E-05 -0.77711284E-05 -0.75115989E-05 -0.71902460E-05
 -0.68115398E-05 -0.63803512E-05 -0.59018986E-05 -0.53816931E-05 -0.48254818E-05
 -0.42391915E-05 -0.36288711E-05 -0.30006352E-05 -0.23606079E-05 -0.17148682E-05
 -0.10693971E-05 -0.43002656E-06  0.19760850E-06  0.80811574E-06  0.13963875E-05
  0.19576394E-05  0.24874452E-05  0.29817678E-05  0.34369855E-05  0.38499149E-05
  0.42178286E-05  0.45384685E-05  0.48100555E-05  0.50312932E-05  0.52013688E-05
  0.53199490E-05  0.53871712E-05  0.54036318E-05  0.53703703E-05  0.52888491E-05
  0.51609313E-05  0.49888545E-05  0.47752023E-05  0.45228729E-05  0.42350466E-05
  0.39151506E-05  0.35668223E-05  0.31938728E-05  0.28002482E-05  0.23899915E-05
  0.19672041E-05  0.15360081E-05  0.11005081E-05  0.66475596E-06  0.23271456E-06
 -0.19177501E-06 -0.60502546E-06 -0.10035329E-05 -0.13840043E-05 -0.17433823E-05
 -0.20788673E-05 -0.23879373E-05 -0.26683641E-05 -0.29182273E-05 -0.31359244E-05
 -0.33201785E-05 -0.34700427E-05 -0.35849015E-05 -0.36644692E-05 -0.37087854E-05
 -0.37182074E-05 -0.36934006E-05 -0.36353256E-05 -0.35452235E-05 -0.34245987E-05
 -0.32751997E-05 -0.30989984E-05 -0.28981674E-05 -0.26750564E-05 -0.24321673E-05
 -0.21721285E-05 -0.18976684E-05 -0.16115892E-05 -0.13167395E-05 -0.10159882E-05
 -0.71219800E-06 -0.40819976E-06 -0.10676765E-06  0.18940470E-06  0.47772680E-06
  0.75573257E-06  0.10211000E-05  0.12716693E-05  0.15054588E-05  0.17206795E-05
  0.19157471E-05  0.20892924E-05  0.22401689E-05  0.23674592E-05  0.24704784E-05
  0.25487754E-05  0.26021328E-05  0.26305638E-05  0.26343078E-05  0.26138233E-05
  0.25697801E-05  0.25030482E-05  0.24146867E-05  0.23059304E-05  0.21781746E-05
  0.20329602E-05  0.18719562E-05  0.16969426E-05  0.15097916E-05  0.13124496E-05
  0.11069174E-05  0.89523151E-06  0.67944498E-06  0.46160831E-06  0.24375108E-06
  0.27863963E-07 -0.18411860E-06 -0.39033479E-06 -0.58901092E-06 -0.77847579E-06
 -0.95717391E-06 -0.11236774E-05 -0.12766964E-05 -0.14150883E-05 -0.15378653E-05
 -0.16442003E-05 -0.17334315E-05 -0.18050653E-05 -0.18587777E-05 -0.18944138E-05
 -0.19119862E-05 -0.19116720E-05 -0.18938077E-05 -0.18588836E-05 -0.18075361E-05
 -0.17405396E-05 -0.16587968E-05 -0.15633280E-05 -0.14552599E-05 -0.13358132E-05
 -0.12062900E-05 -0.10680605E-05 -0.92254904E-06 -0.77122042E-06 -0.61556585E-06
 -0.45708885E-06 -0.29729139E-06 -0.13766032E-06  0.20345949E-07  0.17531010E-06
  0.32586811E-06  0.47072068E-06  0.60864384E-06  0.73849880E-06  0.85924074E-06
  0.96992664E-06  0.10697220E-05  0.11579067E-05  0.12338792E-05  0.12971602E-05
  0.13473947E-05  0.13843530E-05  0.14079308E-05  0.14181477E-05  0.14151449E-05
  0.13991820E-05  0.13706323E-05  0.13299776E-05  0.12778018E-05  0.12147839E-05
  0.11416901E-05  0.10593655E-05  0.96872458E-06  0.87074235E-06  0.76644386E-06
  0.65689428E-06  0.54318842E-06  0.42644030E-06  0.30777264E-06  0.18830647E-06
  0.69151001E-07 -0.48606333E-07 -0.16390939E-06 -0.27574241E-06 -0.38313862E-06
 -0.48518815E-06 -0.58104546E-06 -0.66993585E-06 -0.75116145E-06 -0.82410620E-06
 -0.88824012E-06 -0.94312273E-06 -0.98840554E-06 -0.10238337E-05 -0.10492468E-05
 -0.10645786E-05 -0.10698564E-05 -0.10651988E-05 -0.10508135E-05 -0.10269939E-05
 -0.99411448E-06 -0.95262685E-06 -0.90305376E-06 -0.84598340E-06 -0.78206292E-06
 -0.71199157E-06 -0.63651344E-06 -0.55640995E-06 -0.47249211E-06 -0.38559264E-06
 -0.29655798E-06 -0.20624040E-06 -0.11549006E-06 -0.25147335E-07  0.63964748E-07
  0.15104771E-06  0.23533454E-06  0.31609619E-06  0.39264762E-06  0.46435333E-06
  0.53063243E-06  0.59096301E-06  0.64488603E-06  0.69200843E-06  0.73200576E-06
  0.76462400E-06  0.78968077E-06  0.80706589E-06  0.81674121E-06  0.81873984E-06
  0.81316471E-06  0.80018656E-06  0.78004127E-06  0.75302671E-06  0.71949904E-06
  0.67986853E-06  0.63459497E-06  0.58418270E-06  0.52917528E-06  0.47014993E-06
  0.40771173E-06  0.34248764E-06  0.27512042E-06  0.20626254E-06  0.13657000E-06
  0.66696360E-07 -0.27132793E-08 -0.71028004E-07 -0.13763666E-06 -0.20195312E-06
 -0.26342129E-06 -0.32151973E-06 -0.37576588E-06 -0.42571988E-06 -0.47098798E-06
 -0.51122540E-06 -0.54613878E-06 -0.57548803E-06 -0.59908776E-06 -0.61680817E-06
 -0.62857533E-06 -0.63437106E-06 -0.63423225E-06 -0.62824969E-06 -0.61656640E-06
 -0.59937559E-06 -0.57691810E-06 -0.54947947E-06 -0.51738670E-06 -0.48100459E-06
 -0.44073188E-06 -0.39699705E-06 -0.35025397E-06 -0.30097737E-06 -0.24965820E-06
 -0.19679884E-06 -0.14290838E-06 -0.88497830E-07 -0.34075434E-07  0.19857974E-07
  0.72813426E-07  0.12431814E-06  0.17391959E-06  0.22118940E-06  0.26572686E-06
  0.30716222E-06  0.34515964E-06  0.37941974E-06  0.40968184E-06  0.43572575E-06
  0.45737324E-06  0.47448904E-06  0.48698145E-06  0.49480258E-06  0.49794811E-06
  0.49645673E-06  0.49040917E-06  0.47992683E-06  0.46517008E-06  0.44633627E-06
  0.42365734E-06  0.39739722E-06  0.36784895E-06  0.33533159E-06  0.30018688E-06
  0.26277584E-06  0.22347514E-06  0.18267345E-06  0.14076768E-06  0.98159260E-07
  0.55250350E-07  0.12440179E-07 -0.29878593E-07 -0.71323379E-07 -0.11152503E-06
 -0.15013103E-06 -0.18680851E-06 -0.22124699E-06 -0.25316094E-06 -0.28229205E-06
 -0.30841121E-06 -0.33132018E-06 -0.35085301E-06 -0.36687710E-06 -0.37929394E-06
 -0.38803956E-06 -0.39308460E-06 -0.39443413E-06 -0.39212711E-06 -0.38623558E-06
 -0.37686350E-06 -0.36414540E-06 -0.34824468E-06 -0.32935174E-06 -0.30768186E-06
 -0.28347288E-06 -0.25698267E-06 -0.22848654E-06 -0.19827445E-06 -0.16664814E-06
 -0.13391823E-06 -0.10040119E-06 -0.66416433E-07 -0.32283269E-07  0.16819737E-08
  0.35168833E-07  0.67875476E-07  0.99511355E-07  0.12979972E-06  0.15847996E-06
  0.18530980E-06  0.21006726E-06  0.23255241E-06  0.25258892E-06  0.27002537E-06
  0.28473626E-06  0.29662287E-06  0.30561376E-06  0.31166508E-06  0.31476061E-06
  0.31491149E-06  0.31215583E-06  0.30655791E-06  0.29820732E-06  0.28721773E-06
  0.27372558E-06  0.25788849E-06  0.23988354E-06  0.21990538E-06  0.19816424E-06
  0.17488373E-06  0.15029868E-06  0.12465277E-06  0.98196223E-07  0.71183414E-07
  0.43870454E-07  0.16512839E-07 -0.10636897E-07 -0.37331460E-07 -0.63330996E-07
 -0.88405199E-07 -0.11233530E-06 -0.13491591E-06 -0.15595677E-06 -0.17528423E-06
 -0.19274272E-06 -0.20819586E-06 -0.22152748E-06 -0.23264248E-06 -0.24146733E-06
 -0.24795057E-06 -0.25206291E-06 -0.25379725E-06 -0.25316846E-06 -0.25021295E-06
 -0.24498804E-06 -0.23757120E-06 -0.22805904E-06 -0.21656622E-06 -0.20322409E-06
 -0.18817936E-06 -0.17159247E-06 -0.15363602E-06 -0.13449296E-06 -0.11435481E-06
 -0.93419786E-07 -0.71890888E-07 -0.49973987E-07 -0.27875885E-07 -0.58024075E-08
  0.16043472E-07  0.37463465E-07  0.58265723E-07  0.78266526E-07  0.97291856E-07
  0.11517888E-06  0.13177731E-06  0.14695060E-06  0.16057706E-06  0.17255075E-06
  0.18278227E-06  0.19119940E-06  0.19774748E-06  0.20238977E-06  0.20510750E-06
  0.20589983E-06  0.20478366E-06  0.20179321E-06  0.19697953E-06  0.19040978E-06
  0.18216644E-06  0.17234636E-06  0.16105966E-06  0.14842858E-06  0.13458621E-06
  0.11967510E-06  0.10384588E-06  0.87255720E-07  0.70066852E-07  0.52444992E-07
  0.34557780E-07  0.16573217E-07 -0.13418833E-08 -0.19023412E-07 -0.36311441E-07
 -0.53051637E-07 -0.69096612E-07 -0.84307192E-07 -0.98553593E-07 -0.11171650E-06
 -0.12368802E-06 -0.13437257E-06 -0.14368754E-06 -0.15156397E-06 -0.15794695E-06
 -0.16279599E-06 -0.16608519E-06 -0.16780332E-06 -0.16795374E-06 -0.16655418E-06
 -0.16363641E-06 -0.15924578E-06 -0.15344061E-06 -0.14629156E-06 -0.13788074E-06
 -0.12830091E-06 -0.11765442E-06 -0.10605221E-06 -0.93612641E-07 -0.80460370E-07
 -0.66725079E-07 -0.52540249E-07 -0.38041883E-07 -0.23367227E-07 -0.86534897E-08
  0.59634102E-08  0.20350082E-07  0.34376856E-07  0.47918929E-07  0.60857454E-07
  0.73080559E-07  0.84484290E-07  0.94973472E-07  0.10446248E-06  0.11287590E-06
  0.12014912E-06  0.12622878E-06  0.13107313E-06  0.13465226E-06  0.13694826E-06
  0.13795525E-06  0.13767923E-06  0.13613796E-06  0.13336061E-06  0.12938735E-06
  0.12426891E-06  0.11806591E-06  0.11084823E-06  0.10269427E-06  0.93690111E-07
  0.83928612E-07  0.73508519E-07  0.62533465E-07  0.51110966E-07  0.39351387E-07
  0.27366895E-07  0.15270408E-07  0.31745499E-08 -0.88093808E-08 -0.20572418E-07
 -0.32008901E-07 -0.43017404E-07 -0.53501624E-07 -0.63371198E-07 -0.72542466E-07
 -0.80939164E-07 -0.88493034E-07 -0.95144361E-07 -0.10084242E-06 -0.10554583E-06
 -0.10922284E-06 -0.11185150E-06 -0.11341976E-06 -0.11392543E-06 -0.11337614E-06
 -0.11178910E-06 -0.10919089E-06 -0.10561705E-06 -0.10111170E-06 -0.95726979E-07
 -0.89522545E-07 -0.82564882E-07 -0.74926634E-07 -0.66685869E-07 -0.57925292E-07
 -0.48731437E-07 -0.39193830E-07 -0.29404127E-07 -0.19455254E-07 -0.94405348E-08
  0.54716708E-09  0.10416298E-07  0.20077437E-07  0.29444096E-07  0.38433478E-07
  0.46967195E-07  0.54971937E-07  0.62380088E-07  0.69130283E-07  0.75167897E-07
  0.80445473E-07  0.84923074E-07  0.88568565E-07  0.91357820E-07  0.93274850E-07
  0.94311863E-07  0.94469236E-07  0.93755425E-07  0.92186792E-07  0.89787366E-07
  0.86588541E-07  0.82628696E-07  0.77952771E-07  0.72611780E-07  0.66662270E-07
  0.60165745E-07  0.53188044E-07  0.45798686E-07  0.38070195E-07  0.30077396E-07
  0.21896709E-07  0.13605423E-07  0.52809805E-08 -0.29997327E-08 -0.11161091E-07
 -0.19129405E-07 -0.26833580E-07 -0.34205734E-07 -0.41181791E-07 -0.47702020E-07
 -0.53711540E-07 -0.59160767E-07 -0.64005809E-07 -0.68208810E-07 -0.71738223E-07
 -0.74569038E-07 -0.76682933E-07 -0.78068370E-07 -0.78720626E-07 -0.78641760E-07
 -0.77840522E-07 -0.76332197E-07 -0.74138391E-07 -0.71286768E-07 -0.67810726E-07
 -0.63749028E-07 -0.59145390E-07 -0.54048021E-07 -0.48509137E-07 -0.42584437E-07
 -0.36332549E-07 -0.29814469E-07 -0.23092968E-07 -0.16232000E-07 -0.92961049E-08
 -0.23498061E-08  0.45429780E-08  0.11319515E-07  0.17918819E-07  0.24282195E-07
  0.30353746E-07  0.36080859E-07  0.41414654E-07  0.46310387E-07  0.50727815E-07
  0.54631524E-07  0.57991191E-07  0.60781814E-07  0.62983882E-07  0.64583496E-07
  0.65572430E-07  0.65948153E-07  0.65713787E-07  0.64878017E-07  0.63454953E-07
  0.61463942E-07  0.58929334E-07  0.55880204E-07  0.52350040E-07  0.48376380E-07
  0.44000433E-07  0.39266657E-07  0.34222318E-07  0.28917026E-07  0.23402259E-07
  0.17730866E-07  0.11956570E-07  0.61334679E-08  0.31552917E-09 -0.54438974E-08
 -0.11092566E-07 -0.16579799E-07 -0.21856939E-07 -0.26877768E-07 -0.31598909E-07
 -0.35980192E-07 -0.39984988E-07 -0.43580506E-07 -0.46738056E-07 -0.49433265E-07
   19.8421228800787      T
 Non local Part
           0           2   1.02776980335195     
   11.8805987233866        13.6046033764996        13.6046033764996     
   15.5797554505415     
 Reciprocal Space Part
  0.18367783E+03  0.18228668E+03  0.17813564E+03  0.17129158E+03  0.16186452E+03
  0.15000560E+03  0.13590421E+03  0.11978447E+03  0.10190101E+03  0.82534314E+02
  0.61985492E+02  0.40570800E+02  0.18615895E+02 -0.35500017E+01 -0.25599941E+02
 -0.47214949E+02 -0.68089498E+02 -0.87936618E+02 -0.10649258E+03 -0.12352103E+03
 -0.13881655E+03 -0.15220749E+03 -0.16355819E+03 -0.17277036E+03 -0.17978378E+03
 -0.18457620E+03 -0.18716257E+03 -0.18759355E+03 -0.18595334E+03 -0.18235697E+03
 -0.17694709E+03 -0.16989031E+03 -0.16137318E+03 -0.15159795E+03 -0.14077822E+03
 -0.12913442E+03 -0.11688949E+03 -0.10426454E+03 -0.91474835E+02 -0.78726008E+02
 -0.66210689E+02 -0.54105513E+02 -0.42568613E+02 -0.31737605E+02 -0.21728107E+02
 -0.12632770E+02 -0.45208534E+01  0.25616974E+01  0.85916878E+01  0.13567659E+02
  0.17508468E+02  0.20451519E+02  0.22450700E+02  0.23574083E+02  0.23901460E+02
  0.23521781E+02  0.22530545E+02  0.21027219E+02  0.19112746E+02  0.16887182E+02
  0.14447514E+02  0.11885711E+02  0.92870257E+01  0.67285753E+01  0.42782242E+01
  0.19937696E+01 -0.77567206E-01 -0.18993515E+01 -0.34458632E+01 -0.47017624E+01
 -0.56615196E+01 -0.63286411E+01 -0.67147235E+01 -0.68383740E+01 -0.67240353E+01
 -0.64007504E+01 -0.59009072E+01 -0.52589957E+01 -0.45104125E+01 -0.36903394E+01
 -0.28327229E+01 -0.19693752E+01 -0.11292117E+01 -0.33763724E+00  0.38391323E+00
  0.10182785E+01  0.15527215E+01  0.19789348E+01  0.22929107E+01  0.24946917E+01
  0.25880159E+01  0.25798781E+01  0.24800242E+01  0.23004013E+01  0.20545813E+01
  0.17571807E+01  0.14232924E+01  0.10679470E+01  0.70561940E+00  0.34979155E+00
 Real Space Part
 -0.98604459E+03 -0.98555920E+03 -0.98410352E+03 -0.98167896E+03 -0.97828793E+03
 -0.97393379E+03 -0.96862086E+03 -0.96235445E+03 -0.95514087E+03 -0.94698742E+03
 -0.93790244E+03 -0.92789529E+03 -0.91697640E+03 -0.90515727E+03 -0.89245053E+03
 -0.87886992E+03 -0.86443032E+03 -0.84914782E+03 -0.83303973E+03 -0.81612459E+03
 -0.79842223E+03 -0.77995381E+03 -0.76074182E+03 -0.74081017E+03 -0.72018419E+03
 -0.69889068E+03 -0.67695795E+03 -0.65441585E+03 -0.63129584E+03 -0.60763099E+03
 -0.58345604E+03 -0.55880743E+03 -0.53372333E+03 -0.50824368E+03 -0.48241020E+03
 -0.45626641E+03 -0.42985768E+03 -0.40323118E+03 -0.37643596E+03 -0.34952286E+03
 -0.32254454E+03 -0.29555546E+03 -0.26861179E+03 -0.24177140E+03 -0.21509377E+03
 -0.18863989E+03 -0.16247217E+03 -0.13665428E+03 -0.11125102E+03 -0.86328116E+02
 -0.61952034E+02 -0.38189728E+02 -0.15108373E+02  0.72249299E+01  0.28743489E+02
  0.49381387E+02  0.69073887E+02  0.87757861E+02  0.10537226E+03  0.12185864E+03
  0.13716164E+03  0.15122960E+03  0.16401512E+03  0.17547566E+03  0.18557419E+03
  0.19427977E+03  0.20156822E+03  0.20742271E+03  0.21183437E+03  0.21480285E+03
  0.21633686E+03  0.21645464E+03  0.21518435E+03  0.21256442E+03  0.20864376E+03
  0.20348190E+03  0.19714901E+03  0.18972576E+03  0.18130312E+03  0.17198193E+03
  0.16187236E+03  0.15109327E+03  0.13977136E+03  0.12804024E+03  0.11603928E+03
  0.10391251E+03  0.91807174E+02  0.79872498E+02  0.68258115E+02  0.57112642E+02
  0.46582157E+02  0.36808697E+02  0.27928811E+02  0.20072156E+02  0.13360139E+02
  0.79049148E+01  0.38081036E+01  0.11542301E+01  0.50105581E-01  0.00000000E+00
 Reciprocal Space Part
 -0.15516979E+03 -0.15396780E+03 -0.15038127E+03 -0.14446813E+03 -0.13632375E+03
 -0.12607910E+03 -0.11389829E+03 -0.99975533E+02 -0.84531479E+02 -0.67809138E+02
 -0.50069389E+02 -0.31586205E+02 -0.12641674E+02  0.64790645E+01  0.25492883E+02
  0.44123612E+02  0.62106778E+02  0.79194046E+02  0.95157269E+02  0.10979208E+03
  0.12292097E+03  0.13439574E+03  0.14409943E+03  0.15194750E+03  0.15788844E+03
  0.16190369E+03  0.16400692E+03  0.16424277E+03  0.16268495E+03  0.15943391E+03
  0.15461399E+03  0.14837027E+03  0.14086509E+03  0.13227436E+03  0.12278375E+03
  0.11258483E+03  0.10187123E+03  0.90834975E+02  0.79662911E+02  0.68533484E+02
  0.57613778E+02  0.47056936E+02  0.36999987E+02  0.27562104E+02  0.18843316E+02
  0.10923683E+02  0.38629249E+01 -0.22995008E+01 -0.75439032E+01 -0.11869471E+02
 -0.15293034E+02 -0.17847521E+02 -0.19580161E+02 -0.20550486E+02 -0.20828180E+02
 -0.20490857E+02 -0.19621786E+02 -0.18307654E+02 -0.16636395E+02 -0.14695135E+02
 -0.12568305E+02 -0.10335940E+02 -0.80722068E+01 -0.58441773E+01 -0.37108545E+01
 -0.17224699E+01  0.79956465E-01  0.16647959E+01  0.30097456E+01  0.41015353E+01
  0.49354291E+01  0.55145492E+01  0.58490524E+01  0.59551886E+01  0.58542777E+01
  0.55716347E+01  0.51354762E+01  0.45758400E+01  0.39235441E+01  0.32092123E+01
  0.24623862E+01  0.17107441E+01  0.97943840E+00  0.29056217E+00 -0.33724939E+00
 -0.88908229E+00 -0.13538739E+01 -0.17244167E+01 -0.19972445E+01 -0.21724146E+01
 -0.22531988E+01 -0.22457007E+01 -0.21584157E+01 -0.20017519E+01 -0.17875289E+01
 -0.15284724E+01 -0.12377198E+01 -0.92835237E+00 -0.61296509E+00 -0.30328701E+00
 Real Space Part
  0.86477843E+03  0.86435419E+03  0.86308189E+03  0.86096278E+03  0.85799896E+03
  0.85419334E+03  0.84954972E+03  0.84407274E+03  0.83776789E+03  0.83064157E+03
  0.82270104E+03  0.81395450E+03  0.80441105E+03  0.79408073E+03  0.78297458E+03
  0.77110458E+03  0.75848375E+03  0.74512613E+03  0.73104683E+03  0.71626204E+03
  0.70078909E+03  0.68464644E+03  0.66785373E+03  0.65043185E+03  0.63240289E+03
  0.61379025E+03  0.59461866E+03  0.57491417E+03  0.55470424E+03  0.53401774E+03
  0.51288499E+03  0.49133779E+03  0.46940947E+03  0.44713486E+03  0.42455039E+03
  0.40169405E+03  0.37860541E+03  0.35532565E+03  0.33189756E+03  0.30836551E+03
  0.28477546E+03  0.26117491E+03  0.23761290E+03  0.21413991E+03  0.19080785E+03
  0.16766992E+03  0.14478060E+03  0.12219543E+03  0.99970952E+02  0.78164533E+02
  0.56834165E+02  0.36038275E+02  0.15835484E+02 -0.37156467E+01 -0.22556912E+02
 -0.40630781E+02 -0.57880743E+02 -0.74251692E+02 -0.89690333E+02 -0.10414562E+03
 -0.11756922E+03 -0.12991601E+03 -0.14114457E+03 -0.15121771E+03 -0.16010305E+03
 -0.16777352E+03 -0.17420791E+03 -0.17939144E+03 -0.18331627E+03 -0.18598197E+03
 -0.18739599E+03 -0.18757412E+03 -0.18654077E+03 -0.18432931E+03 -0.18098222E+03
 -0.17655129E+03 -0.17109754E+03 -0.16469116E+03 -0.15741133E+03 -0.14934581E+03
 -0.14059053E+03 -0.13124898E+03 -0.12143150E+03 -0.11125445E+03 -0.10083924E+03
 -0.90311330E+02 -0.79799014E+02 -0.69432302E+02 -0.59341588E+02 -0.49656389E+02
 -0.40504018E+02 -0.32008287E+02 -0.24288233E+02 -0.17456900E+02 -0.11620158E+02
 -0.68758220E+01 -0.33125398E+01 -0.10040807E+01 -0.43583489E-01  0.00000000E+00
 Non local Part
           1           2   1.02776980335195     
   3.74036184108789        5.14825221701695        5.14825221701695     
   7.10188250728847     
 Reciprocal Space Part
  0.00000000E+00  0.47959264E+01  0.94787973E+01  0.13937909E+02  0.18067209E+02
  0.21767493E+02  0.24948455E+02  0.27530537E+02  0.29446547E+02  0.30643011E+02
  0.31081218E+02  0.30737954E+02  0.29605902E+02  0.27693699E+02  0.25025657E+02
  0.21641152E+02  0.17593707E+02  0.12949777E+02  0.77872811E+01  0.21939027E+01
 -0.37347864E+01 -0.98973503E+01 -0.16188605E+02 -0.22501782E+02 -0.28730692E+02
 -0.34771839E+02 -0.40526441E+02 -0.45902318E+02 -0.50815597E+02 -0.55192219E+02
 -0.58969196E+02 -0.62095618E+02 -0.64533382E+02 -0.66257625E+02 -0.67256885E+02
 -0.67532961E+02 -0.67100507E+02 -0.65986370E+02 -0.64228681E+02 -0.61875747E+02
 -0.58984758E+02 -0.55620351E+02 -0.51853065E+02 -0.47757725E+02 -0.43411792E+02
 -0.38893727E+02 -0.34281383E+02 -0.29650482E+02 -0.25073205E+02 -0.20616902E+02
 -0.16342975E+02 -0.12305935E+02 -0.85526466E+01 -0.51217825E+01 -0.20434739E+01
  0.66082777E+00  0.29782950E+01  0.49044792E+01  0.64428929E+01  0.76044369E+01
  0.84066933E+01  0.88731076E+01  0.90320849E+01  0.89160266E+01  0.85603325E+01
  0.80023954E+01  0.72806116E+01  0.64334317E+01  0.54984714E+01  0.45117002E+01
  0.35067261E+01  0.25141842E+01  0.15612421E+01  0.67122480E+00 -0.13663774E+00
 -0.84734199E+00 -0.14501253E+01 -0.19383709E+01 -0.23094127E+01 -0.25642521E+01
 -0.27071992E+01 -0.27454544E+01 -0.26886445E+01 -0.25483289E+01 -0.23374927E+01
 -0.20700399E+01 -0.17603015E+01 -0.14225710E+01 -0.10706787E+01 -0.71761309E+00
 -0.37519810E+00 -0.53830206E-01  0.23772056E+00  0.49244481E+00  0.70516389E+00
  0.87253852E+00  0.99302011E+00  0.10667505E+01  0.10954167E+01  0.10820686E+01
 Real Space Part
  0.00000000E+00 -0.14773620E+02 -0.29504012E+02 -0.44148064E+02 -0.58662887E+02
 -0.73005935E+02 -0.87135112E+02 -0.10100889E+03 -0.11458641E+03 -0.12782761E+03
 -0.14069331E+03 -0.15314536E+03 -0.16514671E+03 -0.17666152E+03 -0.18765531E+03
 -0.19809499E+03 -0.20794905E+03 -0.21718757E+03 -0.22578241E+03 -0.23370722E+03
 -0.24093761E+03 -0.24745120E+03 -0.25322772E+03 -0.25824911E+03 -0.26249959E+03
 -0.26596575E+03 -0.26863664E+03 -0.27050382E+03 -0.27156148E+03 -0.27180644E+03
 -0.27123829E+03 -0.26985939E+03 -0.26767496E+03 -0.26469312E+03 -0.26092494E+03
 -0.25638446E+03 -0.25108873E+03 -0.24505784E+03 -0.23831492E+03 -0.23088616E+03
 -0.22280077E+03 -0.21409102E+03 -0.20479213E+03 -0.19494231E+03 -0.18458264E+03
 -0.17375701E+03 -0.16251204E+03 -0.15089695E+03 -0.13896343E+03 -0.12676550E+03
 -0.11435932E+03 -0.10180298E+03 -0.89156272E+02 -0.76480457E+02 -0.63837951E+02
 -0.51292020E+02 -0.38906444E+02 -0.26745131E+02 -0.14871719E+02 -0.33491466E+01
  0.77608153E+01  0.18398045E+02  0.28504584E+02  0.38025162E+02  0.46907750E+02
  0.55104110E+02  0.62570366E+02  0.69267555E+02  0.75162185E+02  0.80226765E+02
  0.84440309E+02  0.87788809E+02  0.90265653E+02  0.91871984E+02  0.92616996E+02
  0.92518158E+02  0.91601327E+02  0.89900771E+02  0.87459124E+02  0.84327150E+02
  0.80563474E+02  0.76234154E+02  0.71412113E+02  0.66176534E+02  0.60612039E+02
  0.54807883E+02  0.48856943E+02  0.42854743E+02  0.36898318E+02  0.31085109E+02
  0.25511797E+02  0.20273132E+02  0.15460800E+02  0.11162301E+02  0.74598806E+01
  0.44296287E+01  0.21405098E+01  0.65103605E+00  0.24478301E-01  0.00000000E+00
 Reciprocal Space Part
  0.00000000E+00 -0.32959993E+01 -0.65108327E+01 -0.95650392E+01 -0.12382530E+02
 -0.14892180E+02 -0.17029313E+02 -0.18737042E+02 -0.19967441E+02 -0.20682518E+02
 -0.20854973E+02 -0.20468725E+02 -0.19519194E+02 -0.18013337E+02 -0.15969442E+02
 -0.13416673E+02 -0.10394401E+02 -0.69513115E+01 -0.31443350E+01  0.96259400E+00
  0.52999060E+01  0.97938701E+01  0.14368135E+02  0.18945301E+02  0.23448498E+02
  0.27802913E+02  0.31937265E+02  0.35785167E+02  0.39286363E+02  0.42387814E+02
  0.45044611E+02  0.47220688E+02  0.48889347E+02  0.50033563E+02  0.50646085E+02
  0.50729324E+02  0.50295045E+02  0.49363869E+02  0.47964603E+02  0.46133420E+02
  0.43912906E+02  0.41351006E+02  0.38499885E+02  0.35414752E+02  0.32152643E+02
  0.28771228E+02  0.25327640E+02  0.21877359E+02  0.18473184E+02  0.15164300E+02
  0.11995462E+02  0.90063155E+01  0.62308486E+01  0.36970026E+01  0.14264260E+01
 -0.56561927E+00 -0.22702077E+01 -0.36845619E+01 -0.48117386E+01 -0.56602014E+01
 -0.62432953E+01 -0.65786419E+01 -0.66874712E+01 -0.65939116E+01 -0.63242545E+01
 -0.59062152E+01 -0.53682061E+01 -0.47386395E+01 -0.40452758E+01 -0.33146305E+01
 -0.25714498E+01 -0.18382658E+01 -0.11350353E+01 -0.47886880E+00  0.11615214E+00
  0.63906713E+00  0.10820441E+01  0.14403059E+01  0.17119835E+01  0.18979047E+01
  0.20013281E+01  0.20276324E+01  0.19839743E+01  0.18789235E+01  0.17220886E+01
  0.15237444E+01  0.12944694E+01  0.10448044E+01  0.78493958E+00  0.52443680E+00
  0.27199295E+00  0.35247562E-01 -0.17936245E+00 -0.36670036E+00 -0.52298000E+00
 -0.64577090E+00 -0.73396136E+00 -0.78768363E+00 -0.80820610E+00 -0.79779839E+00
 Real Space Part
  0.00000000E+00  0.11109148E+02  0.22186010E+02  0.33198385E+02  0.44114240E+02
  0.54901797E+02  0.65529612E+02  0.75966664E+02  0.86182436E+02  0.96146995E+02
  0.10583108E+03  0.11520617E+03  0.12424460E+03  0.13291958E+03  0.14120534E+03
  0.14907715E+03  0.15651144E+03  0.16348586E+03  0.16997934E+03  0.17597218E+03
  0.18144613E+03  0.18638442E+03  0.19077187E+03  0.19459495E+03  0.19784180E+03
  0.20050236E+03  0.20256837E+03  0.20403347E+03  0.20489322E+03  0.20514518E+03
  0.20478894E+03  0.20382617E+03  0.20226066E+03  0.20009836E+03  0.19734742E+03
  0.19401819E+03  0.19012329E+03  0.18567756E+03  0.18069815E+03  0.17520444E+03
  0.16921810E+03  0.16276304E+03  0.15586542E+03  0.14855357E+03  0.14085798E+03
  0.13281125E+03  0.12444800E+03  0.11580478E+03  0.10691999E+03  0.97833780E+02
  0.88587875E+02  0.79225461E+02  0.69790995E+02  0.60330026E+02  0.50888978E+02
  0.41514918E+02  0.32255306E+02  0.23157711E+02  0.14269515E+02  0.56375941E+01
 -0.26920256E+01 -0.10674528E+02 -0.18266685E+02 -0.25427249E+02 -0.32117361E+02
 -0.38300959E+02 -0.43945199E+02 -0.49020872E+02 -0.53502807E+02 -0.57370273E+02
 -0.60607351E+02 -0.63203287E+02 -0.65152801E+02 -0.66456355E+02 -0.67120379E+02
 -0.67157432E+02 -0.66586292E+02 -0.65431977E+02 -0.63725709E+02 -0.61504748E+02
 -0.58812189E+02 -0.55696653E+02 -0.52211866E+02 -0.48416215E+02 -0.44372138E+02
 -0.40145538E+02 -0.35805024E+02 -0.31421203E+02 -0.27065831E+02 -0.22811001E+02
 -0.18728276E+02 -0.14887826E+02 -0.11357585E+02 -0.82024251E+01 -0.54833584E+01
 -0.32568727E+01 -0.15742093E+01 -0.47891348E+00 -0.17998452E-01  0.00000000E+00
 PAW radial sets
         375  0.969806103663617     
(5E20.12)                                
 augmentation charges (non sperical)
 -0.318674216239E+00 -0.366431816410E+00 -0.142540383087E+00 -0.194025298181E+00 -0.366431816410E+00
 -0.421360529380E+00 -0.163523735130E+00 -0.222613464736E+00 -0.142540383087E+00 -0.163523735130E+00
 -0.518289995658E-01 -0.693499238774E-01 -0.194025298181E+00 -0.222613464736E+00 -0.693499238774E-01
 -0.927982218667E-01
 uccopancies in atom
  0.200000000063E+01  0.000000000000E+00  0.000000000000E+00  0.000000000000E+00  0.000000000000E+00
  0.000000000000E+00  0.000000000000E+00  0.000000000000E+00  0.000000000000E+00  0.000000000000E+00
  0.133333333263E+01  0.000000000000E+00  0.000000000000E+00  0.000000000000E+00  0.000000000000E+00
  0.000000000000E+00
 grid
  0.369236193613E-04  0.381242833498E-04  0.393639899359E-04  0.406440086874E-04  0.419656504555E-04
  0.433302687169E-04  0.447392609597E-04  0.461940701153E-04  0.476961860354E-04  0.492471470178E-04
  0.508485413822E-04  0.525020090964E-04  0.542092434557E-04  0.559719928174E-04  0.577920623907E-04
  0.596713160861E-04  0.616116784235E-04  0.636151365035E-04  0.656837420423E-04  0.678196134726E-04
  0.700249381135E-04  0.723019744101E-04  0.746530542465E-04  0.770805853340E-04  0.795870536765E-04
  0.821750261167E-04  0.848471529644E-04  0.876061707110E-04  0.904549048319E-04  0.933962726796E-04
  0.964332864719E-04  0.995690563764E-04  0.102806793695E-03  0.106149814155E-03  0.109601541300E-03
  0.113165510000E-03  0.116845370072E-03  0.120644890013E-03  0.124567960864E-03  0.128618600193E-03
  0.132800956207E-03  0.137119312005E-03  0.141578089960E-03  0.146181856252E-03  0.150935325538E-03
  0.155843365787E-03  0.160911003260E-03  0.166143427663E-03  0.171545997453E-03  0.177124245335E-03
  0.182883883923E-03  0.188830811588E-03  0.194971118506E-03  0.201311092886E-03  0.207857227417E-03
  0.214616225912E-03  0.221595010177E-03  0.228800727096E-03  0.236240755953E-03  0.243922715988E-03
  0.251854474199E-03  0.260044153400E-03  0.268500140538E-03  0.277231095282E-03  0.286245958894E-03
  0.295553963381E-03  0.305164640953E-03  0.315087833784E-03  0.325333704091E-03  0.335912744540E-03
  0.346835788992E-03  0.358114023601E-03  0.369758998263E-03  0.381782638451E-03  0.394197257422E-03
  0.407015568831E-03  0.420250699750E-03  0.433916204109E-03  0.448026076578E-03  0.462594766900E-03
  0.477637194687E-03  0.493168764699E-03  0.509205382621E-03  0.525763471352E-03  0.542859987821E-03
  0.560512440355E-03  0.578738906608E-03  0.597558052073E-03  0.616989149202E-03  0.637052097134E-03
  0.657767442082E-03  0.679156398370E-03  0.701240870157E-03  0.724043473872E-03  0.747587561375E-03
  0.771897243868E-03  0.796997416591E-03  0.822913784313E-03  0.849672887660E-03  0.877302130292E-03
  0.905829806968E-03  0.935285132521E-03  0.965698271780E-03  0.997100370456E-03  0.102952358704E-02
  0.106300112575E-02  0.109756727049E-02  0.113325742003E-02  0.117010812420E-02  0.120815712134E-02
  0.124744337694E-02  0.128800712357E-02  0.132988990204E-02  0.137313460398E-02  0.141778551575E-02
  0.146388836378E-02  0.151149036142E-02  0.156064025727E-02  0.161138838511E-02  0.166378671547E-02
  0.171788890882E-02  0.177375037053E-02  0.183142830761E-02  0.189098178732E-02  0.195247179762E-02
  0.201596130966E-02  0.208151534224E-02  0.214920102842E-02  0.221908768426E-02  0.229124687981E-02
  0.236575251238E-02  0.244268088225E-02  0.252211077080E-02  0.260412352117E-02  0.268880312158E-02
  0.277623629135E-02  0.286651256969E-02  0.295972440738E-02  0.305596726150E-02  0.315533969313E-02
  0.325794346835E-02  0.336388366236E-02  0.347326876720E-02  0.358621080276E-02  0.370282543157E-02
  0.382323207718E-02  0.394755404653E-02  0.407591865618E-02  0.420845736271E-02  0.434530589733E-02
  0.448660440490E-02  0.463249758743E-02  0.478313485231E-02  0.493867046524E-02  0.509926370830E-02
  0.526507904298E-02  0.543628627870E-02  0.561306074660E-02  0.579558347921E-02  0.598404139574E-02
  0.617862749357E-02  0.637954104587E-02  0.658698780568E-02  0.680118021659E-02  0.702233763037E-02
  0.725068653152E-02  0.748646076927E-02  0.772990179705E-02  0.798125891975E-02  0.824078954901E-02
  0.850875946689E-02  0.878544309799E-02  0.907112379054E-02  0.936609410652E-02  0.967065612132E-02
  0.998512173305E-02  0.103098129820E-01  0.106450623803E-01  0.109912132527E-01  0.113486200880E-01
  0.117176489019E-01  0.120986776122E-01  0.124920964257E-01  0.128983082375E-01  0.133177290440E-01
  0.137507883689E-01  0.141979297026E-01  0.146596109570E-01  0.151363049341E-01  0.156284998101E-01
  0.161366996356E-01  0.166614248516E-01  0.172032128226E-01  0.177626183868E-01  0.183402144244E-01
  0.189365924443E-01  0.195523631895E-01  0.201881572633E-01  0.208446257742E-01  0.215224410034E-01
  0.222222970929E-01  0.229449107565E-01  0.236910220137E-01  0.244613949478E-01  0.252568184877E-01
  0.260781072169E-01  0.269261022067E-01  0.278016718780E-01  0.287057128908E-01  0.296391510620E-01
  0.306029423139E-01  0.315980736530E-01  0.326255641806E-01  0.336864661369E-01  0.347818659783E-01
  0.359128854897E-01  0.370806829342E-01  0.382864542382E-01  0.395314342170E-01  0.408168978389E-01
  0.421441615309E-01  0.435145845270E-01  0.449295702603E-01  0.463905677995E-01  0.478990733341E-01
  0.494566317053E-01  0.510648379892E-01  0.527253391294E-01  0.544398356243E-01  0.562100832680E-01
  0.580378949488E-01  0.599251425057E-01  0.618737586451E-01  0.638857389201E-01  0.659631437743E-01
  0.681081006519E-01  0.703228061762E-01  0.726095283991E-01  0.749706091240E-01  0.774084663040E-01
  0.799255965177E-01  0.825245775264E-01  0.852080709140E-01  0.879788248119E-01  0.908396767145E-01
  0.937935563840E-01  0.968434888513E-01  0.999925975138E-01  0.103244107334E+00  0.106601348142E+00
  0.110067758046E+00  0.113646886952E+00  0.117342400201E+00  0.121158082322E+00  0.125097840907E+00
  0.129165710612E+00  0.133365857292E+00  0.137702582264E+00  0.142180326714E+00  0.146803676242E+00
  0.151577365563E+00  0.156506283352E+00  0.161595477251E+00  0.166850159040E+00  0.172275709971E+00
  0.177877686284E+00  0.183661824892E+00  0.189634049257E+00  0.195800475460E+00  0.202167418459E+00
  0.208741398561E+00  0.215529148097E+00  0.222537618313E+00  0.229773986497E+00  0.237245663322E+00
  0.244960300438E+00  0.252925798307E+00  0.261150314295E+00  0.269642271026E+00  0.278410365004E+00
  0.287463575525E+00  0.296811173867E+00  0.306462732788E+00  0.316428136328E+00  0.326717589929E+00
  0.337341630893E+00  0.348311139165E+00  0.359637348481E+00  0.371331857868E+00  0.383406643526E+00
  0.395874071091E+00  0.408746908298E+00  0.422038338057E+00  0.435761971954E+00  0.449931864189E+00
  0.464562525969E+00  0.479668940372E+00  0.495266577685E+00  0.511371411253E+00  0.527999933831E+00
  0.545169174480E+00  0.562896716004E+00  0.581200712952E+00  0.600099910219E+00  0.619613662233E+00
  0.639761952782E+00  0.660565415476E+00  0.682045354878E+00  0.704223768324E+00  0.727123368446E+00
  0.750767606437E+00  0.775180696062E+00  0.800387638459E+00  0.826414247738E+00  0.853287177424E+00
  0.881033947742E+00  0.909682973812E+00  0.939263594739E+00  0.969806103664E+00  0.100134177878E+01
  0.103390291539E+01  0.106752285892E+01  0.110223603915E+01  0.113807800540E+01  0.117508546298E+01
  0.121329631076E+01  0.125274967998E+01  0.129348597434E+01  0.133554691138E+01  0.137897556515E+01
  0.142381641041E+01  0.147011536809E+01  0.151791985237E+01  0.156727881922E+01  0.161824281654E+01
  0.167086403591E+01  0.172519636606E+01  0.178129544805E+01  0.183921873223E+01  0.189902553711E+01
  0.196077711009E+01  0.202453669017E+01  0.209036957273E+01  0.215834317641E+01  0.222852711209E+01
  0.230099325428E+01  0.237581581464E+01  0.245307141799E+01  0.253283918084E+01  0.261520079234E+01
  0.270024059798E+01  0.278804568595E+01  0.287870597634E+01  0.297231431319E+01  0.306896655964E+01
  0.316876169602E+01  0.327180192129E+01  0.337819275762E+01  0.348804315854E+01  0.360146562045E+01
  0.371857629787E+01  0.383949512236E+01  0.396434592537E+01  0.409325656503E+01  0.422635905710E+01
  0.436378971016E+01  0.450568926521E+01  0.465220303980E+01  0.480348107682E+01  0.495967829822E+01
  0.512095466359E+01  0.528747533404E+01  0.545941084126E+01  0.563693726225E+01  0.582023639958E+01
 aepotential
  0.224582616114E+05  0.223544190646E+05  0.222109534541E+05  0.220288330229E+05  0.218094146781E+05
  0.215542019430E+05  0.212651470836E+05  0.209441434095E+05  0.205935030330E+05  0.202155686830E+05
  0.198127946722E+05  0.193878411044E+05  0.189432621271E+05  0.184817375804E+05  0.180059238210E+05
  0.175184529507E+05  0.170218449932E+05  0.165186113663E+05  0.160111158128E+05  0.155015938210E+05
  0.149921594028E+05  0.144848033554E+05  0.139813033483E+05  0.134833263185E+05  0.129923496540E+05
  0.125096891458E+05  0.120365046881E+05  0.115737891692E+05  0.111223877394E+05  0.106829992007E+05
  0.102561814750E+05  0.984236918122E+04  0.944187450461E+04  0.905490294140E+04  0.868156132149E+04
  0.832186852097E+04  0.797576539789E+04  0.764312443447E+04  0.732375897666E+04  0.701743192251E+04
  0.672386344142E+04  0.644273943381E+04  0.617371729275E+04  0.591643257351E+04  0.567050446145E+04
  0.543554074645E+04  0.521114237226E+04  0.499690623490E+04  0.479243119771E+04  0.459731580569E+04
  0.441116584915E+04  0.423359416998E+04  0.406422102063E+04  0.390267801687E+04  0.374860541199E+04
  0.360165791732E+04  0.346150037920E+04  0.332781051355E+04  0.320027922507E+04  0.307860921552E+04
  0.296251715286E+04  0.285173131282E+04  0.274599157757E+04  0.264505217145E+04  0.254867626965E+04
  0.245664112929E+04  0.236873130397E+04  0.228474714910E+04  0.220449274556E+04  0.212778613414E+04
  0.205445746675E+04  0.198433555515E+04  0.191726924706E+04  0.185310751161E+04  0.179171196744E+04
  0.173294637319E+04  0.167668743870E+04  0.162281213235E+04  0.157120921922E+04  0.152177000784E+04
  0.147439121513E+04  0.142897804432E+04  0.138543674456E+04  0.134368049331E+04  0.130362653916E+04
  0.126519642417E+04  0.122831510569E+04  0.119291245486E+04  0.115892042157E+04  0.112627573063E+04
  0.109491729446E+04  0.106478770604E+04  0.103583202109E+04  0.100799805089E+04  0.981236393900E+03
  0.955499708361E+03  0.930743379391E+03  0.906924483825E+03  0.884002460603E+03  0.861938666783E+03
  0.840696095606E+03  0.820239696410E+03  0.800536068637E+03  0.781552922370E+03  0.763260288480E+03
  0.745628812120E+03  0.728630843653E+03  0.712240005281E+03  0.696430795620E+03  0.681179309890E+03
  0.666462469975E+03  0.652258042018E+03  0.638545150035E+03  0.625303558355E+03  0.612513977096E+03
  0.600157983982E+03  0.588217866536E+03  0.576676751447E+03  0.565518401924E+03  0.554727254546E+03
  0.544288495101E+03  0.534187750938E+03  0.524411393213E+03  0.514946240367E+03  0.505779658568E+03
  0.496899536973E+03  0.488294233228E+03  0.479952546030E+03  0.471863716026E+03  0.464017378110E+03
  0.456403588141E+03  0.449012744120E+03  0.441835622538E+03  0.434863316131E+03  0.428087266090E+03
  0.421499198185E+03  0.415091142360E+03  0.408855407099E+03  0.402784560134E+03  0.396871438862E+03
  0.391109105954E+03  0.385490855254E+03  0.380010237724E+03  0.374660950796E+03  0.369436948380E+03
  0.364332342472E+03  0.359341472056E+03  0.354458779305E+03  0.349678944248E+03  0.344996782182E+03
  0.340407235135E+03  0.335905424277E+03  0.331486607996E+03  0.327146162810E+03  0.322879599404E+03
  0.318682561487E+03  0.314550795664E+03  0.310480173991E+03  0.306466669440E+03  0.302506361140E+03
  0.298595430347E+03  0.294730154072E+03  0.290906902291E+03  0.287122134879E+03  0.283372398553E+03
  0.279654326883E+03  0.275964632067E+03  0.272300107673E+03  0.268657624772E+03  0.265034129621E+03
  0.261426642495E+03  0.257832257890E+03  0.254248139858E+03  0.250671525339E+03  0.247099719855E+03
  0.243530098461E+03  0.239960107170E+03  0.236387257970E+03  0.232809136473E+03  0.229223394745E+03
  0.225627756442E+03  0.222020017216E+03  0.218398044562E+03  0.214759779768E+03  0.211103240179E+03
  0.207426519626E+03  0.203727792193E+03  0.200005313868E+03  0.196257424351E+03  0.192482552570E+03
  0.188679215786E+03  0.184846029355E+03  0.180981703072E+03  0.177085055860E+03  0.173155006834E+03
  0.169190595851E+03  0.165190975346E+03  0.161155428955E+03  0.157083368579E+03  0.152974348750E+03
  0.148828071265E+03  0.144644397185E+03  0.140423355348E+03  0.136165155596E+03  0.131870199141E+03
  0.127539095665E+03  0.123172677031E+03  0.118772014982E+03  0.114338441749E+03  0.109873569304E+03
  0.105379314949E+03  0.100857925142E+03  0.963120034373E+02  0.917445403931E+02  0.871589424277E+02
  0.825590642624E+02  0.779492376525E+02  0.733342989244E+02  0.687196113494E+02  0.641110783736E+02
  0.595151443148E+02  0.549387765535E+02  0.503894230776E+02  0.458749368207E+02  0.414034597111E+02
  0.369832569596E+02  0.326224958483E+02  0.283289648877E+02  0.241097365571E+02  0.199707893577E+02
  0.159166194813E+02  0.119499023744E+02  0.807129369114E+01  0.427950562784E+01  0.571831311462E+00
 -0.305468611876E+01 -0.660127275255E+01 -0.100645826083E+02 -0.134332264910E+02 -0.166842972594E+02
 -0.197809918165E+02 -0.226727239958E+02 -0.252989405321E+02 -0.275970053750E+02 -0.295131676630E+02
 -0.310143032654E+02 -0.320974363457E+02 -0.327942250862E+02 -0.331684612348E+02 -0.333063187673E+02
 -0.333014213572E+02 -0.332393191961E+02 -0.331864678945E+02 -0.331865985968E+02 -0.332636604584E+02
 -0.334280093386E+02 -0.336825851753E+02 -0.340272348436E+02 -0.344609435654E+02 -0.349825570793E+02
 -0.355907399910E+02 -0.362837258388E+02 -0.370591427385E+02 -0.379139910040E+02 -0.388447539766E+02
 -0.398475604606E+02 -0.409183642677E+02 -0.420530910988E+02 -0.432477367348E+02 -0.444984239967E+02
 -0.458014159526E+02 -0.471530921289E+02 -0.485499003435E+02 -0.499882801428E+02 -0.514645670080E+02
 -0.529748650751E+02 -0.545149070204E+02 -0.560798676397E+02 -0.576641662011E+02 -0.592612372839E+02
 -0.608632942800E+02 -0.624611173392E+02 -0.640439140374E+02 -0.655993263597E+02 -0.671136856798E+02
 -0.685726214375E+02 -0.699621271717E+02 -0.712701499084E+02 -0.724887089918E+02 -0.736164653102E+02
 -0.746615022762E+02 -0.756436320889E+02 -0.765943839749E+02 -0.775504776150E+02 -0.785341380356E+02
 -0.795167503408E+02 -0.803813762687E+02 -0.809309058204E+02 -0.809848485211E+02 -0.805190617613E+02
 -0.797071390466E+02 -0.787954527025E+02 -0.779444219109E+02 -0.771893397384E+02 -0.764977343901E+02
 -0.758270218216E+02 -0.751477317405E+02 -0.744449636076E+02 -0.737134003152E+02 -0.729524449789E+02
 -0.721630227330E+02 -0.713459458997E+02 -0.705013788410E+02 -0.696289047432E+02 -0.687278451668E+02
 -0.677975998939E+02 -0.668379042338E+02 -0.658489880783E+02 -0.648316404488E+02 -0.637872000016E+02
 -0.627175111457E+02 -0.616248536121E+02 -0.605118426399E+02 -0.593813475130E+02 -0.582363836067E+02
 -0.570800206782E+02 -0.559152807772E+02 -0.547450439947E+02 -0.535719579690E+02 -0.523983575470E+02
 -0.512262050831E+02 -0.500570571623E+02 -0.488920707462E+02 -0.477320515963E+02 -0.465775470395E+02
 -0.454289717238E+02 -0.442867565661E+02 -0.431514904256E+02 -0.420240432557E+02 -0.409056484073E+02
 -0.397979364418E+02 -0.387029182111E+02 -0.376229213286E+02 -0.365604879790E+02 -0.355182438545E+02
 -0.344987490102E+02 -0.335043424964E+02 -0.325369942471E+02 -0.315981792659E+02 -0.306887891857E+02
 -0.298090934988E+02 -0.289587564451E+02 -0.281369068425E+02 -0.273422493442E+02 -0.265731994166E+02
 -0.258280224530E+02 -0.251049599311E+02 -0.244023309660E+02 -0.237186039917E+02 -0.230524388733E+02
 -0.224027035576E+02 -0.217684712425E+02 -0.211490043405E+02 -0.205437308028E+02 -0.199522171818E+02
 -0.193741415380E+02 -0.188092681622E+02 -0.182574251896E+02 -0.177184855405E+02 -0.171923512016E+02
 -0.166789406120E+02 -0.161781787992E+02 -0.156899898630E+02 -0.152142914193E+02 -0.147509906477E+02
 core charge-density
  0.952520675380E-04  0.101495375248E-03  0.108147643672E-03  0.115235635011E-03  0.122787860180E-03
  0.130834692828E-03  0.139408490756E-03  0.148543725228E-03  0.158277118668E-03  0.168647791305E-03
  0.179697417332E-03  0.191470391185E-03  0.204014004613E-03  0.217378635221E-03  0.231617947218E-03
  0.246789105182E-03  0.262953001643E-03  0.280174499401E-03  0.298522689509E-03  0.318071165933E-03
  0.338898317948E-03  0.361087641421E-03  0.384728070181E-03  0.409914328749E-03  0.436747307821E-03
  0.465334463929E-03  0.495790244829E-03  0.528236542266E-03  0.562803173847E-03  0.599628395867E-03
  0.638859449077E-03  0.680653139449E-03  0.725176456192E-03  0.772607229346E-03  0.823134829469E-03
  0.876960912081E-03  0.934300209665E-03  0.995381374242E-03  0.106044787368E-02  0.112975894511E-02
  0.120359060908E-02  0.128223674811E-02  0.136601025386E-02  0.145524424705E-02  0.155029337467E-02
  0.165153518935E-02  0.175937161598E-02  0.187423051085E-02  0.199656731919E-02  0.212686683710E-02
  0.226564508427E-02  0.241345129428E-02  0.257087002977E-02  0.273852342997E-02  0.291707359869E-02
  0.310722514141E-02  0.330972786029E-02  0.352537961679E-02  0.375502937195E-02  0.399958041493E-02
  0.425999379115E-02  0.453729194181E-02  0.483256256745E-02  0.514696272878E-02  0.548172319859E-02
  0.583815307975E-02  0.621764470456E-02  0.662167883209E-02  0.705183016035E-02  0.750977317196E-02
  0.799728833200E-02  0.851626865797E-02  0.906872668391E-02  0.965680183935E-02  0.102827682678E-01
  0.109490431082E-01  0.116581952654E-01  0.124129546964E-01  0.132162222402E-01  0.140710800213E-01
  0.149808024560E-01  0.159488678961E-01  0.169789709402E-01  0.180750354507E-01  0.192412283102E-01
  0.204819739569E-01  0.218019697359E-01  0.232062021106E-01  0.246999637722E-01  0.262888716940E-01
  0.279788861739E-01  0.297763309116E-01  0.316879141687E-01  0.337207510600E-01  0.358823870270E-01
  0.381808225430E-01  0.406245391049E-01  0.432225265610E-01  0.459843118320E-01  0.489199890771E-01
  0.520402513593E-01  0.553564238661E-01  0.588804987372E-01  0.626251715536E-01  0.666038795407E-01
  0.708308415327E-01  0.753210997515E-01  0.800905634417E-01  0.851560544051E-01  0.905353544751E-01
  0.962472549616E-01  0.102311608095E+00  0.108749380494E+00  0.115582708662E+00  0.122834956528E+00
  0.130530775019E+00  0.138696163641E+00  0.147358534053E+00  0.156546775577E+00  0.166291322578E+00
  0.176624223648E+00  0.187579212471E+00  0.199191780264E+00  0.211499249621E+00  0.224540849595E+00
  0.238357791801E+00  0.252993347282E+00  0.268492923870E+00  0.284904143698E+00  0.302276920501E+00
  0.320663536266E+00  0.340118716775E+00  0.360699705487E+00  0.382466335164E+00  0.405481096573E+00
  0.429809203525E+00  0.455518653420E+00  0.482680282411E+00  0.511367814172E+00  0.541657901197E+00
  0.573630157426E+00  0.607367180921E+00  0.642954565167E+00  0.680480897469E+00  0.720037742832E+00
  0.761719611507E+00  0.805623908354E+00  0.851850861922E+00  0.900503431166E+00  0.951687187406E+00
  0.100551016915E+01  0.106208270719E+01  0.112151721727E+01  0.118392795748E+01  0.124943074745E+01
  0.131814264632E+01  0.139018158622E+01  0.146566595827E+01  0.154471414755E+01  0.162744401393E+01
  0.171397231546E+01  0.180441407091E+01  0.189888185837E+01  0.199748504693E+01  0.210032895837E+01
  0.220751395638E+01  0.231913446087E+01  0.243527788549E+01  0.255602349690E+01  0.268144119473E+01
  0.281159021223E+01  0.294651773785E+01  0.308625745949E+01  0.323082803354E+01  0.338023148264E+01
  0.353445152683E+01  0.369345185456E+01  0.385717434157E+01  0.402553722728E+01  0.419843326033E+01
  0.437572782714E+01  0.455725707922E+01  0.474282607765E+01  0.493220697550E+01  0.512513726156E+01
  0.532131809137E+01  0.552041273446E+01  0.572204516931E+01  0.592579886016E+01  0.613121575290E+01
  0.633779552915E+01  0.654499516059E+01  0.675222880701E+01  0.695886810403E+01  0.716424288631E+01
  0.736764239474E+01  0.756831701344E+01  0.776548058452E+01  0.795831334386E+01  0.814596552099E+01
  0.832756164038E+01  0.850220555740E+01  0.866898625485E+01  0.882698441871E+01  0.897527980116E+01
  0.911295936892E+01  0.923912622062E+01  0.935290924359E+01  0.945347346369E+01  0.954003102361E+01
  0.961185270735E+01  0.966827990635E+01  0.970873690302E+01  0.973274332501E+01  0.973992660083E+01
  0.973003422705E+01  0.970294563489E+01  0.965868342566E+01  0.959742372685E+01  0.951950540637E+01
  0.942543787207E+01  0.931590717778E+01  0.919178015689E+01  0.905410630983E+01  0.890411718547E+01
  0.874322301647E+01  0.857300639819E+01  0.839521283758E+01  0.821173804549E+01  0.802461190048E+01
  0.783597907478E+01  0.764807638424E+01  0.746320699841E+01  0.728371172852E+01  0.711193769069E+01
  0.695020472087E+01  0.680076999367E+01  0.666579136221E+01  0.654728997864E+01  0.644711281230E+01
  0.636689569456E+01  0.630802754951E+01  0.627161649666E+01  0.625845855211E+01  0.626900970839E+01
  0.630336223502E+01  0.636122608752E+01  0.644191632449E+01  0.654434738695E+01  0.666703493854E+01
  0.680810572282E+01  0.696531552377E+01  0.713607497487E+01  0.731748269541E+01  0.750636512035E+01
  0.769932239773E+01  0.789277970662E+01  0.808304330462E+01  0.826636046642E+01  0.843898231019E+01
  0.859722834552E+01  0.873755143959E+01  0.885660182630E+01  0.895128875366E+01  0.901883837902E+01
  0.905684659916E+01  0.906332557937E+01  0.903674288454E+01  0.897605226418E+01  0.888071531075E+01
  0.875071340594E+01  0.858654958006E+01  0.838924011528E+01  0.816029596237E+01  0.790169425223E+01
  0.761584042497E+01  0.730552169249E+01  0.697385279965E+01  0.662421518513E+01  0.626019087854E+01
  0.588549258925E+01  0.550389158683E+01  0.511914509225E+01  0.473492498174E+01  0.435474965403E+01
  0.398192094344E+01  0.361946791592E+01  0.327009925296E+01  0.293616573393E+01  0.261963396522E+01
  0.232207202659E+01  0.204464711022E+01  0.178813444967E+01  0.155293593541E+01  0.133910555972E+01
  0.114637765858E+01  0.974193841797E+00  0.821727647569E+00  0.687912724293E+00  0.571485217399E+00
  0.471045210894E+00  0.385126827011E+00  0.312258106794E+00  0.251000602521E+00  0.199972785647E+00
  0.157865759705E+00  0.123455930712E+00  0.956153487165E-01  0.733191047525E-01  0.556493202710E-01
  0.417957280579E-01  0.310531920936E-01  0.228166988917E-01  0.165744191197E-01  0.118994327240E-01
  0.844066552228E-02  0.591351866446E-02  0.409059454910E-02  0.279283981966E-02  0.188134271661E-02
  0.124994262604E-02  0.818737891334E-03  0.528516695678E-03  0.336086825445E-03  0.210443915841E-03
  0.129693847222E-03  0.786319464219E-04  0.468776827368E-04  0.274665137437E-04  0.158083277264E-04
  0.893263778204E-05  0.495271047820E-05  0.269293031332E-05  0.143505043571E-05  0.749033467398E-06
  0.382692875567E-06  0.191261832230E-06  0.934412899516E-07  0.445938772776E-07  0.207739784326E-07
  0.943935533048E-08  0.418023429782E-08  0.180276191690E-08  0.756458414024E-09  0.308570986603E-09
  0.122249546275E-09  0.469942030956E-10  0.175110668187E-10  0.631832866333E-11  0.220519387662E-11
  0.743641798892E-12  0.242021979575E-12  0.759286462879E-13  0.229343586167E-13  0.666119821145E-14
  0.185798406294E-14  0.497025389829E-15  0.127341159318E-15  0.312034280306E-16  0.730215436008E-17
  0.162955212106E-17  0.346248560048E-18  0.699396982111E-19  0.134081200548E-19  0.243551295308E-20
  0.418444894401E-21  0.678787865824E-22  0.103770854694E-22  0.149222291174E-23  0.201443561509E-24
  0.254771475340E-25  0.301240429432E-26  0.332275305256E-27  0.341139112902E-28  0.325242934553E-29
 kinetic energy-density
  0.170443712255E+02  0.171959526806E+02  0.173532146010E+02  0.175164534792E+02  0.176858577678E+02
  0.178616640769E+02  0.180441134562E+02  0.182334473720E+02  0.184299468889E+02  0.186338781649E+02
  0.188455518953E+02  0.190652737518E+02  0.192933760747E+02  0.195302069050E+02  0.197761422111E+02
  0.200315597611E+02  0.202968786716E+02  0.205725301864E+02  0.208589655714E+02  0.211566644077E+02
  0.214661397635E+02  0.217879146971E+02  0.221225547325E+02  0.224706481326E+02  0.228328139396E+02
  0.232097074934E+02  0.236020130549E+02  0.240104545801E+02  0.244357925504E+02  0.248788253848E+02
  0.253403961394E+02  0.258213903479E+02  0.263227394971E+02  0.268454253266E+02  0.273904802941E+02
  0.279589921474E+02  0.285521060971E+02  0.291710284698E+02  0.298170299540E+02  0.304914503708E+02
  0.311957003918E+02  0.319312677620E+02  0.326997212893E+02  0.335027156853E+02  0.343419955550E+02
  0.352194018501E+02  0.361368777335E+02  0.370964718568E+02  0.381003497377E+02  0.391507970514E+02
  0.402502256229E+02  0.414011830763E+02  0.426063635126E+02  0.438686095712E+02  0.451909277775E+02
  0.465764918310E+02  0.480286615703E+02  0.495509832775E+02  0.511472110604E+02  0.528213096739E+02
  0.545774749995E+02  0.564201457090E+02  0.583540116767E+02  0.603840394830E+02  0.625154788176E+02
  0.647538887983E+02  0.671051471637E+02  0.695754756398E+02  0.721714645888E+02  0.749000657176E+02
  0.777686752521E+02  0.807850809130E+02  0.839575608630E+02  0.872948468621E+02  0.908062141656E+02
  0.945014497876E+02  0.983909476526E+02  0.102485678586E+03  0.106797282660E+03  0.111338073263E+03
  0.116121082025E+03  0.121160114330E+03  0.126469785718E+03  0.132065563239E+03  0.137963824945E+03
  0.144181909152E+03  0.150738167156E+03  0.157652031354E+03  0.164944064906E+03  0.172636035247E+03
  0.180750980383E+03  0.189313282203E+03  0.198348744647E+03  0.207884665914E+03  0.217949936792E+03
  0.228575115933E+03  0.239792533996E+03  0.251636386576E+03  0.264142838225E+03  0.277350131708E+03
  0.291298704858E+03  0.306031300406E+03  0.321593109874E+03  0.338031873659E+03  0.355398057778E+03
  0.373744954155E+03  0.393128878129E+03  0.413609283072E+03  0.435248934242E+03  0.458114102325E+03
  0.482274711562E+03  0.507804535859E+03  0.534781391905E+03  0.563287328000E+03  0.593408855474E+03
  0.625237112630E+03  0.658868145433E+03  0.694403084744E+03  0.731948407206E+03  0.771616166926E+03
  0.813524241242E+03  0.857796588243E+03  0.904563501892E+03  0.953961873783E+03  0.100613546878E+04
  0.106123517735E+04  0.111941931289E+04  0.118085386672E+04  0.124571280382E+04  0.131417830816E+04
  0.138644108863E+04  0.146270062008E+04  0.154316542085E+04  0.162805329646E+04  0.171759159014E+04
  0.181201740873E+04  0.191157783219E+04  0.201653011567E+04  0.212714185202E+04  0.224369111662E+04
  0.236646658731E+04  0.249576760271E+04  0.263190422492E+04  0.277519719313E+04  0.292597790174E+04
  0.308458821620E+04  0.325138037232E+04  0.342671662644E+04  0.361096896398E+04  0.380451866417E+04
  0.400775577389E+04  0.422107842291E+04  0.444489215387E+04  0.467960898522E+04  0.492564641175E+04
  0.518342622670E+04  0.545337323689E+04  0.573591370794E+04  0.603147374661E+04  0.634047737217E+04
  0.666334448476E+04  0.700048851957E+04  0.735231396827E+04  0.771921356321E+04  0.810156527709E+04
  0.849972905431E+04  0.891404322157E+04  0.934482070386E+04  0.979234486794E+04  0.102568651646E+05
  0.107385924174E+05  0.112376938587E+05  0.117542878913E+05  0.122884385354E+05  0.128401496708E+05
  0.134093589906E+05  0.139959317389E+05  0.145996542709E+05  0.152202274331E+05  0.158572598208E+05
  0.165102609523E+05  0.171786344336E+05  0.178616711371E+05  0.185585425146E+05  0.192682940582E+05
  0.199898390634E+05  0.207219527413E+05  0.214632667968E+05  0.222122646003E+05  0.229672771086E+05
  0.237264794301E+05  0.244878886685E+05  0.252493625712E+05  0.260085996210E+05  0.267631404708E+05
  0.275103708900E+05  0.282475264679E+05  0.289716991590E+05  0.296798457821E+05  0.303687985746E+05
  0.310352781564E+05  0.316759085093E+05  0.322872347092E+05  0.328657427367E+05  0.334078820558E+05
  0.339100904126E+05  0.343688211714E+05  0.347805728479E+05  0.351419208425E+05  0.354495510972E+05
  0.357002954607E+05  0.358911684689E+05  0.360194050781E+05  0.360824991397E+05  0.360782418449E+05
  0.360047598798E+05  0.358605525534E+05  0.356445272346E+05  0.353560325877E+05  0.349948887026E+05
  0.345614135525E+05  0.340564449343E+05  0.334813572423E+05  0.328380723456E+05  0.321290638614E+05
  0.313573543707E+05  0.305265048800E+05  0.296405963503E+05  0.287042028884E+05  0.277223566150E+05
  0.267005043332E+05  0.256444563005E+05  0.245603277692E+05  0.234544740581E+05  0.223334203127E+05
  0.212037872847E+05  0.200722140363E+05  0.189452803624E+05  0.178294283772E+05  0.167308857541E+05
  0.156555906232E+05  0.146091186426E+05  0.135966126406E+05  0.126227157460E+05  0.116915098789E+05
  0.108064624639E+05  0.997038477567E+04  0.918540506283E+04  0.845295844878E+04  0.777379407981E+04
  0.714799827441E+04  0.657503110146E+04  0.605377307106E+04  0.558257886643E+04  0.515933572780E+04
  0.478152525676E+04  0.444628783179E+04  0.415048909912E+04  0.389078765046E+04  0.366370294860E+04
  0.346568214147E+04  0.329316448224E+04  0.314264209103E+04  0.301071575752E+04  0.289414485339E+04
  0.278989045550E+04  0.269515123228E+04  0.260739150870E+04  0.252436175628E+04  0.244411134917E+04
  0.236499409225E+04  0.228566700366E+04  0.220508291628E+04  0.212247776791E+04  0.203735317554E+04
  0.194945535435E+04  0.185875100882E+04  0.176540103825E+04  0.166973293329E+04  0.157221233292E+04
  0.147341452072E+04  0.137399629810E+04  0.127466873830E+04  0.117617103313E+04  0.107924586030E+04
  0.984616429631E+03  0.892965337536E+03  0.804915763764E+03  0.721015106799E+03  0.641721666013E+03
  0.567394877249E+03  0.498289667452E+03  0.434555676949E+03  0.376242313197E+03  0.323310859583E+03
  0.275653876646E+03  0.233118079615E+03  0.195520082618E+03  0.162642777810E+03  0.134214112759E+03
  0.109891499212E+03  0.892751302052E+02  0.719447435254E+02  0.574934391127E+02  0.455437468883E+02
  0.357506194080E+02  0.278002931909E+02  0.214092165769E+02  0.163235576148E+02  0.123187720143E+02
  0.919880949710E+01  0.679480658835E+01  0.496329694537E+01  0.358405468907E+01  0.255770897660E+01
  0.180325936930E+01  0.125560116891E+01  0.863146917673E+00  0.585608111307E+00  0.391980940279E+00
  0.258761855591E+00  0.168403121695E+00  0.108005615820E+00  0.682361669740E-01  0.424496586999E-01
  0.259918487821E-01  0.156569798204E-01  0.927434026716E-02  0.539945763282E-02  0.308807883728E-02
  0.173407457085E-02  0.955540668826E-03  0.516397674822E-03  0.273536695348E-03  0.141930759745E-03
  0.720927102518E-04  0.358240868513E-04  0.174033737863E-04  0.825965683653E-05  0.382689001530E-05
  0.172965411311E-05  0.762015003234E-06  0.326969470700E-06  0.136528874742E-06  0.554286629432E-07
  0.218594738965E-07  0.836616392117E-08  0.310429464282E-08  0.111557875823E-08  0.387856749165E-09
  0.130314216607E-09  0.422629560805E-10  0.132146940649E-10  0.397876928427E-11  0.115208381319E-11
  0.320402997379E-12  0.854680795393E-13  0.218377479543E-13  0.533695337420E-14  0.124574335822E-14
  0.277308611767E-15  0.587799035563E-16  0.118450370340E-16  0.226556481327E-17  0.410598812016E-18
  0.703891531288E-19  0.113936388465E-19  0.173813966835E-20  0.249426902751E-21  0.336033224746E-22
  0.424147930066E-23  0.500536300095E-24  0.551053487774E-25  0.564699854251E-26  0.537404178147E-27
 mkinetic energy-density pseudized
  0.151092076267E-05  0.161078113943E-05  0.171724152793E-05  0.183073813875E-05  0.195173601270E-05
  0.208073092622E-05  0.221825142283E-05  0.236486097874E-05  0.252116031164E-05  0.268778984213E-05
  0.286543231769E-05  0.305481561024E-05  0.325671569850E-05  0.347195984746E-05  0.370142999806E-05
  0.394606638079E-05  0.420687136823E-05  0.448491358218E-05  0.478133227218E-05  0.509734198350E-05
  0.543423753360E-05  0.579339931752E-05  0.617629896391E-05  0.658450536484E-05  0.701969110421E-05
  0.748363931098E-05  0.797825096534E-05  0.850555268776E-05  0.906770504292E-05  0.966701139231E-05
  0.103059273321E-04  0.109870707546E-04  0.117132325748E-04  0.124873881659E-04  0.133127095507E-04
  0.141925783982E-04  0.151305998802E-04  0.161306174426E-04  0.171967285538E-04  0.183333014935E-04
  0.195449932513E-04  0.208367686083E-04  0.222139204794E-04  0.236820916008E-04  0.252472976503E-04
  0.269159518960E-04  0.286948914737E-04  0.305914054015E-04  0.326132644455E-04  0.347687529600E-04
  0.370667028311E-04  0.395165296650E-04  0.421282713666E-04  0.449126292692E-04  0.478810119816E-04
  0.510455821336E-04  0.544193062108E-04  0.580160076832E-04  0.618504236451E-04  0.659382651984E-04
  0.702962818268E-04  0.749423300248E-04  0.798954464618E-04  0.851759259830E-04  0.908054047638E-04
  0.968069489619E-04  0.103205149227E-03  0.110026221457E-03  0.117298114214E-03  0.125050623242E-03
  0.133315513544E-03  0.142126649541E-03  0.151520133821E-03  0.161534455064E-03  0.172210645748E-03
  0.183592450263E-03  0.195726504155E-03  0.208662525198E-03  0.222453517112E-03  0.237155986727E-03
  0.252830175513E-03  0.269540306404E-03  0.287354846941E-03  0.306346789798E-03  0.326593951855E-03
  0.348179293032E-03  0.371191256199E-03  0.395724129543E-03  0.421878432894E-03  0.449761329568E-03
  0.479487065446E-03  0.511177437056E-03  0.544962290593E-03  0.580980053925E-03  0.619378303748E-03
  0.660314370228E-03  0.703955981600E-03  0.750481951368E-03  0.800082910912E-03  0.852962090519E-03
  0.909336152021E-03  0.969436076458E-03  0.103350811040E-02  0.110181477483E-02  0.117463594061E-02
  0.125226997516E-02  0.133503496476E-02  0.142327001774E-02  0.151733665369E-02  0.161762028454E-02
  0.172453179347E-02  0.183850921812E-02  0.196001954513E-02  0.208956062308E-02  0.222766320198E-02
  0.237489310745E-02  0.253185355852E-02  0.269918763859E-02  0.287758092970E-02  0.306776432068E-02
  0.327051700102E-02  0.348666965232E-02  0.371710785072E-02  0.396277569402E-02  0.422467966834E-02
  0.450389277033E-02  0.480155890149E-02  0.511889755282E-02  0.545720879887E-02  0.581787862153E-02
  0.620238458546E-02  0.661230188827E-02  0.704930981021E-02  0.751519858965E-02  0.801187675259E-02
  0.854137892599E-02  0.910587416682E-02  0.970767484104E-02  0.103492460884E-01  0.110332159121E-01
  0.117623859341E-01  0.125397428601E-01  0.133684707009E-01  0.142519638002E-01  0.151938407213E-01
  0.161979590501E-01  0.172684311735E-01  0.184096410992E-01  0.196262623831E-01  0.209232772388E-01
  0.223059969065E-01  0.237800833634E-01  0.253515724648E-01  0.270268986084E-01  0.288129210230E-01
  0.307169517871E-01  0.327467856921E-01  0.349107320689E-01  0.372176487084E-01  0.396769780116E-01
  0.422987855159E-01  0.450938009517E-01  0.480734619956E-01  0.512499608955E-01  0.546362941549E-01
  0.582463154747E-01  0.620947921661E-01  0.661974652578E-01  0.705711135393E-01  0.752336217936E-01
  0.802040534915E-01  0.855027282353E-01  0.911513042582E-01  0.971728663056E-01  0.103592019243E+00
  0.110434987761E+00  0.117729722561E+00  0.125506013448E+00  0.133795609754E+00  0.142632348575E+00
  0.152052291307E+00  0.162093869006E+00  0.172798037135E+00  0.184208440278E+00  0.196371587457E+00
  0.209337038700E+00  0.223157603569E+00  0.237889552387E+00  0.253592840932E+00  0.270331349449E+00
  0.288173136816E+00  0.307190710817E+00  0.327461315464E+00  0.349067236398E+00  0.372096125436E+00
  0.396641345387E+00  0.422802336324E+00  0.450685004534E+00  0.480402135457E+00  0.512073831944E+00
  0.545827979269E+00  0.581800738325E+00  0.620137068561E+00  0.660991282212E+00  0.704527631458E+00
  0.750920930193E+00  0.800357212108E+00  0.853034426859E+00  0.909163176109E+00  0.968967491229E+00
  0.103268565450E+01  0.110057106560E+01  0.117289315520E+01  0.124993834737E+01  0.133201107248E+01
  0.141943483225E+01  0.151255331828E+01  0.161173158546E+01  0.171735728129E+01  0.182984193193E+01
  0.194962228544E+01  0.207716171239E+01  0.221295166336E+01  0.235751318247E+01  0.251139847526E+01
  0.267519252851E+01  0.284951477877E+01  0.303502082496E+01  0.323240417956E+01  0.344239805107E+01
  0.366577714894E+01  0.390335950019E+01  0.415600826451E+01  0.442463353243E+01  0.471019408771E+01
  0.501369911228E+01  0.533620980785E+01  0.567884090412E+01  0.604276201879E+01  0.642919882885E+01
  0.683943400651E+01  0.727480786629E+01  0.773671866181E+01  0.822662246242E+01  0.874603252987E+01
  0.929651810479E+01  0.987970250082E+01  0.104972603913E+02  0.111509141591E+02  0.118424291652E+02
  0.125736077736E+02  0.133462819538E+02  0.141623042618E+02  0.150235369788E+02  0.159318391688E+02
  0.168890513897E+02  0.178969777730E+02  0.189573651621E+02  0.200718789787E+02  0.212420754629E+02
  0.224693699181E+02  0.237550005694E+02  0.250999876421E+02  0.265050872540E+02  0.279707397272E+02
  0.294970119375E+02  0.310835333538E+02  0.327294254670E+02  0.344332243859E+02  0.361927964756E+02
  0.380052470549E+02  0.398668223441E+02  0.417728050852E+02  0.437174045414E+02  0.456936419360E+02
  0.476932328193E+02  0.497064683708E+02  0.517220982558E+02  0.537272183735E+02  0.557071676674E+02
  0.576454391118E+02  0.595236110556E+02  0.613213062728E+02  0.630161873337E+02  0.645839982356E+02
  0.659986635731E+02  0.672324578186E+02  0.682562584289E+02  0.690398973667E+02  0.695526260611E+02
  0.697637086100E+02  0.696431568950E+02  0.691626188973E+02  0.682964274948E+02  0.670228109464E+02
  0.653252576160E+02  0.631940157564E+02  0.606276938089E+02  0.576349072264E+02  0.542358939356E+02
  0.504639921222E+02  0.463668413147E+02  0.420071316179E+02  0.374626880451E+02  0.328256399797E+02
  0.282003939966E+02  0.237001074955E+02  0.194413587689E+02  0.155367364525E+02  0.120851402731E+02
  0.915971010999E+01  0.679349730000E+01  0.496329694537E+01  0.358405468907E+01  0.255770897660E+01
  0.180325936930E+01  0.125560116891E+01  0.863146917673E+00  0.585608111307E+00  0.391980940279E+00
  0.258761855591E+00  0.168403121695E+00  0.108005615820E+00  0.682361669740E-01  0.424496586999E-01
  0.259918487821E-01  0.156569798204E-01  0.927434026716E-02  0.539945763282E-02  0.308807883728E-02
  0.173407457085E-02  0.955540668826E-03  0.516397674822E-03  0.273536695348E-03  0.141930759745E-03
  0.720927102518E-04  0.358240868513E-04  0.174033737863E-04  0.825965683653E-05  0.382689001530E-05
  0.172965411311E-05  0.762015003234E-06  0.326969470700E-06  0.136528874742E-06  0.554286629432E-07
  0.218594738965E-07  0.836616392117E-08  0.310429464282E-08  0.111557875823E-08  0.387856749165E-09
  0.130314216607E-09  0.422629560805E-10  0.132146940649E-10  0.397876928427E-11  0.115208381319E-11
  0.320402997379E-12  0.854680795393E-13  0.218377479543E-13  0.533695337420E-14  0.124574335822E-14
  0.277308611767E-15  0.587799035563E-16  0.118450370340E-16  0.226556481327E-17  0.410598812016E-18
  0.703891531288E-19  0.113936388465E-19  0.173813966835E-20  0.249426902751E-21  0.336033224746E-22
  0.424147930066E-23  0.500536300095E-24  0.551053487774E-25  0.564699854251E-26  0.537404178147E-27
 local pseudopotential core
 -0.211805222802E+03 -0.211806767269E+03 -0.211808263094E+03 -0.211809711809E+03 -0.211811114898E+03
 -0.211812473797E+03 -0.211813789899E+03 -0.211815064551E+03 -0.211816299058E+03 -0.211817494683E+03
 -0.211818652654E+03 -0.211819774154E+03 -0.211820860331E+03 -0.211821912300E+03 -0.211822931135E+03
 -0.211823917882E+03 -0.211824873550E+03 -0.211825799118E+03 -0.211826695533E+03 -0.211827563714E+03
 -0.211828404550E+03 -0.211829218901E+03 -0.211830007602E+03 -0.211830771459E+03 -0.211831511256E+03
 -0.211832227749E+03 -0.211832921673E+03 -0.211833593736E+03 -0.211834244629E+03 -0.211834875016E+03
 -0.211835485544E+03 -0.211836076837E+03 -0.211836649502E+03 -0.211837204122E+03 -0.211837741268E+03
 -0.211838261488E+03 -0.211838765315E+03 -0.211839253265E+03 -0.211839725836E+03 -0.211840183513E+03
 -0.211840626764E+03 -0.211841056042E+03 -0.211841471786E+03 -0.211841874422E+03 -0.211842264362E+03
 -0.211842642004E+03 -0.211843007735E+03 -0.211843361928E+03 -0.211843704946E+03 -0.211844037139E+03
 -0.211844358847E+03 -0.211844670397E+03 -0.211844972110E+03 -0.211845264291E+03 -0.211845547241E+03
 -0.211845821247E+03 -0.211846086590E+03 -0.211846343539E+03 -0.211846592356E+03 -0.211846833296E+03
 -0.211847066603E+03 -0.211847292515E+03 -0.211847511261E+03 -0.211847723064E+03 -0.211847928139E+03
 -0.211848126695E+03 -0.211848318931E+03 -0.211848505044E+03 -0.211848685221E+03 -0.211848859644E+03
 -0.211849028490E+03 -0.211849191928E+03 -0.211849350122E+03 -0.211849503232E+03 -0.211849651411E+03
 -0.211849794807E+03 -0.211849933562E+03 -0.211850067815E+03 -0.211850197699E+03 -0.211850323342E+03
 -0.211850444868E+03 -0.211850562395E+03 -0.211850676039E+03 -0.211850785910E+03 -0.211850892113E+03
 -0.211850994750E+03 -0.211851093920E+03 -0.211851189715E+03 -0.211851282226E+03 -0.211851371538E+03
 -0.211851457733E+03 -0.211851540890E+03 -0.211851621082E+03 -0.211851698379E+03 -0.211851772850E+03
 -0.211851844556E+03 -0.211851913557E+03 -0.211851979909E+03 -0.211852043664E+03 -0.211852104870E+03
 -0.211852163572E+03 -0.211852219810E+03 -0.211852273621E+03 -0.211852325038E+03 -0.211852374091E+03
 -0.211852420805E+03 -0.211852465201E+03 -0.211852507295E+03 -0.211852547102E+03 -0.211852584628E+03
 -0.211852619879E+03 -0.211852652853E+03 -0.211852683545E+03 -0.211852711946E+03 -0.211852738038E+03
 -0.211852761802E+03 -0.211852783212E+03 -0.211852802235E+03 -0.211852818833E+03 -0.211852832962E+03
 -0.211852844572E+03 -0.211852853604E+03 -0.211852859994E+03 -0.211852863668E+03 -0.211852864546E+03
 -0.211852862539E+03 -0.211852857550E+03 -0.211852849469E+03 -0.211852838182E+03 -0.211852823558E+03
 -0.211852805460E+03 -0.211852783737E+03 -0.211852758226E+03 -0.211852728750E+03 -0.211852695119E+03
 -0.211852657128E+03 -0.211852614556E+03 -0.211852567165E+03 -0.211852514700E+03 -0.211852456887E+03
 -0.211852393432E+03 -0.211852324018E+03 -0.211852248307E+03 -0.211852165937E+03 -0.211852076520E+03
 -0.211851979641E+03 -0.211851874854E+03 -0.211851761685E+03 -0.211851639624E+03 -0.211851508129E+03
 -0.211851366619E+03 -0.211851214473E+03 -0.211851051028E+03 -0.211850875577E+03 -0.211850687362E+03
 -0.211850485577E+03 -0.211850269360E+03 -0.211850037791E+03 -0.211849789887E+03 -0.211849524600E+03
 -0.211849240812E+03 -0.211848937330E+03 -0.211848612879E+03 -0.211848266101E+03 -0.211847895547E+03
 -0.211847499669E+03 -0.211847076819E+03 -0.211846625235E+03 -0.211846143041E+03 -0.211845628233E+03
 -0.211845078677E+03 -0.211844492094E+03 -0.211843866054E+03 -0.211843197964E+03 -0.211842485060E+03
 -0.211841724394E+03 -0.211840912820E+03 -0.211840046985E+03 -0.211839123311E+03 -0.211838137981E+03
 -0.211837086927E+03 -0.211835965806E+03 -0.211834769990E+03 -0.211833494538E+03 -0.211832134184E+03
 -0.211830683308E+03 -0.211829135917E+03 -0.211827485617E+03 -0.211825725588E+03 -0.211823848554E+03
 -0.211821846753E+03 -0.211819711905E+03 -0.211817435175E+03 -0.211815007138E+03 -0.211812417737E+03
 -0.211809656240E+03 -0.211806711199E+03 -0.211803570392E+03 -0.211800220781E+03 -0.211796648449E+03
 -0.211792838542E+03 -0.211788775207E+03 -0.211784441520E+03 -0.211779819415E+03 -0.211774889606E+03
 -0.211769631499E+03 -0.211764023107E+03 -0.211758040950E+03 -0.211751659954E+03 -0.211744853335E+03
 -0.211737592487E+03 -0.211729846851E+03 -0.211721583777E+03 -0.211712768382E+03 -0.211703363387E+03
 -0.211693328953E+03 -0.211682622500E+03 -0.211671198508E+03 -0.211659008316E+03 -0.211645999891E+03
 -0.211632117596E+03 -0.211617301926E+03 -0.211601489235E+03 -0.211584611440E+03 -0.211566595700E+03
 -0.211547364081E+03 -0.211526833183E+03 -0.211504913756E+03 -0.211481510271E+03 -0.211456520479E+03
 -0.211429834922E+03 -0.211401336422E+03 -0.211370899528E+03 -0.211338389926E+03 -0.211303663811E+03
 -0.211266567213E+03 -0.211226935286E+03 -0.211184591539E+03 -0.211139347030E+03 -0.211090999503E+03
 -0.211039332468E+03 -0.210984114236E+03 -0.210925096888E+03 -0.210862015185E+03 -0.210794585420E+03
 -0.210722504200E+03 -0.210645447165E+03 -0.210563067631E+03 -0.210474995164E+03 -0.210380834071E+03
 -0.210280161809E+03 -0.210172527302E+03 -0.210057449162E+03 -0.209934413794E+03 -0.209802873390E+03
 -0.209662243773E+03 -0.209511902094E+03 -0.209351184341E+03 -0.209179382648E+03 -0.208995742349E+03
 -0.208799458753E+03 -0.208589673592E+03 -0.208365471071E+03 -0.208125873468E+03 -0.207869836212E+03
 -0.207596242348E+03 -0.207303896298E+03 -0.206991516826E+03 -0.206657729075E+03 -0.206301055587E+03
 -0.205919906148E+03 -0.205512566352E+03 -0.205077184741E+03 -0.204611758395E+03 -0.204114116846E+03
 -0.203581904214E+03 -0.203012559473E+03 -0.202403294804E+03 -0.201751072002E+03 -0.201052577011E+03
 -0.200304192683E+03 -0.199501969981E+03 -0.198641597922E+03 -0.197718372717E+03 -0.196727166659E+03
 -0.195662397507E+03 -0.194517999254E+03 -0.193287395356E+03 -0.191963475720E+03 -0.190538578917E+03
 -0.189004481406E+03 -0.187352395807E+03 -0.185572980736E+03 -0.183656365274E+03 -0.181592191983E+03
 -0.179369683579E+03 -0.176977739969E+03 -0.174405074581E+03 -0.171640401693E+03 -0.168672689946E+03
 -0.165491501205E+03 -0.162087438284E+03 -0.158452729174E+03 -0.154581978596E+03 -0.150473118641E+03
 -0.146128587033E+03 -0.141556751636E+03 -0.136773579799E+03 -0.131804517148E+03 -0.126686488850E+03
 -0.121469865369E+03 -0.116220147717E+03 -0.111020063969E+03 -0.105987917025E+03 -0.101247258585E+03
 -0.969227910139E+02 -0.931403832798E+02 -0.900175651195E+02 -0.876442996445E+02 -0.858997342087E+02
 -0.835657792983E+02 -0.809337942412E+02 -0.783848586824E+02 -0.759162241417E+02 -0.735253512776E+02
 -0.712097830026E+02 -0.689671461544E+02 -0.667951404337E+02 -0.646915390090E+02 -0.626541885480E+02
 -0.606810001358E+02 -0.587699543057E+02 -0.569190931336E+02 -0.551265216374E+02 -0.533904052310E+02
 -0.517089619567E+02 -0.500804740076E+02 -0.485032723729E+02 -0.469757418730E+02 -0.454963182052E+02
 -0.440634863150E+02 -0.426757788664E+02 -0.413317746924E+02 -0.400300975015E+02 -0.387694142573E+02
 -0.375484339544E+02 -0.363659062385E+02 -0.352206201434E+02 -0.341114028846E+02 -0.330371185532E+02
 -0.319966670420E+02 -0.309889828723E+02 -0.300130341118E+02 -0.290678213234E+02 -0.281523765331E+02
 -0.272657622481E+02 -0.264070704958E+02 -0.255754218951E+02 -0.247699647587E+02 -0.239898742217E+02
 -0.232343513970E+02 -0.225026225585E+02 -0.217939383482E+02 -0.211075730090E+02 -0.204428236413E+02
 -0.197990094835E+02 -0.191754712136E+02 -0.185715702751E+02 -0.179866882218E+02 -0.174202260848E+02
 -0.168716037594E+02 -0.163402594099E+02 -0.158256488953E+02 -0.153272452111E+02 -0.148445379503E+02
 pspotential valence only
 -0.831461867349E+02 -0.831477312131E+02 -0.831492270497E+02 -0.831506757768E+02 -0.831520788788E+02
 -0.831534377925E+02 -0.831547539092E+02 -0.831560285768E+02 -0.831572631008E+02 -0.831584587449E+02
 -0.831596167348E+02 -0.831607382551E+02 -0.831618244549E+02 -0.831628764468E+02 -0.831638953077E+02
 -0.831648820809E+02 -0.831658377774E+02 -0.831667633757E+02 -0.831676598236E+02 -0.831685280393E+02
 -0.831693689118E+02 -0.831701833024E+02 -0.831709720446E+02 -0.831717359470E+02 -0.831724757912E+02
 -0.831731923350E+02 -0.831738863124E+02 -0.831745584340E+02 -0.831752093877E+02 -0.831758398409E+02
 -0.831764504386E+02 -0.831770418063E+02 -0.831776145498E+02 -0.831781692553E+02 -0.831787064912E+02
 -0.831792268075E+02 -0.831797307370E+02 -0.831802187959E+02 -0.831806914839E+02 -0.831811492851E+02
 -0.831815926682E+02 -0.831820220875E+02 -0.831824379826E+02 -0.831828407792E+02 -0.831832308902E+02
 -0.831836087148E+02 -0.831839746400E+02 -0.831843290406E+02 -0.831846722794E+02 -0.831850047081E+02
 -0.831853266667E+02 -0.831856384854E+02 -0.831859404832E+02 -0.831862329694E+02 -0.831865162436E+02
 -0.831867905958E+02 -0.831870563070E+02 -0.831873136492E+02 -0.831875628859E+02 -0.831878042725E+02
 -0.831880380559E+02 -0.831882644757E+02 -0.831884837636E+02 -0.831886961442E+02 -0.831889018349E+02
 -0.831891010464E+02 -0.831892939826E+02 -0.831894808411E+02 -0.831896618131E+02 -0.831898370840E+02
 -0.831900068331E+02 -0.831901712342E+02 -0.831903304557E+02 -0.831904846605E+02 -0.831906340065E+02
 -0.831907786465E+02 -0.831909187286E+02 -0.831910543960E+02 -0.831911857877E+02 -0.831913130382E+02
 -0.831914362776E+02 -0.831915556320E+02 -0.831916712236E+02 -0.831917831705E+02 -0.831918915872E+02
 -0.831919965847E+02 -0.831920982703E+02 -0.831921967479E+02 -0.831922921183E+02 -0.831923844788E+02
 -0.831924739240E+02 -0.831925605451E+02 -0.831926444305E+02 -0.831927256661E+02 -0.831928043346E+02
 -0.831928805164E+02 -0.831929542892E+02 -0.831930257281E+02 -0.831930949060E+02 -0.831931618934E+02
 -0.831932267585E+02 -0.831932895672E+02 -0.831933503835E+02 -0.831934092690E+02 -0.831934662837E+02
 -0.831935214854E+02 -0.831935749299E+02 -0.831936266715E+02 -0.831936767624E+02 -0.831937252532E+02
 -0.831937721927E+02 -0.831938176284E+02 -0.831938616058E+02 -0.831939041691E+02 -0.831939453608E+02
 -0.831939852221E+02 -0.831940237928E+02 -0.831940611110E+02 -0.831940972138E+02 -0.831941321368E+02
 -0.831941659143E+02 -0.831941985794E+02 -0.831942301638E+02 -0.831942606982E+02 -0.831942902119E+02
 -0.831943187332E+02 -0.831943462892E+02 -0.831943729058E+02 -0.831943986079E+02 -0.831944234192E+02
 -0.831944473623E+02 -0.831944704589E+02 -0.831944927295E+02 -0.831945141935E+02 -0.831945348693E+02
 -0.831945547744E+02 -0.831945739250E+02 -0.831945923364E+02 -0.831946100228E+02 -0.831946269975E+02
 -0.831946432725E+02 -0.831946588588E+02 -0.831946737665E+02 -0.831946880043E+02 -0.831947015800E+02
 -0.831947145001E+02 -0.831947267702E+02 -0.831947383943E+02 -0.831947493756E+02 -0.831947597156E+02
 -0.831947694148E+02 -0.831947784722E+02 -0.831947868854E+02 -0.831947946507E+02 -0.831948017627E+02
 -0.831948082143E+02 -0.831948139970E+02 -0.831948191004E+02 -0.831948235122E+02 -0.831948272183E+02
 -0.831948302025E+02 -0.831948324464E+02 -0.831948339293E+02 -0.831948346281E+02 -0.831948345171E+02
 -0.831948335679E+02 -0.831948317493E+02 -0.831948290266E+02 -0.831948253622E+02 -0.831948207147E+02
 -0.831948150389E+02 -0.831948082856E+02 -0.831948004011E+02 -0.831947913272E+02 -0.831947810003E+02
 -0.831947693517E+02 -0.831947563065E+02 -0.831947417836E+02 -0.831947256950E+02 -0.831947079453E+02
 -0.831946884309E+02 -0.831946670396E+02 -0.831946436498E+02 -0.831946181293E+02 -0.831945903351E+02
 -0.831945601116E+02 -0.831945272902E+02 -0.831944916876E+02 -0.831944531050E+02 -0.831944113258E+02
 -0.831943661148E+02 -0.831943172161E+02 -0.831942643508E+02 -0.831942072153E+02 -0.831941454784E+02
 -0.831940787789E+02 -0.831940067226E+02 -0.831939288785E+02 -0.831938447758E+02 -0.831937538990E+02
 -0.831936556839E+02 -0.831935495124E+02 -0.831934347064E+02 -0.831933105220E+02 -0.831931761424E+02
 -0.831930306698E+02 -0.831928731169E+02 -0.831927023975E+02 -0.831925173153E+02 -0.831923165522E+02
 -0.831920986552E+02 -0.831918620213E+02 -0.831916048814E+02 -0.831913252821E+02 -0.831910210656E+02
 -0.831906898472E+02 -0.831903289908E+02 -0.831899355813E+02 -0.831895063949E+02 -0.831890378652E+02
 -0.831885260468E+02 -0.831879665749E+02 -0.831873546205E+02 -0.831866848424E+02 -0.831859513334E+02
 -0.831851475622E+02 -0.831842663102E+02 -0.831832996027E+02 -0.831822386342E+02 -0.831810736881E+02
 -0.831797940500E+02 -0.831783879156E+02 -0.831768422910E+02 -0.831751428886E+02 -0.831732740161E+02
 -0.831712184602E+02 -0.831689573662E+02 -0.831664701128E+02 -0.831637341840E+02 -0.831607250399E+02
 -0.831574159870E+02 -0.831537780503E+02 -0.831497798496E+02 -0.831453874830E+02 -0.831405644194E+02
 -0.831352714042E+02 -0.831294663819E+02 -0.831231044385E+02 -0.831161377678E+02 -0.831085156666E+02
 -0.831001845606E+02 -0.830910880651E+02 -0.830811670844E+02 -0.830703599482E+02 -0.830586025888E+02
 -0.830458287556E+02 -0.830319702620E+02 -0.830169572612E+02 -0.830007185382E+02 -0.829831818042E+02
 -0.829642739773E+02 -0.829439214235E+02 -0.829220501305E+02 -0.828985857792E+02 -0.828734536712E+02
 -0.828465784657E+02 -0.828178836714E+02 -0.827872908333E+02 -0.827547183493E+02 -0.827200798471E+02
 -0.826832820494E+02 -0.826442220527E+02 -0.826027839506E+02 -0.825588347346E+02 -0.825122194180E+02
 -0.824627553428E+02 -0.824102256515E+02 -0.823543719371E+02 -0.822948861199E+02 -0.822314016487E+02
 -0.821634841802E+02 -0.820906219530E+02 -0.820122161455E+02 -0.819275715770E+02 -0.818358881858E+02
 -0.817362537725E+02 -0.816276385400E+02 -0.815088919666E+02 -0.813787425141E+02 -0.812358005796E+02
 -0.810785649491E+02 -0.809054327943E+02 -0.807147129840E+02 -0.805046421789E+02 -0.802734028736E+02
 -0.800191422883E+02 -0.797399908451E+02 -0.794340789385E+02 -0.790995508683E+02 -0.787345751527E+02
 -0.783373509863E+02 -0.779061112963E+02 -0.774391236218E+02 -0.769346908236E+02 -0.763911543522E+02
 -0.758069034297E+02 -0.751803940741E+02 -0.745101825399E+02 -0.737949787617E+02 -0.730337272893E+02
 -0.722257268453E+02 -0.713708069834E+02 -0.704706218677E+02 -0.695473631841E+02 -0.686154753117E+02
 -0.676817318390E+02 -0.667518183555E+02 -0.658296695482E+02 -0.649087190963E+02 -0.637995495580E+02
 -0.627176350549E+02 -0.616248536121E+02 -0.605118426399E+02 -0.593813475130E+02 -0.582363836067E+02
 -0.570800206782E+02 -0.559152807772E+02 -0.547450439947E+02 -0.535719579690E+02 -0.523983575470E+02
 -0.512262050831E+02 -0.500570571623E+02 -0.488920707462E+02 -0.477320515963E+02 -0.465775470395E+02
 -0.454289717238E+02 -0.442867565661E+02 -0.431514904256E+02 -0.420240432557E+02 -0.409056484073E+02
 -0.397979364418E+02 -0.387029182111E+02 -0.376229213286E+02 -0.365604879790E+02 -0.355182438545E+02
 -0.344987490102E+02 -0.335043424964E+02 -0.325369942471E+02 -0.315981792659E+02 -0.306887891857E+02
 -0.298090934988E+02 -0.289587564451E+02 -0.281369068425E+02 -0.273422493442E+02 -0.265731994166E+02
 -0.258280224530E+02 -0.251049599311E+02 -0.244023309660E+02 -0.237186039917E+02 -0.230524388733E+02
 -0.224027035576E+02 -0.217684712425E+02 -0.211490043405E+02 -0.205437308028E+02 -0.199522171818E+02
 -0.193741415380E+02 -0.188092681622E+02 -0.182574251896E+02 -0.177184855405E+02 -0.171923512016E+02
 -0.166789406120E+02 -0.161781787992E+02 -0.156899898630E+02 -0.152142914193E+02 -0.147509906477E+02
 core charge-density (pseudized)
  0.664368237932E-08  0.708277928095E-08  0.755089714963E-08  0.804995405063E-08  0.858199481872E-08
  0.914919943673E-08  0.975389196776E-08  0.103985500778E-07  0.110858151877E-07  0.118185032961E-07
  0.125996165179E-07  0.134323553847E-07  0.143201319591E-07  0.152665838149E-07  0.162755889421E-07
  0.173512816359E-07  0.184980694375E-07  0.197206511925E-07  0.210240363048E-07  0.224135652615E-07
  0.238949315154E-07  0.254742048132E-07  0.271578560655E-07  0.289527838608E-07  0.308663427319E-07
  0.329063732901E-07  0.350812343514E-07  0.373998371856E-07  0.398716820299E-07  0.425068970146E-07
  0.453162796619E-07  0.483113411283E-07  0.515043533697E-07  0.549083994247E-07  0.585374270208E-07
  0.624063057239E-07  0.665308878648E-07  0.709280734919E-07  0.756158796180E-07  0.806135140426E-07
  0.859414540539E-07  0.916215303321E-07  0.976770163983E-07  0.104132723975E-06  0.111015104651E-06
  0.118352358259E-06  0.126174548429E-06  0.134513725761E-06  0.143404059159E-06  0.152881975824E-06
  0.162986310520E-06  0.173758464685E-06  0.185242576078E-06  0.197485699620E-06  0.210538000202E-06
  0.224452958225E-06  0.239287588733E-06  0.255102675022E-06  0.271963017693E-06  0.289937700166E-06
  0.309100371736E-06  0.329529549346E-06  0.351308939296E-06  0.374527780221E-06  0.399281208731E-06
  0.425670649222E-06  0.453804229447E-06  0.483797223554E-06  0.515772524405E-06  0.549861147110E-06
  0.586202765840E-06  0.624946286122E-06  0.666250454953E-06  0.710284511242E-06  0.757228879234E-06
  0.807275907767E-06  0.860630658389E-06  0.917511745557E-06  0.978152232370E-06  0.104280058550E-05
  0.111172169321E-05  0.118519795074E-05  0.126353041728E-05  0.134704004954E-05  0.143606901680E-05
  0.153098210284E-05  0.163216820054E-05  0.174004190532E-05  0.185504521377E-05  0.197764933465E-05
  0.210835661951E-05  0.224770262090E-05  0.239625828667E-05  0.255463229918E-05  0.272347356923E-05
  0.290347389465E-05  0.309537079474E-05  0.329995053191E-05  0.351805133310E-05  0.375056682398E-05
  0.399844969023E-05  0.426271558062E-05  0.454444726815E-05  0.484479908613E-05  0.516500165733E-05
  0.550636693577E-05  0.587029358155E-05  0.625827269095E-05  0.667189390511E-05  0.711285192236E-05
  0.758295344090E-05  0.808412456021E-05  0.861841867152E-05  0.918802486959E-05  0.979527692035E-05
  0.104426628210E-04  0.111328349918E-04  0.118686211410E-04  0.126530358482E-04  0.134892929119E-04
  0.143808185139E-04  0.153312652529E-04  0.163445271047E-04  0.174247553716E-04  0.185763756842E-04
  0.198041061276E-04  0.211129765633E-04  0.225083492287E-04  0.239959406959E-04  0.255818452816E-04
  0.272725600024E-04  0.290750111780E-04  0.309965827917E-04  0.330451467225E-04  0.352290949735E-04
  0.375573740287E-04  0.400395214767E-04  0.426857050524E-04  0.455067642553E-04  0.485142547147E-04
  0.517204954825E-04  0.551386194460E-04  0.587826270673E-04  0.626674436675E-04  0.668089804893E-04
  0.712241997867E-04  0.759311842071E-04  0.809492107471E-04  0.862988295843E-04  0.920019481041E-04
  0.980819204644E-04  0.104563643060E-03  0.111473656278E-03  0.118840252948E-03  0.126693593941E-03
  0.135065831373E-03  0.143991239911E-03  0.153506356731E-03  0.163650130663E-03  0.174464081155E-03
  0.185992467679E-03  0.198282470262E-03  0.211384381885E-03  0.225351813494E-03  0.240241912479E-03
  0.256115595466E-03  0.273037796382E-03  0.291077730757E-03  0.310309177338E-03  0.330810778127E-03
  0.352666358034E-03  0.375965265423E-03  0.400802734878E-03  0.427280273649E-03  0.455506073271E-03
  0.485595447996E-03  0.517671301739E-03  0.551864625365E-03  0.588315026257E-03  0.627171292212E-03
  0.668591991838E-03  0.712746113776E-03  0.759813747177E-03  0.809986806041E-03  0.863469800151E-03
  0.920480655527E-03  0.981251587451E-03  0.104603002934E-02  0.111507962090E-02  0.118868125915E-02
  0.126713421622E-02  0.135075732788E-02  0.143989025717E-02  0.153489483743E-02  0.163615649962E-02
  0.174408578880E-02  0.185911997497E-02  0.198172476366E-02  0.211239611204E-02  0.225166215649E-02
  0.240008525776E-02  0.255826417020E-02  0.272683634186E-02  0.290648035218E-02  0.309791849466E-02
  0.330191951183E-02  0.351930148994E-02  0.375093492138E-02  0.399774594249E-02  0.426071975480E-02
  0.454090423774E-02  0.483941376074E-02  0.515743320269E-02  0.549622218639E-02  0.585711953542E-02
  0.624154796057E-02  0.665101898203E-02  0.708713809338E-02  0.755161017189E-02  0.804624513904E-02
  0.857296387329E-02  0.913380437581E-02  0.973092818742E-02  0.103666270529E-01  0.110433298257E-01
  0.117636096020E-01  0.125301910709E-01  0.133459580602E-01  0.142139612532E-01  0.151374260460E-01
  0.161197605057E-01  0.171645633827E-01  0.182756321200E-01  0.194569707911E-01  0.207127978848E-01
  0.220475538421E-01  0.234659082312E-01  0.249727664301E-01  0.265732756637E-01  0.282728302178E-01
  0.300770756267E-01  0.319919115992E-01  0.340234934140E-01  0.361782314789E-01  0.384627887032E-01
  0.408840752891E-01  0.434492404928E-01  0.461656608517E-01  0.490409243106E-01  0.520828096116E-01
  0.552992602393E-01  0.586983521327E-01  0.622882542917E-01  0.660771813139E-01  0.700733368046E-01
  0.742848465032E-01  0.787196798698E-01  0.833855587739E-01  0.882898518279E-01  0.934394528164E-01
  0.988406415857E-01  0.104498925689E+00  0.110418861038E+00  0.116603849781E+00  0.123055913671E+00
  0.129775441222E+00  0.136760907132E+00  0.144008562625E+00  0.151512095716E+00  0.159262260839E+00
  0.167246477865E+00  0.175448401329E+00  0.183847461666E+00  0.192418381520E+00  0.201130671717E+00
  0.209948113371E+00  0.218828234865E+00  0.227721795108E+00  0.236572287641E+00  0.245315483774E+00
  0.253879037110E+00  0.262182176454E+00  0.270135519259E+00  0.277641043293E+00  0.284592260042E+00
  0.290874639272E+00  0.296366339858E+00  0.300939307077E+00  0.304460800434E+00  0.306795418122E+00
  0.307807683341E+00  0.307365252904E+00  0.305342798310E+00  0.301626592093E+00  0.296119805925E+00
  0.288748489312E+00  0.279468146617E+00  0.268270763173E+00  0.255192046352E+00  0.240318543031E+00
  0.223794170538E+00  0.205825554851E+00  0.186685411340E+00  0.166713036699E+00  0.146310817843E+00
  0.125935522504E+00  0.106083042588E+00  0.872652497049E-01  0.699777371704E-01  0.546575187810E-01
  0.416302953499E-01  0.310477541844E-01  0.228166988917E-01  0.165744191197E-01  0.118994327240E-01
  0.844066552228E-02  0.591351866446E-02  0.409059454910E-02  0.279283981966E-02  0.188134271661E-02
  0.124994262604E-02  0.818737891334E-03  0.528516695678E-03  0.336086825445E-03  0.210443915841E-03
  0.129693847222E-03  0.786319464219E-04  0.468776827368E-04  0.274665137437E-04  0.158083277264E-04
  0.893263778204E-05  0.495271047820E-05  0.269293031332E-05  0.143505043571E-05  0.749033467398E-06
  0.382692875567E-06  0.191261832230E-06  0.934412899516E-07  0.445938772776E-07  0.207739784326E-07
  0.943935533048E-08  0.418023429782E-08  0.180276191690E-08  0.756458414024E-09  0.308570986603E-09
  0.122249546275E-09  0.469942030956E-10  0.175110668187E-10  0.631832866333E-11  0.220519387662E-11
  0.743641798892E-12  0.242021979575E-12  0.759286462879E-13  0.229343586167E-13  0.666119821145E-14
  0.185798406294E-14  0.497025389829E-15  0.127341159318E-15  0.312034280306E-16  0.730215436008E-17
  0.162955212106E-17  0.346248560048E-18  0.699396982111E-19  0.134081200548E-19  0.243551295308E-20
  0.418444894401E-21  0.678787865824E-22  0.103770854694E-22  0.149222291174E-23  0.201443561509E-24
  0.254771475340E-25  0.301240429432E-26  0.332275305256E-27  0.341139112902E-28  0.325242934553E-29
 pseudo wavefunction
  0.122874961095E-03  0.126870548278E-03  0.130996061987E-03  0.135255727108E-03  0.139653905910E-03
  0.144195102513E-03  0.148883967498E-03  0.153725302672E-03  0.158724065985E-03  0.163885376608E-03
  0.169214520173E-03  0.174716954189E-03  0.180398313627E-03  0.186264416697E-03  0.192321270798E-03
  0.198575078680E-03  0.205032244787E-03  0.211699381819E-03  0.218583317508E-03  0.225691101604E-03
  0.233030013098E-03  0.240607567675E-03  0.248431525412E-03  0.256509898725E-03  0.264850960571E-03
  0.273463252925E-03  0.282355595525E-03  0.291537094905E-03  0.301017153720E-03  0.310805480376E-03
  0.320912098972E-03  0.331347359565E-03  0.342121948772E-03  0.353246900708E-03  0.364733608293E-03
  0.376593834914E-03  0.388839726474E-03  0.401483823832E-03  0.414539075641E-03  0.428018851613E-03
  0.441936956210E-03  0.456307642778E-03  0.471145628147E-03  0.486466107701E-03  0.502284770939E-03
  0.518617817542E-03  0.535481973963E-03  0.552894510558E-03  0.570873259269E-03  0.589436631890E-03
  0.608603638915E-03  0.628393909013E-03  0.648827709127E-03  0.669925965227E-03  0.691710283743E-03
  0.714202973688E-03  0.737427069509E-03  0.761406354669E-03  0.786165386011E-03  0.811729518899E-03
  0.838124933189E-03  0.865378660035E-03  0.893518609572E-03  0.922573599501E-03  0.952573384594E-03
  0.983548687170E-03  0.101553122856E-02  0.104855376157E-02  0.108265010405E-02  0.111785517353E-02
  0.115420502293E-02  0.119173687752E-02  0.123048917305E-02  0.127050159508E-02  0.131181511962E-02
  0.135447205511E-02  0.139851608576E-02  0.144399231623E-02  0.149094731787E-02  0.153942917639E-02
  0.158948754110E-02  0.164117367576E-02  0.169454051106E-02  0.174964269884E-02  0.180653666804E-02
  0.186528068250E-02  0.192593490059E-02  0.198856143687E-02  0.205322442561E-02  0.211999008655E-02
  0.218892679265E-02  0.226010514011E-02  0.233359802068E-02  0.240948069628E-02  0.248783087605E-02
  0.256872879597E-02  0.265225730094E-02  0.273850192968E-02  0.282755100226E-02  0.291949571054E-02
  0.301443021158E-02  0.311245172397E-02  0.321366062742E-02  0.331816056554E-02  0.342605855188E-02
  0.353746507959E-02  0.365249423444E-02  0.377126381169E-02  0.389389543664E-02  0.402051468914E-02
  0.415125123217E-02  0.428623894453E-02  0.442561605791E-02  0.456952529837E-02  0.471811403243E-02
  0.487153441791E-02  0.502994355962E-02  0.519350367023E-02  0.536238223619E-02  0.553675218916E-02
  0.571679208301E-02  0.590268627645E-02  0.609462512175E-02  0.629280515940E-02  0.649742931928E-02
  0.670870712820E-02  0.692685492424E-02  0.715209607804E-02  0.738466122127E-02  0.762478848247E-02
  0.787272373059E-02  0.812872082635E-02  0.839304188182E-02  0.866595752836E-02  0.894774719326E-02
  0.923869938529E-02  0.953911198957E-02  0.984929257191E-02  0.101695586930E-01  0.105002382329E-01
  0.108416697257E-01  0.111942027052E-01  0.115581980621E-01  0.119340284117E-01  0.123220784749E-01
  0.127227454700E-01  0.131364395182E-01  0.135635840617E-01  0.140046162955E-01  0.144599876125E-01
  0.149301640640E-01  0.154156268336E-01  0.159168727275E-01  0.164344146800E-01  0.169687822751E-01
  0.175205222850E-01  0.180901992258E-01  0.186783959306E-01  0.192857141416E-01  0.199127751202E-01
  0.205602202771E-01  0.212287118221E-01  0.219189334349E-01  0.226315909563E-01  0.233674131021E-01
  0.241271521992E-01  0.249115849448E-01  0.257215131890E-01  0.265577647430E-01  0.274211942115E-01
  0.283126838512E-01  0.292331444566E-01  0.301835162725E-01  0.311647699347E-01  0.321779074403E-01
  0.332239631467E-01  0.343040048016E-01  0.354191346043E-01  0.365704902991E-01  0.377592463007E-01
  0.389866148544E-01  0.402538472299E-01  0.415622349507E-01  0.429131110588E-01  0.443078514174E-01
  0.457478760497E-01  0.472346505170E-01  0.487696873349E-01  0.503545474296E-01  0.519908416348E-01
  0.536802322282E-01  0.554244345106E-01  0.572252184265E-01  0.590844102268E-01  0.610038941739E-01
  0.629856142907E-01  0.650315761508E-01  0.671438487137E-01  0.693245662010E-01  0.715759300164E-01
  0.739002107074E-01  0.762997499681E-01  0.787769626829E-01  0.813343390096E-01  0.839744465000E-01
  0.866999322572E-01  0.895135251268E-01  0.924180379197E-01  0.954163696633E-01  0.985115078791E-01
  0.101706530880E+00  0.105004610085E+00  0.108409012346E+00  0.111923102282E+00  0.115550344605E+00
  0.119294306446E+00  0.123158659659E+00  0.127147183094E+00  0.131263764843E+00  0.135512404422E+00
  0.139897214896E+00  0.144422424924E+00  0.149092380704E+00  0.153911547803E+00  0.158884512850E+00
  0.164015985068E+00  0.169310797610E+00  0.174773908691E+00  0.180410402463E+00  0.186225489600E+00
  0.192224507567E+00  0.198412920514E+00  0.204796318756E+00  0.211380417779E+00  0.218171056722E+00
  0.225174196259E+00  0.232395915825E+00  0.239842410093E+00  0.247519984628E+00  0.255435050621E+00
  0.263594118597E+00  0.272003790992E+00  0.280670753475E+00  0.289601764878E+00  0.298803645591E+00
  0.308283264273E+00  0.318047522690E+00  0.328103338509E+00  0.338457625842E+00  0.349117273318E+00
  0.360089119458E+00  0.371379925079E+00  0.382996342484E+00  0.394944881114E+00  0.407231869376E+00
  0.419863412285E+00  0.432845344593E+00  0.446183179006E+00  0.459882049098E+00  0.473946646503E+00
  0.488381151946E+00  0.503189159653E+00  0.518373594677E+00  0.533936622639E+00  0.549879551414E+00
  0.566202724251E+00  0.582905403843E+00  0.599985646878E+00  0.617440168613E+00  0.635264197054E+00
  0.653451316392E+00  0.671993299394E+00  0.690879928558E+00  0.710098805947E+00  0.729635151783E+00
  0.749471592032E+00  0.769587935481E+00  0.789960941024E+00  0.810564076231E+00  0.831367268627E+00
  0.852336651557E+00  0.873434307009E+00  0.894618008364E+00  0.915840966686E+00  0.937051584925E+00
  0.958193225222E+00  0.979203995436E+00  0.100001656199E+01  0.102055799721E+01  0.104074967046E+01
  0.106050719343E+01  0.107974043133E+01  0.109835359247E+01  0.111624540996E+01  0.113330943004E+01
  0.114943442172E+01  0.116450492299E+01  0.117840193769E+01  0.119100379633E+01  0.120218719149E+01
  0.121182839503E+01  0.121980465892E+01  0.122599579474E+01  0.123028591740E+01  0.123256532683E+01
  0.123273248659E+01  0.123069604055E+01  0.122637678713E+01  0.121970950651E+01  0.121064450790E+01
  0.119914873445E+01  0.118520623131E+01  0.116881775189E+01  0.114999924931E+01  0.112877897872E+01
  0.110519292719E+01  0.107927829586E+01  0.105106479347E+01  0.102056356925E+01  0.987753727687E+00
  0.952594840321E+00  0.915298271815E+00  0.876202401676E+00  0.835653844256E+00  0.793997629766E+00
  0.751573320865E+00  0.708711386646E+00  0.665729862445E+00  0.622931312071E+00  0.580600103192E+00
  0.539000002752E+00  0.498372100096E+00  0.458933068872E+00  0.420873786618E+00  0.384358337773E+00
  0.349523430832E+00  0.316478259969E+00  0.285304831376E+00  0.256058759067E+00  0.228770511466E+00
  0.203447065556E+00  0.180073902676E+00  0.158617263023E+00  0.139026566782E+00  0.121236908984E+00
  0.105171542000E+00  0.907442723175E-01  0.778617149969E-01  0.664253678381E-01  0.563334857014E-01
  0.474827516011E-01  0.397697533664E-01  0.330922817212E-01  0.273504673536E-01  0.224477718310E-01
  0.182918418084E-01  0.147952299859E-01  0.118759815632E-01  0.945808267600E-02  0.747176780200E-02
  0.585368597835E-02  0.454693004842E-02  0.350093807081E-02  0.267128063291E-02  0.201935149036E-02
  0.151198135913E-02  0.112099571738E-02  0.822737212071E-03  0.597571913833E-03  0.429396487617E-03
  0.305160627581E-03  0.214416110523E-03  0.148900785763E-03  0.102162929368E-03  0.692287866466E-04
 ae wavefunction
  0.107659423120E-02  0.111131685047E-02  0.114715795530E-02  0.118415348326E-02  0.122234052093E-02
  0.126175734018E-02  0.130244343567E-02  0.134443956358E-02  0.138778778126E-02  0.143253148844E-02
  0.147871546942E-02  0.152638593675E-02  0.157559057610E-02  0.162637859264E-02  0.167880075868E-02
  0.173290946288E-02  0.178875876091E-02  0.184640442761E-02  0.190590401079E-02  0.196731688663E-02
  0.203070431670E-02  0.209612950672E-02  0.216365766715E-02  0.223335607546E-02  0.230529414034E-02
  0.237954346782E-02  0.245617792927E-02  0.253527373152E-02  0.261690948894E-02  0.270116629766E-02
  0.278812781203E-02  0.287788032321E-02  0.297051284007E-02  0.306611717246E-02  0.316478801683E-02
  0.326662304431E-02  0.337172299134E-02  0.348019175283E-02  0.359213647793E-02  0.370766766855E-02
  0.382689928060E-02  0.394994882802E-02  0.407693748973E-02  0.420799021947E-02  0.434323585864E-02
  0.448280725223E-02  0.462684136780E-02  0.477547941773E-02  0.492886698461E-02  0.508715414994E-02
  0.525049562623E-02  0.541905089248E-02  0.559298433308E-02  0.577246538028E-02  0.595766866014E-02
  0.614877414225E-02  0.634596729286E-02  0.654943923195E-02  0.675938689390E-02  0.697601319193E-02
  0.719952718639E-02  0.743014425686E-02  0.766808627808E-02  0.791358179976E-02  0.816686623021E-02
  0.842818202394E-02  0.869777887295E-02  0.897591390214E-02  0.926285186810E-02  0.955886536223E-02
  0.986423501724E-02  0.101792497172E-01  0.105042068116E-01  0.108394123328E-01  0.111851812167E-01
  0.115418375268E-01  0.119097146814E-01  0.122891556842E-01  0.126805133571E-01  0.130841505760E-01
  0.135004405089E-01  0.139297668563E-01  0.143725240934E-01  0.148291177135E-01  0.152999644735E-01
  0.157854926391E-01  0.162861422318E-01  0.168023652744E-01  0.173346260373E-01  0.178834012827E-01
  0.184491805083E-01  0.190324661871E-01  0.196337740062E-01  0.202536331001E-01  0.208925862803E-01
  0.215511902594E-01  0.222300158686E-01  0.229296482680E-01  0.236506871478E-01  0.243937469200E-01
  0.251594568996E-01  0.259484614720E-01  0.267614202478E-01  0.275990082008E-01  0.284619157898E-01
  0.293508490600E-01  0.302665297242E-01  0.312096952205E-01  0.321810987438E-01  0.331815092500E-01
  0.342117114295E-01  0.352725056469E-01  0.363647078449E-01  0.374891494086E-01  0.386466769866E-01
  0.398381522667E-01  0.410644517002E-01  0.423264661736E-01  0.436251006201E-01  0.449612735700E-01
  0.463359166322E-01  0.477499739031E-01  0.492044012981E-01  0.507001657982E-01  0.522382446076E-01
  0.538196242151E-01  0.554452993522E-01  0.571162718420E-01  0.588335493301E-01  0.605981438915E-01
  0.624110705032E-01  0.642733453756E-01  0.661859841331E-01  0.681499998340E-01  0.701664008205E-01
  0.722361883883E-01  0.743603542644E-01  0.765398778828E-01  0.787757234457E-01  0.810688367583E-01
  0.834201418243E-01  0.858305371891E-01  0.883008920180E-01  0.908320418923E-01  0.934247843144E-01
  0.960798739005E-01  0.987980172515E-01  0.101579867481E+00  0.104426018390E+00  0.107336998270E+00
  0.110313263310E+00  0.113355190611E+00  0.116463070766E+00  0.119637100009E+00  0.122877371906E+00
  0.126183868571E+00  0.129556451401E+00  0.132994851298E+00  0.136498658380E+00  0.140067311149E+00
  0.143700085119E+00  0.147396080881E+00  0.151154211590E+00  0.154973189882E+00  0.158851514192E+00
  0.162787454480E+00  0.166779037355E+00  0.170824030604E+00  0.174919927122E+00  0.179063928242E+00
  0.183252926498E+00  0.187483487806E+00  0.191751833104E+00  0.196053819466E+00  0.200384920720E+00
  0.204740207613E+00  0.209114327557E+00  0.213501484019E+00  0.217895415614E+00  0.222289374957E+00
  0.226676107377E+00  0.231047829564E+00  0.235396208261E+00  0.239712339121E+00  0.243986725836E+00
  0.248209259714E+00  0.252369199828E+00  0.256455153938E+00  0.260455060354E+00  0.264356170971E+00
  0.268145035680E+00  0.271807488424E+00  0.275328635141E+00  0.278692843906E+00  0.281883737556E+00
  0.284884189149E+00  0.287676320591E+00  0.290241504815E+00  0.292560371905E+00  0.294612819575E+00
  0.296378028456E+00  0.297834482632E+00  0.298959995912E+00  0.299731744333E+00  0.300126305399E+00
  0.300119704583E+00  0.299687469621E+00  0.298804693144E+00  0.297446104182E+00  0.295586149085E+00
  0.293199082389E+00  0.290259068142E+00  0.286740292189E+00  0.282617085875E+00  0.277864061589E+00
  0.272456260537E+00  0.266369313045E+00  0.259579611643E+00  0.252064497101E+00  0.243802457463E+00
  0.234773340047E+00  0.224958576238E+00  0.214341418770E+00  0.202907191031E+00  0.190643547772E+00
  0.177540746419E+00  0.163591927976E+00  0.148793406317E+00  0.133144964429E+00  0.116650155899E+00
  0.993166096879E-01  0.811563358993E-01  0.621860299096E-01  0.424273718445E-01  0.219073179606E-01
  0.658380091254E-03 -0.212811110197E-01 -0.438667628312E-01 -0.670479027131E-01 -0.907673877291E-01
 -0.114961444760E+00 -0.139559541593E+00 -0.164484288026E+00 -0.189651365330E+00 -0.214969483360E+00
 -0.240340367878E+00 -0.265658785825E+00 -0.290812622242E+00 -0.315683027631E+00 -0.340144655671E+00
 -0.364066008017E+00 -0.387309893627E+00 -0.409733999951E+00 -0.431191565210E+00 -0.451532138952E+00
 -0.470602421786E+00 -0.488247179473E+00 -0.504310230380E+00 -0.518635505333E+00 -0.531068177237E+00
 -0.541455855263E+00 -0.549649835587E+00 -0.555506399098E+00 -0.558888145317E+00 -0.559665351058E+00
 -0.557717342710E+00 -0.552933870354E+00 -0.545216472300E+00 -0.534479818482E+00 -0.520653020739E+00
 -0.503680897809E+00 -0.483525182539E+00 -0.460165657822E+00 -0.433601207414E+00 -0.403850766402E+00
 -0.370954155408E+00 -0.334972780780E+00 -0.295990182881E+00 -0.254112412216E+00 -0.209468214261E+00
 -0.162209003448E+00 -0.112508609000E+00 -0.605627792770E-01 -0.658843714327E-02  0.491773134626E-01
  0.106478420610E+00  0.165041341007E+00  0.224576701930E+00  0.284781158497E+00  0.345339461124E+00
  0.405926794441E+00  0.466211520957E+00  0.525858543572E+00  0.584533552262E+00  0.641908266345E+00
  0.697666175026E+00  0.751506987063E+00  0.803146657132E+00  0.852310599218E+00  0.898722499987E+00
  0.942097160122E+00  0.982145126258E+00  0.101858736891E+01  0.105117055687E+01  0.107967619105E+01
  0.110392382683E+01  0.112377154951E+01  0.113911599318E+01  0.114989268583E+01  0.115607668274E+01
  0.115768317720E+01  0.115476776381E+01  0.114742611124E+01  0.113579292042E+01  0.112004013664E+01
  0.110037446601E+01  0.107703428942E+01  0.105028608350E+01  0.102042046972E+01  0.987748008609E+00
  0.952594840321E+00  0.915298271815E+00  0.876202401676E+00  0.835653844256E+00  0.793997629766E+00
  0.751573320865E+00  0.708711386646E+00  0.665729862445E+00  0.622931312071E+00  0.580600103192E+00
  0.539000002752E+00  0.498372100096E+00  0.458933068872E+00  0.420873786618E+00  0.384358337773E+00
  0.349523430832E+00  0.316478259969E+00  0.285304831376E+00  0.256058759067E+00  0.228770511466E+00
  0.203447065556E+00  0.180073902676E+00  0.158617263023E+00  0.139026566782E+00  0.121236908984E+00
  0.105171542000E+00  0.907442723175E-01  0.778617149969E-01  0.664253678381E-01  0.563334857014E-01
  0.474827516011E-01  0.397697533664E-01  0.330922817212E-01  0.273504673536E-01  0.224477718310E-01
  0.182918418084E-01  0.147952299859E-01  0.118759815632E-01  0.945808267600E-02  0.747176780200E-02
  0.585368597835E-02  0.454693004842E-02  0.350093807081E-02  0.267128063291E-02  0.201935149036E-02
  0.151198135913E-02  0.112099571738E-02  0.822737212071E-03  0.597571913833E-03  0.429396487617E-03
  0.305160627581E-03  0.214416110523E-03  0.148900785763E-03  0.102162929368E-03  0.692287866466E-04
 pseudo wavefunction
  0.142174192078E-03  0.146797342105E-03  0.151570825434E-03  0.156499530532E-03  0.161588504821E-03
  0.166842959856E-03  0.172268276658E-03  0.177870011224E-03  0.183653900221E-03  0.189625866855E-03
  0.195792026942E-03  0.202158695167E-03  0.208732391556E-03  0.215519848146E-03  0.222528015885E-03
  0.229764071750E-03  0.237235426093E-03  0.244949730232E-03  0.252914884287E-03  0.261139045273E-03
  0.269630635446E-03  0.278398350936E-03  0.287451170648E-03  0.296798365458E-03  0.306449507710E-03
  0.316414481014E-03  0.326703490371E-03  0.337327072623E-03  0.348296107245E-03  0.359621827483E-03
  0.371315831860E-03  0.383390096057E-03  0.395856985169E-03  0.408729266377E-03  0.422020122017E-03
  0.435743163080E-03  0.449912443154E-03  0.464542472814E-03  0.479648234480E-03  0.495245197765E-03
  0.511349335313E-03  0.527977139159E-03  0.545145637617E-03  0.562872412717E-03  0.581175618213E-03
  0.600073998173E-03  0.619586906174E-03  0.639734325121E-03  0.660536887713E-03  0.682015897572E-03
  0.704193351057E-03  0.727091959794E-03  0.750735173931E-03  0.775147206155E-03  0.800353056486E-03
  0.826378537881E-03  0.853250302667E-03  0.880995869833E-03  0.909643653216E-03  0.939222990595E-03
  0.969764173736E-03  0.100129847941E-02  0.103385820144E-02  0.106747668374E-02  0.110218835448E-02
  0.113802876136E-02  0.117503460797E-02  0.121324379142E-02  0.125269544112E-02  0.129342995887E-02
  0.133548906021E-02  0.137891581718E-02  0.142375470237E-02  0.147005163451E-02  0.151785402549E-02
  0.156721082886E-02  0.161817259004E-02  0.167079149801E-02  0.172512143879E-02  0.178121805063E-02
  0.183913878095E-02  0.189894294518E-02  0.196069178753E-02  0.202444854366E-02  0.209027850546E-02
  0.215824908790E-02  0.222842989808E-02  0.230089280648E-02  0.237571202057E-02  0.245296416079E-02
  0.253272833902E-02  0.261508623958E-02  0.270012220287E-02  0.278792331171E-02  0.287857948056E-02
  0.297218354753E-02  0.306883136947E-02  0.316862192010E-02  0.327165739139E-02  0.337804329811E-02
  0.348788858596E-02  0.360130574305E-02  0.371841091509E-02  0.383932402428E-02  0.396416889215E-02
  0.409307336624E-02  0.422616945104E-02  0.436359344315E-02  0.450548607072E-02  0.465199263762E-02
  0.480326317209E-02  0.495945258039E-02  0.512072080531E-02  0.528723298992E-02  0.545915964657E-02
  0.563667683144E-02  0.581996632471E-02  0.600921581661E-02  0.620461909949E-02  0.640637626614E-02
  0.661469391456E-02  0.682978535932E-02  0.705187084988E-02  0.728117779585E-02  0.751794099973E-02
  0.776240289705E-02  0.801481380439E-02  0.827543217543E-02  0.854452486522E-02  0.882236740317E-02
  0.910924427476E-02  0.940544921239E-02  0.971128549575E-02  0.100270662618E-01  0.103531148249E-01
  0.106897650071E-01  0.110373614794E-01  0.113962601141E-01  0.117668283477E-01  0.121494455569E-01
  0.125445034458E-01  0.129524064456E-01  0.133735721277E-01  0.138084316301E-01  0.142574300967E-01
  0.147210271320E-01  0.151996972697E-01  0.156939304561E-01  0.162042325504E-01  0.167311258393E-01
  0.172751495694E-01  0.178368604965E-01  0.184168334520E-01  0.190156619279E-01  0.196339586806E-01
  0.202723563536E-01  0.209315081205E-01  0.216120883483E-01  0.223147932820E-01  0.230403417506E-01
  0.237894758963E-01  0.245629619260E-01  0.253615908873E-01  0.261861794682E-01  0.270375708236E-01
  0.279166354255E-01  0.288242719425E-01  0.297614081449E-01  0.307290018392E-01  0.317280418311E-01
  0.327595489193E-01  0.338245769192E-01  0.349242137190E-01  0.360595823678E-01  0.372318421975E-01
  0.384421899790E-01  0.396918611130E-01  0.409821308579E-01  0.423143155937E-01  0.436897741247E-01
  0.451099090203E-01  0.465761679962E-01  0.480900453355E-01  0.496530833523E-01  0.512668738968E-01
  0.529330599042E-01  0.546533369875E-01  0.564294550756E-01  0.582632200966E-01  0.601564957079E-01
  0.621112050730E-01  0.641293326868E-01  0.662129262481E-01  0.683640985817E-01  0.705850296089E-01
  0.728779683682E-01  0.752452350842E-01  0.776892232872E-01  0.802124019811E-01  0.828173178606E-01
  0.855065975768E-01  0.882829500498E-01  0.911491688282E-01  0.941081344934E-01  0.971628171072E-01
  0.100316278700E+00  0.103571675801E+00  0.106932261998E+00  0.110401390535E+00  0.113982516936E+00
  0.117679201656E+00  0.121495112739E+00  0.125434028505E+00  0.129499840227E+00  0.133696554814E+00
  0.138028297478E+00  0.142499314382E+00  0.147113975250E+00  0.151876775935E+00  0.156792340923E+00
  0.161865425758E+00  0.167100919379E+00  0.172503846331E+00  0.178079368847E+00  0.183832788759E+00
  0.189769549220E+00  0.195895236210E+00  0.202215579774E+00  0.208736454974E+00  0.215463882497E+00
  0.222404028889E+00  0.229563206347E+00  0.236947872016E+00  0.244564626747E+00  0.252420213213E+00
  0.260521513344E+00  0.268875544971E+00  0.277489457599E+00  0.286370527210E+00  0.295526149984E+00
  0.304963834812E+00  0.314691194489E+00  0.324715935417E+00  0.335045845680E+00  0.345688781324E+00
  0.356652650635E+00  0.367945396240E+00  0.379574974791E+00  0.391549334007E+00  0.403876386817E+00
  0.416563982317E+00  0.429619873252E+00  0.443051679704E+00  0.456866848630E+00  0.471072608882E+00
  0.485675921331E+00  0.500683423645E+00  0.516101369305E+00  0.531935560367E+00  0.548191273475E+00
  0.564873178619E+00  0.581985250072E+00  0.599530668965E+00  0.617511716912E+00  0.635929660088E+00
  0.654784623191E+00  0.674075452668E+00  0.693799568651E+00  0.713952805041E+00  0.734529237221E+00
  0.755520996958E+00  0.776918074101E+00  0.798708104802E+00  0.820876146132E+00  0.843404437085E+00
  0.866272146222E+00  0.889455106421E+00  0.912925537497E+00  0.936651757851E+00  0.960597886684E+00
  0.984723538831E+00  0.100898351485E+01  0.103332748965E+01  0.105769970365E+01  0.108203866142E+01
  0.110627684354E+01  0.113034043861E+01  0.115414910332E+01  0.117761575980E+01  0.120064644076E+01
  0.122314019404E+01  0.124498905986E+01  0.126607813480E+01  0.128628573821E+01  0.130548369709E+01
  0.132353776650E+01  0.134030820230E+01  0.135565050264E+01  0.136941633293E+01  0.138145464673E+01
  0.139161301060E+01  0.139973913558E+01  0.140568261000E+01  0.140929681781E+01  0.141044101395E+01
  0.140898251167E+01  0.140479891713E+01  0.139778032339E+01  0.138783134925E+01  0.137487287844E+01
  0.135884332280E+01  0.133969919993E+01  0.131741478429E+01  0.129198056347E+01  0.126340021241E+01
  0.123168579438E+01  0.119685091437E+01  0.115890159751E+01  0.111782475325E+01  0.107357422481E+01
  0.102608997600E+01  0.975571098551E+00  0.922364219711E+00  0.866812643070E+00  0.000000000000E+00
  0.000000000000E+00  0.000000000000E+00  0.000000000000E+00  0.000000000000E+00  0.000000000000E+00
  0.000000000000E+00  0.000000000000E+00  0.000000000000E+00  0.000000000000E+00  0.000000000000E+00
  0.000000000000E+00  0.000000000000E+00  0.000000000000E+00  0.000000000000E+00  0.000000000000E+00
  0.000000000000E+00  0.000000000000E+00  0.000000000000E+00  0.000000000000E+00  0.000000000000E+00
  0.000000000000E+00  0.000000000000E+00  0.000000000000E+00  0.000000000000E+00  0.000000000000E+00
  0.000000000000E+00  0.000000000000E+00  0.000000000000E+00  0.000000000000E+00  0.000000000000E+00
  0.000000000000E+00  0.000000000000E+00  0.000000000000E+00  0.000000000000E+00  0.000000000000E+00
  0.000000000000E+00  0.000000000000E+00  0.000000000000E+00  0.000000000000E+00  0.000000000000E+00
  0.000000000000E+00  0.000000000000E+00  0.000000000000E+00  0.000000000000E+00  0.000000000000E+00
  0.000000000000E+00  0.000000000000E+00  0.000000000000E+00  0.000000000000E+00  0.000000000000E+00
 ae wavefunction
  0.123947686079E-02  0.127945281627E-02  0.132071647786E-02  0.136330922027E-02  0.140727374105E-02
  0.145265410242E-02  0.149949577435E-02  0.154784567919E-02  0.159775223734E-02  0.164926541464E-02
  0.170243677103E-02  0.175731951073E-02  0.181396853400E-02  0.187244049047E-02  0.193279383399E-02
  0.199508887935E-02  0.205938786053E-02  0.212575499079E-02  0.219425652460E-02  0.226496082140E-02
  0.233793841130E-02  0.241326206268E-02  0.249100685197E-02  0.257125023534E-02  0.265407212263E-02
  0.273955495343E-02  0.282778377546E-02  0.291884632518E-02  0.301283311086E-02  0.310983749804E-02
  0.320995579748E-02  0.331328735569E-02  0.341993464809E-02  0.353000337483E-02  0.364360255937E-02
  0.376084464995E-02  0.388184562385E-02  0.400672509466E-02  0.413560642261E-02  0.426861682789E-02
  0.440588750730E-02  0.454755375396E-02  0.469375508046E-02  0.484463534531E-02  0.500034288288E-02
  0.516103063683E-02  0.532685629714E-02  0.549798244079E-02  0.567457667616E-02  0.585681179122E-02
  0.604486590558E-02  0.623892262650E-02  0.643917120875E-02  0.664580671870E-02  0.685903020231E-02
  0.707904885750E-02  0.730607621049E-02  0.754033229660E-02  0.778204384520E-02  0.803144446907E-02
  0.828877485819E-02  0.855428297778E-02  0.882822427090E-02  0.911086186547E-02  0.940246678568E-02
  0.970331816795E-02  0.100137034812E-01  0.103339187517E-01  0.106642687922E-01  0.110050674355E-01
  0.113566377723E-01  0.117193123931E-01  0.120934336345E-01  0.124793538298E-01  0.128774355626E-01
  0.132880519251E-01  0.137115867801E-01  0.141484350252E-01  0.145990028622E-01  0.150637080678E-01
  0.155429802679E-01  0.160372612146E-01  0.165470050643E-01  0.170726786591E-01  0.176147618082E-01
  0.181737475714E-01  0.187501425422E-01  0.193444671317E-01  0.199572558509E-01  0.205890575931E-01
  0.212404359135E-01  0.219119693058E-01  0.226042514768E-01  0.233178916153E-01  0.240535146562E-01
  0.248117615386E-01  0.255932894563E-01  0.263987720995E-01  0.272288998869E-01  0.280843801863E-01
  0.289659375229E-01  0.298743137724E-01  0.308102683391E-01  0.317745783144E-01  0.327680386177E-01
  0.337914621124E-01  0.348456797001E-01  0.359315403862E-01  0.370499113168E-01  0.382016777833E-01
  0.393877431918E-01  0.406090289937E-01  0.418664745750E-01  0.431610371000E-01  0.444936913056E-01
  0.458654292426E-01  0.472772599586E-01  0.487302091194E-01  0.502253185627E-01  0.517636457792E-01
  0.533462633168E-01  0.549742580989E-01  0.566487306556E-01  0.583707942555E-01  0.601415739364E-01
  0.619622054242E-01  0.638338339332E-01  0.657576128410E-01  0.677347022273E-01  0.697662672697E-01
  0.718534764849E-01  0.739974998083E-01  0.761995064980E-01  0.784606628558E-01  0.807821297515E-01
  0.831650599393E-01  0.856105951546E-01  0.881198629764E-01  0.906939734441E-01  0.933340154129E-01
  0.960410526339E-01  0.988161195438E-01  0.101660216749E+00  0.104574306186E+00  0.107559305946E+00
  0.110616084736E+00  0.113745455981E+00  0.116948171515E+00  0.120224914881E+00  0.123576294188E+00
  0.127002834528E+00  0.130504969927E+00  0.134083034803E+00  0.137737254929E+00  0.141467737858E+00
  0.145274462822E+00  0.149157270048E+00  0.153115849513E+00  0.157149729088E+00  0.161258262071E+00
  0.165440614090E+00  0.169695749359E+00  0.174022416274E+00  0.178419132347E+00  0.182884168448E+00
  0.187415532372E+00  0.192010951714E+00  0.196667856044E+00  0.201383358410E+00  0.206154236145E+00
  0.210976911010E+00  0.215847428682E+00  0.220761437609E+00  0.225714167266E+00  0.230700405831E+00
  0.235714477347E+00  0.240750218400E+00  0.245800954384E+00  0.250859475423E+00  0.255918012020E+00
  0.260968210546E+00  0.266001108644E+00  0.271007110699E+00  0.275975963478E+00  0.280896732106E+00
  0.285757776536E+00  0.290546728692E+00  0.295250470495E+00  0.299855112975E+00  0.304345976730E+00
  0.308707573973E+00  0.312923592467E+00  0.316976881638E+00  0.320849441221E+00  0.324522412757E+00
  0.327976074367E+00  0.331189839154E+00  0.334142257723E+00  0.336811025214E+00  0.339172993378E+00
  0.341204188168E+00  0.342879833391E+00  0.344174380959E+00  0.345061548319E+00  0.345514363640E+00
  0.345505219371E+00  0.345005934767E+00  0.343987828028E+00  0.342421798654E+00  0.340278420649E+00
  0.337528047184E+00  0.334140927314E+00  0.330087335312E+00  0.325337713177E+00  0.319862826769E+00
  0.313633936048E+00  0.306622979753E+00  0.298802774807E+00  0.290147230655E+00  0.280631578587E+00
  0.270232616010E+00  0.258928965474E+00  0.246701348088E+00  0.233532870826E+00  0.219409326976E+00
  0.204319508825E+00  0.188255531427E+00  0.171213166060E+00  0.153192181708E+00  0.134196692631E+00
  0.114235509747E+00  0.933224931973E-01  0.714769030586E-01  0.487237447375E-01  0.250941050745E-01
  0.625474740592E-03 -0.246379478875E-01 -0.506449763665E-01 -0.773371841201E-01 -0.104648684678E+00
 -0.132505946833E+00 -0.160827645441E+00 -0.189524546789E+00 -0.218499426610E+00 -0.247647019978E+00
 -0.276854006021E+00 -0.305999036406E+00 -0.334952823396E+00 -0.363578309142E+00 -0.391730939167E+00
 -0.419259059340E+00 -0.446004444934E+00 -0.471802958727E+00 -0.496485325777E+00 -0.519878010156E+00
 -0.541804183214E+00 -0.562084777860E+00 -0.580539627800E+00 -0.596988690624E+00 -0.611253351835E+00
 -0.623157803830E+00 -0.632530490699E+00 -0.639205607862E+00 -0.643024644217E+00 -0.643837953651E+00
 -0.641506343191E+00 -0.635902664255E+00 -0.626913393955E+00 -0.614440193141E+00 -0.598401427495E+00
 -0.578733637660E+00 -0.555392944041E+00 -0.528356370765E+00 -0.497623072836E+00 -0.463215448918E+00
 -0.425180121382E+00 -0.383588763085E+00 -0.338538750214E+00 -0.290153617716E+00 -0.238583295173E+00
 -0.184004100449E+00 -0.126618471021E+00 -0.666544175010E-01 -0.436469052956E-02  0.599743388722E-01
  0.126064075162E+00  0.193585352011E+00  0.262200323217E+00  0.331554579770E+00  0.401279510802E+00
  0.470994979778E+00  0.540312470349E+00  0.608838949077E+00  0.676181750433E+00  0.741954610076E+00
  0.805784268204E+00  0.867315574818E+00  0.926211486605E+00  0.982145216960E+00  0.103478734879E+01
  0.108379763740E+01  0.112883042271E+01  0.116955159351E+01  0.120565619732E+01  0.123687895261E+01
  0.126299795010E+01  0.128383519381E+01  0.129925661327E+01  0.130917243867E+01  0.131353788631E+01
  0.131235378938E+01  0.130566679469E+01  0.129356884058E+01  0.127619576883E+01  0.125372502873E+01
  0.122637252477E+01  0.119438870687E+01  0.115805401854E+01  0.111767382963E+01  0.107357297204E+01
  0.102608997600E+01  0.975571098551E+00  0.922364219711E+00  0.866812643070E+00  0.000000000000E+00
  0.000000000000E+00  0.000000000000E+00  0.000000000000E+00  0.000000000000E+00  0.000000000000E+00
  0.000000000000E+00  0.000000000000E+00  0.000000000000E+00  0.000000000000E+00  0.000000000000E+00
  0.000000000000E+00  0.000000000000E+00  0.000000000000E+00  0.000000000000E+00  0.000000000000E+00
  0.000000000000E+00  0.000000000000E+00  0.000000000000E+00  0.000000000000E+00  0.000000000000E+00
  0.000000000000E+00  0.000000000000E+00  0.000000000000E+00  0.000000000000E+00  0.000000000000E+00
  0.000000000000E+00  0.000000000000E+00  0.000000000000E+00  0.000000000000E+00  0.000000000000E+00
  0.000000000000E+00  0.000000000000E+00  0.000000000000E+00  0.000000000000E+00  0.000000000000E+00
  0.000000000000E+00  0.000000000000E+00  0.000000000000E+00  0.000000000000E+00  0.000000000000E+00
  0.000000000000E+00  0.000000000000E+00  0.000000000000E+00  0.000000000000E+00  0.000000000000E+00
  0.000000000000E+00  0.000000000000E+00  0.000000000000E+00  0.000000000000E+00  0.000000000000E+00
 pseudo wavefunction
  0.677635619564E-08  0.722422183019E-08  0.770168797866E-08  0.821071101002E-08  0.875337659432E-08
  0.933190824856E-08  0.994867644728E-08  0.106062083354E-07  0.113071980829E-07  0.120545179239E-07
  0.128512299253E-07  0.137005985335E-07  0.146061039498E-07  0.155714563904E-07  0.166006112886E-07
  0.176977855019E-07  0.188674745897E-07  0.201144712339E-07  0.214438848762E-07  0.228611626536E-07
  0.243721117172E-07  0.259829230268E-07  0.277001967175E-07  0.295309691432E-07  0.314827417072E-07
  0.335635115984E-07  0.357818045592E-07  0.381467098186E-07  0.406679173346E-07  0.433557574975E-07
  0.462212434579E-07  0.492761162518E-07  0.525328929085E-07  0.560049177373E-07  0.597064170050E-07
  0.636525572263E-07  0.678595073071E-07  0.723445047946E-07  0.771259265069E-07  0.822233638297E-07
  0.876577029898E-07  0.934512106348E-07  0.996276250679E-07  0.106212253513E-06  0.113232075809E-06
  0.120715854957E-06  0.128694254971E-06  0.137199966524E-06  0.146267840894E-06  0.155935032760E-06
  0.166241152444E-06  0.177228428207E-06  0.188941879275E-06  0.201429500301E-06  0.214742458020E-06
  0.228935300893E-06  0.244066182620E-06  0.260197100415E-06  0.277394149034E-06  0.295727791587E-06
  0.315273148261E-06  0.336110304107E-06  0.358324637186E-06  0.382007168391E-06  0.407254934402E-06
  0.434171385272E-06  0.462866808311E-06  0.493458779971E-06  0.526072647600E-06  0.560842043041E-06
  0.597909430170E-06  0.637426688625E-06  0.679555736115E-06  0.724469191856E-06  0.772351083854E-06
  0.823397602941E-06  0.877817906639E-06  0.935834976153E-06  0.997686530009E-06  0.106362599807E-05
  0.113392355994E-05  0.120886725197E-05  0.128876414745E-05  0.137394161481E-05  0.146474865895E-05
  0.156155735123E-05  0.166476435398E-05  0.177479254578E-05  0.189209275409E-05  0.201714560248E-05
  0.215046347988E-05  0.229259264002E-05  0.244411543957E-05  0.260565272428E-05  0.277786637274E-05
  0.296146200834E-05  0.315719189033E-05  0.336585799615E-05  0.358831530727E-05  0.382547531231E-05
  0.407830974167E-05  0.434785454890E-05  0.463521415532E-05  0.494156597503E-05  0.526816523909E-05
  0.561635013842E-05  0.598754730667E-05  0.638327766538E-05  0.680516265545E-05  0.725493088047E-05
  0.773442518901E-05  0.824561022501E-05  0.879058047715E-05  0.937156886012E-05  0.999095586302E-05
  0.106512793023E-04  0.113552447194E-04  0.121057364651E-04  0.129058295167E-04  0.137588020760E-04
  0.146681489999E-04  0.156375961183E-04  0.166711154983E-04  0.177729417167E-04  0.189475892085E-04
  0.201998707610E-04  0.215349172303E-04  0.229581985604E-04  0.244755461917E-04  0.260931769491E-04
  0.278177185093E-04  0.296562365503E-04  0.316162636953E-04  0.337058303676E-04  0.359334976853E-04
  0.383083925288E-04  0.408402449240E-04  0.435394278970E-04  0.464169999595E-04  0.494847504020E-04
  0.527552475784E-04  0.562418903802E-04  0.599589631094E-04  0.639216939772E-04  0.681463174652E-04
  0.726501408046E-04  0.774516148465E-04  0.825704096114E-04  0.880274948266E-04  0.938452257824E-04
  0.100047434856E-03  0.106659529074E-03  0.113708594126E-03  0.121223505227E-03  0.129235045309E-03
  0.137776031013E-03  0.146881446984E-03  0.156588589039E-03  0.166937216771E-03  0.177969716224E-03
  0.189731273299E-03  0.202270058589E-03  0.215637424408E-03  0.229888114805E-03  0.245080489425E-03
  0.261276762121E-03  0.278543255287E-03  0.296950670953E-03  0.316574379724E-03  0.337494728756E-03
  0.359797370003E-03  0.383573610065E-03  0.408920783060E-03  0.435942648019E-03  0.464749812416E-03
  0.495460183531E-03  0.528199449485E-03  0.563101591861E-03  0.600309431986E-03  0.639975213070E-03
  0.682261220525E-03  0.727340442963E-03  0.775397276506E-03  0.826628275225E-03  0.881242950700E-03
  0.939464623877E-03  0.100153133261E-02  0.106769679848E-02  0.113823145673E-02  0.121342355333E-02
  0.129358031354E-02  0.137902918654E-02  0.147011917101E-02  0.156722222670E-02  0.167073477775E-02
  0.178107931326E-02  0.189870609148E-02  0.202409495416E-02  0.215775725789E-02  0.230023792984E-02
  0.245211765568E-02  0.261401520795E-02  0.278658992344E-02  0.297054433900E-02  0.316662699533E-02
  0.337563541908E-02  0.359841929417E-02  0.383588383360E-02  0.408899336392E-02  0.435877513495E-02
  0.464632336807E-02  0.495280355704E-02  0.527945703611E-02  0.562760583056E-02  0.599865780597E-02
  0.639411213283E-02  0.681556508392E-02  0.726471618285E-02  0.774337472234E-02  0.825346667198E-02
  0.879704199548E-02  0.937628239825E-02  0.999350952648E-02  0.106511936395E-01  0.113519627773E-01
  0.120986124460E-01  0.128941158428E-01  0.137416346434E-01  0.146445303735E-01  0.156063763865E-01
  0.166309704663E-01  0.177223480767E-01  0.188847962734E-01  0.201228682958E-01  0.214413988502E-01
  0.228455200951E-01  0.243406783343E-01  0.259326514189E-01  0.276275668522E-01  0.294319205873E-01
  0.313525964964E-01  0.333968864824E-01  0.355725111916E-01  0.378876412743E-01  0.403509191230E-01
  0.429714810018E-01  0.457589794607E-01  0.487236059030E-01  0.518761131506E-01  0.552278378191E-01
  0.587907222828E-01  0.625773359678E-01  0.666008956706E-01  0.708752845486E-01  0.754150693740E-01
  0.802355155792E-01  0.853525995569E-01  0.907830175952E-01  0.965441907499E-01  0.102654264857E+00
  0.109132104794E+00  0.115997281968E+00  0.123270053925E+00  0.130971334795E+00  0.139122655188E+00
  0.147746109989E+00  0.156864292351E+00  0.166500212006E+00  0.176677195887E+00  0.187418768837E+00
  0.198748512052E+00  0.210689896747E+00  0.223266090374E+00  0.236499732611E+00  0.250412678279E+00
  0.265025704248E+00  0.280358177476E+00  0.296427681373E+00  0.313249597893E+00  0.330836643078E+00
  0.349198354232E+00  0.368340527566E+00  0.388264605991E+00  0.408967017909E+00  0.430438469215E+00
  0.452663192521E+00  0.475618159771E+00  0.499272266974E+00  0.523585502848E+00  0.548508116731E+00
  0.573979805155E+00  0.599928941075E+00  0.626271874755E+00  0.652912340729E+00  0.679741010913E+00
  0.706635239589E+00  0.733459051361E+00  0.760063427792E+00  0.786286951812E+00  0.811956870212E+00
  0.836890632919E+00  0.860897961951E+00  0.883783491753E+00  0.905350004437E+00  0.925402256637E+00
  0.943751357373E+00  0.960219606855E+00  0.974645642945E+00  0.986889664110E+00  0.996838404958E+00
  0.100440943428E+01  0.100955422915E+01  0.101225935861E+01  0.101254499610E+01  0.101045988700E+01
  0.100607184514E+01  0.999452868275E+00  0.990658079673E+00  0.979697960606E+00  0.966503781248E+00
  0.950915604569E+00  0.932963838356E+00  0.912798123130E+00  0.890585456604E+00  0.866502319806E+00
  0.840732903579E+00  0.813467369092E+00  0.784900139488E+00  0.755228215538E+00  0.724649507087E+00
  0.693361158873E+00  0.661557861218E+00  0.629430136316E+00  0.597162609800E+00  0.564932290002E+00
  0.532906928013E+00  0.501243458720E+00  0.470086683689E+00  0.439568202965E+00  0.409805680948E+00
  0.380902477544E+00  0.352947650945E+00  0.326016307993E+00  0.300170250779E+00  0.275458847007E+00
  0.251920038634E+00  0.229581399161E+00  0.208461155074E+00  0.188569100977E+00  0.169907359797E+00
  0.152470966888E+00  0.136248286153E+00  0.121221292823E+00  0.107365776811E+00  0.946515292503E-01
  0.830425723572E-01  0.724974805649E-01  0.629698226975E-01  0.544087347694E-01  0.467596145173E-01
  0.399649144083E-01  0.339650006920E-01  0.286990420017E-01  0.241058912578E-01  0.201249280373E-01
  0.166968339963E-01  0.137642803452E-01  0.112725130113E-01  0.916982741956E-02  0.740793044972E-02
  0.594219188888E-02  0.473179153229E-02  0.373977098768E-02  0.293300127412E-02  0.228207855311E-02
 ae wavefunction
 -0.451981104250E-06 -0.479427153534E-06 -0.508398850896E-06 -0.538989394083E-06 -0.571297334879E-06
 -0.605426915816E-06 -0.641488428041E-06 -0.679598583748E-06 -0.719880923325E-06 -0.762466234859E-06
 -0.807493009336E-06 -0.855107919171E-06 -0.905466326433E-06 -0.958732823594E-06 -0.101508180983E-05
 -0.107469809839E-05 -0.113777756691E-05 -0.120452784628E-05 -0.127516905200E-05 -0.134993456255E-05
 -0.142907184753E-05 -0.151284334653E-05 -0.160152740354E-05 -0.169541926200E-05 -0.179483212105E-05
 -0.190009825997E-05 -0.201157023326E-05 -0.212962214216E-05 -0.225465098669E-05 -0.238707810453E-05
 -0.252735069977E-05 -0.267594347263E-05 -0.283336034931E-05 -0.300013632571E-05 -0.317683942725E-05
 -0.336407279523E-05 -0.356247690651E-05 -0.377273193581E-05 -0.399556026958E-05 -0.423172918169E-05
 -0.448205368098E-05 -0.474739954163E-05 -0.502868652938E-05 -0.532689183520E-05 -0.564305372980E-05
 -0.597827545441E-05 -0.633372936192E-05 -0.671066132534E-05 -0.711039542968E-05 -0.753433897009E-05
 -0.798398776781E-05 -0.846093183105E-05 -0.896686138544E-05 -0.950357328524E-05 -0.100729778495E-04
 -0.106771061273E-04 -0.113181176444E-04 -0.119983086400E-04 -0.127201208426E-04 -0.134861508070E-04
 -0.142991598573E-04 -0.151620846710E-04 -0.160780485446E-04 -0.170503733868E-04 -0.180825924860E-04
 -0.191784640970E-04 -0.203419859148E-04 -0.215774104548E-04 -0.228892614670E-04 -0.242823513551E-04
 -0.257617997528E-04 -0.273330532877E-04 -0.290019066114E-04 -0.307745247684E-04 -0.326574670297E-04
 -0.346577122305E-04 -0.367826857484E-04 -0.390402881979E-04 -0.414389259738E-04 -0.439875437396E-04
 -0.466956590082E-04 -0.495733989024E-04 -0.526315393059E-04 -0.558815464717E-04 -0.593356213032E-04
 -0.630067464457E-04 -0.669087363834E-04 -0.710562907056E-04 -0.754650507707E-04 -0.801516599416E-04
 -0.851338276595E-04 -0.904303975502E-04 -0.960614198481E-04 -0.102048228378E-03 -0.108413522396E-03
 -0.115181453578E-03 -0.122377718464E-03 -0.130029656722E-03 -0.138166355547E-03 -0.146818760593E-03
 -0.156019793844E-03 -0.165804478807E-03 -0.176210073516E-03 -0.187276211778E-03 -0.199045053172E-03
 -0.211561442318E-03 -0.224873078016E-03 -0.239030692721E-03 -0.254088243106E-03 -0.270103112285E-03
 -0.287136324368E-03 -0.305252772149E-03 -0.324521458585E-03 -0.345015752937E-03 -0.366813662422E-03
 -0.389998120164E-03 -0.414657290534E-03 -0.440884892697E-03 -0.468780543503E-03 -0.498450120770E-03
 -0.530006148044E-03 -0.563568202118E-03 -0.599263344453E-03 -0.637226577858E-03 -0.677601329795E-03
 -0.720539963662E-03 -0.766204319626E-03 -0.814766286485E-03 -0.866408406199E-03 -0.921324512750E-03
 -0.979720407090E-03 -0.104181456996E-02 -0.110783891449E-02 -0.117803958047E-02 -0.125267777235E-02
 -0.133203064296E-02 -0.141639222524E-02 -0.150607441392E-02 -0.160140799965E-02 -0.170274375770E-02
 -0.181045359368E-02 -0.192493174862E-02 -0.204659606581E-02 -0.217588932195E-02 -0.231328062495E-02
 -0.245926688094E-02 -0.261437433291E-02 -0.277916017351E-02 -0.295421423430E-02 -0.314016075385E-02
 -0.333766022711E-02 -0.354741133795E-02 -0.377015297717E-02 -0.400666634785E-02 -0.425777715959E-02
 -0.452435791335E-02 -0.480733027794E-02 -0.510766755926E-02 -0.542639726271E-02 -0.576460374899E-02
 -0.612343098308E-02 -0.650408537537E-02 -0.690783871372E-02 -0.733603118430E-02 -0.779007447823E-02
 -0.827145498047E-02 -0.878173703635E-02 -0.932256628988E-02 -0.989567308723E-02 -0.105028759372E-01
 -0.111460850190E-01 -0.118273057268E-01 -0.125486422379E-01 -0.133123010898E-01 -0.141205947507E-01
 -0.149759451632E-01 -0.158808872413E-01 -0.168380722971E-01 -0.178502713699E-01 -0.189203784296E-01
 -0.200514134210E-01 -0.212465251145E-01 -0.225089937218E-01 -0.238422332362E-01 -0.252497934469E-01
 -0.267353615787E-01 -0.283027634993E-01 -0.299559644340E-01 -0.316990691212E-01 -0.335363213391E-01
 -0.354721027254E-01 -0.375109308101E-01 -0.396574561712E-01 -0.419164586225E-01 -0.442928423313E-01
 -0.467916297631E-01 -0.494179543393E-01 -0.521770516936E-01 -0.550742493999E-01 -0.581149550477E-01
 -0.613046425268E-01 -0.646488363850E-01 -0.681530941155E-01 -0.718229862252E-01 -0.756640739368E-01
 -0.796818843719E-01 -0.838818830621E-01 -0.882694436374E-01 -0.928498145421E-01 -0.976280826311E-01
 -0.102609133509E+00 -0.107797608474E+00 -0.113197857959E+00 -0.118813891337E+00 -0.124649323024E+00
 -0.130707314791E+00 -0.136990514236E+00 -0.143500989391E+00 -0.150240159472E+00 -0.157208721807E+00
 -0.164406575017E+00 -0.171832738572E+00 -0.179485268882E+00 -0.187361172153E+00 -0.195456314278E+00
 -0.203765328104E+00 -0.212281518527E+00 -0.220996765891E+00 -0.229901428344E+00 -0.238984243873E+00
 -0.248232232903E+00 -0.257630602502E+00 -0.267162653369E+00 -0.276809690987E+00 -0.286550942361E+00
 -0.296363479797E+00 -0.306222153012E+00 -0.316099530263E+00 -0.325965848577E+00 -0.335788971734E+00
 -0.345534353546E+00 -0.355165002783E+00 -0.364641446048E+00 -0.373921686322E+00 -0.382961158235E+00
 -0.391712686090E+00 -0.400126455902E+00 -0.408150016879E+00 -0.415728329302E+00 -0.422803872352E+00
 -0.429316818734E+00 -0.435205272001E+00 -0.440405554344E+00 -0.444852528783E+00 -0.448479942623E+00
 -0.451220786300E+00 -0.453007667368E+00 -0.453773203197E+00 -0.453450435530E+00 -0.451973268355E+00
 -0.449276928417E+00 -0.445298445794E+00 -0.439977151292E+00 -0.433255187099E+00 -0.425078027159E+00
 -0.415395004466E+00 -0.404159842239E+00 -0.391331186534E+00 -0.376873137777E+00 -0.360755778559E+00
 -0.342955694851E+00 -0.323456487549E+00 -0.302249270482E+00 -0.279333150658E+00 -0.254715685387E+00
 -0.228413310268E+00 -0.200451730530E+00 -0.170866267813E+00 -0.139702152575E+00 -0.107014752622E+00
 -0.728697275544E-01 -0.373430998875E-01 -0.521235601307E-03  0.374992699753E-01  0.766118008034E-01
  0.116700018437E+00  0.157638241895E+00  0.199291901700E+00  0.241518068741E+00  0.284166078996E+00
  0.327078310993E+00  0.370091227939E+00  0.413036857752E+00  0.455744924265E+00  0.498045727600E+00
  0.539773412610E+00  0.580768282790E+00  0.620875784904E+00  0.659940326738E+00  0.697795725163E+00
  0.734258704566E+00  0.769131461823E+00  0.802212104755E+00  0.833305795377E+00  0.862231394333E+00
  0.888823727757E+00  0.912933899067E+00  0.934429432555E+00  0.953194881827E+00  0.969132894427E+00
  0.982165499183E+00  0.992235357303E+00  0.999306768519E+00  0.100336630768E+01  0.100442303333E+01
  0.100250827235E+01  0.997675018181E+00  0.989996993480E+00  0.979567439520E+00  0.966497693634E+00
  0.950915604569E+00  0.932963838356E+00  0.912798123130E+00  0.890585456604E+00  0.866502319806E+00
  0.840732903579E+00  0.813467369092E+00  0.784900139488E+00  0.755228215538E+00  0.724649507087E+00
  0.693361158873E+00  0.661557861218E+00  0.629430136316E+00  0.597162609800E+00  0.564932290002E+00
  0.532906928013E+00  0.501243458720E+00  0.470086683689E+00  0.439568202965E+00  0.409805680948E+00
  0.380902477544E+00  0.352947650945E+00  0.326016307993E+00  0.300170250779E+00  0.275458847007E+00
  0.251920038634E+00  0.229581399161E+00  0.208461155074E+00  0.188569100977E+00  0.169907359797E+00
  0.152470966888E+00  0.136248286153E+00  0.121221292823E+00  0.107365776811E+00  0.946515292503E-01
  0.830425723572E-01  0.724974805649E-01  0.629698226975E-01  0.544087347694E-01  0.467596145173E-01
  0.399649144083E-01  0.339650006920E-01  0.286990420017E-01  0.241058912578E-01  0.201249280373E-01
  0.166968339963E-01  0.137642803452E-01  0.112725130113E-01  0.916982741956E-02  0.740793044972E-02
  0.594219188888E-02  0.473179153229E-02  0.373977098768E-02  0.293300127412E-02  0.228207855311E-02
 pseudo wavefunction
  0.949322754125E-08  0.101206577196E-07  0.107895562632E-07  0.115026639158E-07  0.122629025634E-07
  0.130733872065E-07  0.139374387234E-07  0.148585974772E-07  0.158406378221E-07  0.168875835685E-07
  0.180037244700E-07  0.191936338001E-07  0.204621870913E-07  0.218145821115E-07  0.232563601614E-07
  0.247934287797E-07  0.264320859486E-07  0.281790458988E-07  0.300414666206E-07  0.320269791933E-07
  0.341437190520E-07  0.364003593228E-07  0.388061463588E-07  0.413709376273E-07  0.441052420987E-07
  0.470202633068E-07  0.501279452535E-07  0.534410213484E-07  0.569730665826E-07  0.607385531508E-07
  0.647529097496E-07  0.690325847952E-07  0.735951138186E-07  0.784591913161E-07  0.836447473480E-07
  0.891730291995E-07  0.950666884399E-07  0.101349873735E-06  0.108048329792E-06  0.115189502849E-06
  0.122802653130E-06  0.130918974738E-06  0.139571723468E-06  0.148796353069E-06  0.158630660513E-06
  0.169114940864E-06  0.180292152382E-06  0.192208092539E-06  0.204911585673E-06  0.218454683038E-06
  0.232892876075E-06  0.248285323789E-06  0.264695095142E-06  0.282189427474E-06  0.300840001996E-06
  0.320723237502E-06  0.341920603483E-06  0.364518953939E-06  0.388610883254E-06  0.414295105595E-06
  0.441676859374E-06  0.470868338459E-06  0.501989151870E-06  0.535166813865E-06  0.570537266416E-06
  0.608245436214E-06  0.648445828489E-06  0.691303160077E-06  0.736993034328E-06  0.785702660620E-06
  0.837631621425E-06  0.892992690074E-06  0.952012702569E-06  0.101493348702E-05  0.108201285448E-05
  0.115352565535E-05  0.122976490546E-05  0.131104298675E-05  0.139769292712E-05  0.149006976507E-05
  0.158855200431E-05  0.169354316471E-05  0.180547343565E-05  0.192480143859E-05  0.205201610629E-05
  0.218763868610E-05  0.233222487565E-05  0.248636709980E-05  0.265069693796E-05  0.282588771188E-05
  0.301265724447E-05  0.321177080097E-05  0.342404422444E-05  0.365034727858E-05  0.389160721135E-05
  0.414881255422E-05  0.442301717247E-05  0.471534458315E-05  0.502699255846E-05  0.535923803333E-05
  0.571344233734E-05  0.609105677245E-05  0.649362855934E-05  0.692280717667E-05  0.738035111940E-05
  0.786813510369E-05  0.838815774798E-05  0.894254976166E-05  0.953358267495E-05  0.101636781457E-04
  0.108354178813E-04  0.115515542160E-04  0.123150213878E-04  0.131289475601E-04  0.139966676378E-04
  0.149217369309E-04  0.159079457200E-04  0.169593347858E-04  0.180802119634E-04  0.192751697912E-04
  0.205491043265E-04  0.219072352033E-04  0.233551270167E-04  0.248987121199E-04  0.265443149270E-04
  0.282986778227E-04  0.301689887835E-04  0.321629108238E-04  0.342886133879E-04  0.365548058163E-04
  0.389707730229E-04  0.415464135291E-04  0.442922800118E-04  0.472196225294E-04  0.503404346035E-04
  0.536675023459E-04  0.572144568296E-04  0.609958299212E-04  0.650271137995E-04  0.693248244075E-04
  0.739065690940E-04  0.787911187243E-04  0.839984845528E-04  0.895500001730E-04  0.954684088797E-04
  0.101777956800E-03  0.108504492175E-03  0.115675571195E-03  0.123320570828E-03  0.131470809091E-03
  0.140159673263E-03  0.149422756567E-03  0.159298003866E-03  0.169825866983E-03  0.181049470266E-03
  0.193014787078E-03  0.205770827941E-03  0.219369841081E-03  0.233867526213E-03  0.249323262419E-03
  0.265800351063E-03  0.283366274715E-03  0.302092973158E-03  0.322057137576E-03  0.343340524143E-03
  0.366030288277E-03  0.390219340904E-03  0.416006728205E-03  0.443498036363E-03  0.472805822961E-03
  0.504050076779E-03  0.537358707842E-03  0.572868069718E-03  0.610723516157E-03  0.651079994330E-03
  0.694102677060E-03  0.739967636588E-03  0.788862562582E-03  0.840987527292E-03  0.896555800898E-03
  0.955794720336E-03  0.101894661508E-02  0.108626979357E-02  0.115803959421E-02  0.123454950519E-02
  0.131611235746E-02  0.140306159571E-02  0.149575263234E-02  0.159456428970E-02  0.169990033639E-02
  0.181219112366E-02  0.193189532813E-02  0.205950180789E-02  0.219553157905E-02  0.234053992038E-02
  0.249511861438E-02  0.265989833307E-02  0.283555117796E-02  0.302279338371E-02  0.322238819574E-02
  0.343514893276E-02  0.366194224556E-02  0.390369158438E-02  0.416138088748E-02  0.443605850474E-02
  0.472884137039E-02  0.504091944006E-02  0.537356040804E-02  0.572811472152E-02  0.610602090941E-02
  0.650881124425E-02  0.693811775662E-02  0.739567862243E-02  0.788334494442E-02  0.840308795009E-02
  0.895700662925E-02  0.954733583553E-02  0.101764548768E-01  0.108468966206E-01  0.115613571417E-01
  0.123227059388E-01  0.131339967504E-01  0.139984789971E-01  0.149196098811E-01  0.159010671738E-01
  0.169467627192E-01  0.180608566867E-01  0.192477726008E-01  0.205122131782E-01  0.218591770008E-01
  0.232939760518E-01  0.248222541397E-01  0.264500062330E-01  0.281835987259E-01  0.300297906490E-01
  0.319957558376E-01  0.340891060597E-01  0.363179151034E-01  0.386907438104E-01  0.412166660354E-01
  0.439052954959E-01  0.467668134660E-01  0.498119972483E-01  0.530522493402E-01  0.564996271879E-01
  0.601668733965E-01  0.640674462330E-01  0.682155502274E-01  0.726261666365E-01  0.773150834915E-01
  0.822989249006E-01  0.875951792194E-01  0.932222256414E-01  0.991993586840E-01  0.105546809969E+00
  0.112285766603E+00  0.119438385365E+00  0.127027801794E+00  0.135078133150E+00  0.143614474080E+00
  0.152662883674E+00  0.162250362439E+00  0.172404817533E+00  0.183155014406E+00  0.194530512822E+00
  0.206561584969E+00  0.219279113180E+00  0.232714464538E+00  0.246899339368E+00  0.261865590431E+00
  0.277645009320E+00  0.294269076406E+00  0.311768670394E+00  0.330173733439E+00  0.349512887580E+00
  0.369812998225E+00  0.391098680401E+00  0.413391743615E+00  0.436710571437E+00  0.461069432343E+00
  0.486477718985E+00  0.512939113975E+00  0.540450681460E+00  0.569001885335E+00  0.598573536923E+00
  0.629136677410E+00  0.660651403367E+00  0.693065647246E+00  0.726313929061E+00  0.760316100401E+00
  0.794976107596E+00  0.830180807236E+00  0.865798874248E+00  0.901679850249E+00  0.937653387741E+00
  0.973528753517E+00  0.100909466207E+01  0.104411951616E+01  0.107835213614E+01  0.111152306149E+01
  0.114334650538E+01  0.117352303540E+01  0.120174303766E+01  0.122769099733E+01  0.125105059168E+01
  0.127151054192E+01  0.128877110390E+01  0.130255099418E+01  0.131259444621E+01  0.131867797188E+01
  0.132061626927E+01  0.131826657418E+01  0.131153061019E+01  0.130035316571E+01  0.128471623668E+01
  0.126462765139E+01  0.124010317397E+01  0.121114131230E+01  0.117769048454E+01  0.113960888020E+01
  0.109665770965E+01  0.104880828879E+01  0.996189292695E+00  0.938942443187E+00  0.000000000000E+00
  0.000000000000E+00  0.000000000000E+00  0.000000000000E+00  0.000000000000E+00  0.000000000000E+00
  0.000000000000E+00  0.000000000000E+00  0.000000000000E+00  0.000000000000E+00  0.000000000000E+00
  0.000000000000E+00  0.000000000000E+00  0.000000000000E+00  0.000000000000E+00  0.000000000000E+00
  0.000000000000E+00  0.000000000000E+00  0.000000000000E+00  0.000000000000E+00  0.000000000000E+00
  0.000000000000E+00  0.000000000000E+00  0.000000000000E+00  0.000000000000E+00  0.000000000000E+00
  0.000000000000E+00  0.000000000000E+00  0.000000000000E+00  0.000000000000E+00  0.000000000000E+00
  0.000000000000E+00  0.000000000000E+00  0.000000000000E+00  0.000000000000E+00  0.000000000000E+00
  0.000000000000E+00  0.000000000000E+00  0.000000000000E+00  0.000000000000E+00  0.000000000000E+00
  0.000000000000E+00  0.000000000000E+00  0.000000000000E+00  0.000000000000E+00  0.000000000000E+00
  0.000000000000E+00  0.000000000000E+00  0.000000000000E+00  0.000000000000E+00  0.000000000000E+00
 ae wavefunction
 -0.622189143390E-06 -0.659970896281E-06 -0.699852829513E-06 -0.741963237498E-06 -0.786437784926E-06
 -0.833419970266E-06 -0.883061618416E-06 -0.935523393370E-06 -0.990975358700E-06 -0.104959755503E-05
 -0.111158062668E-05 -0.117712648037E-05 -0.124644898485E-05 -0.131977471529E-05 -0.139734374661E-05
 -0.147941048955E-05 -0.156624458588E-05 -0.165813185676E-05 -0.175537530940E-05 -0.185829620861E-05
 -0.196723521681E-05 -0.208255360386E-05 -0.220463453334E-05 -0.233388443232E-05 -0.247073444537E-05
 -0.261564198249E-05 -0.276909236421E-05 -0.293160057190E-05 -0.310371310903E-05 -0.328600998188E-05
 -0.347910680400E-05 -0.368365703963E-05 -0.390035438503E-05 -0.412993530646E-05 -0.437318173809E-05
 -0.463092395399E-05 -0.490404362376E-05 -0.519347706440E-05 -0.550021870087E-05 -0.582532474940E-05
 -0.616991713737E-05 -0.653518767489E-05 -0.692240249594E-05 -0.733290678512E-05 -0.776812980837E-05
 -0.822959026895E-05 -0.871890200811E-05 -0.923778007361E-05 -0.978804717860E-05 -0.103716405819E-04
 -0.109906194058E-04 -0.116471724289E-04 -0.123436263873E-04 -0.130824548005E-04 -0.138662873815E-04
 -0.146979200383E-04 -0.155803255378E-04 -0.165166648444E-04 -0.175102992003E-04 -0.185648029796E-04
 -0.196839773743E-04 -0.208718649655E-04 -0.221327652308E-04 -0.234712510538E-04 -0.248921862999E-04
 -0.264007445195E-04 -0.280024288725E-04 -0.297030933001E-04 -0.315089651204E-04 -0.334266690074E-04
 -0.354632525628E-04 -0.376262135224E-04 -0.399235287060E-04 -0.423636848099E-04 -0.449557112159E-04
 -0.477092148710E-04 -0.506344174242E-04 -0.537421947282E-04 -0.570441188837E-04 -0.605525029628E-04
 -0.642804486126E-04 -0.682418966582E-04 -0.724516809980E-04 -0.769255858807E-04 -0.816804068619E-04
 -0.867340156291E-04 -0.921054289652E-04 -0.978148820727E-04 -0.103883906577E-03 -0.110335413445E-03
 -0.117193781188E-03 -0.124484949615E-03 -0.132236519532E-03 -0.140477858711E-03 -0.149240214552E-03
 -0.158556833829E-03 -0.168463089950E-03 -0.178996618219E-03 -0.190197459555E-03 -0.202108213196E-03
 -0.214774198959E-03 -0.228243629580E-03 -0.242567793794E-03 -0.257801250787E-03 -0.274002036669E-03
 -0.291231883727E-03 -0.309556453249E-03 -0.329045582600E-03 -0.349773547532E-03 -0.371819340562E-03
 -0.395266966332E-03 -0.420205755030E-03 -0.446730694803E-03 -0.474942784358E-03 -0.504949406912E-03
 -0.536864726569E-03 -0.570810108652E-03 -0.606914565080E-03 -0.645315226388E-03 -0.686157841803E-03
 -0.729597308900E-03 -0.775798234575E-03 -0.824935528921E-03 -0.877195033884E-03 -0.932774188553E-03
 -0.991882732983E-03 -0.105474345268E-02 -0.112159296579E-02 -0.119268255528E-02 -0.126827904838E-02
 -0.134866574566E-02 -0.143414340225E-02 -0.152503126386E-02 -0.162166816012E-02 -0.172441365810E-02
 -0.183364927884E-02 -0.194977977983E-02 -0.207323450640E-02 -0.220446881517E-02 -0.234396557271E-02
 -0.249223673265E-02 -0.264982499444E-02 -0.281730554724E-02 -0.299528790219E-02 -0.318441781654E-02
 -0.338537931290E-02 -0.359889679727E-02 -0.382573727891E-02 -0.406671269558E-02 -0.432268234733E-02
 -0.459455544192E-02 -0.488329375500E-02 -0.518991440768E-02 -0.551549276434E-02 -0.586116545288E-02
 -0.622813350944E-02 -0.661766564944E-02 -0.703110166603E-02 -0.746985595686E-02 -0.793542117931E-02
 -0.842937203381E-02 -0.895336917403E-02 -0.950916324210E-02 -0.100985990257E-01 -0.107236197336E-01
 -0.113862713837E-01 -0.120887072979E-01 -0.128331926962E-01 -0.136221093793E-01 -0.144579604898E-01
 -0.153433753387E-01 -0.162811142815E-01 -0.172740736264E-01 -0.183252905554E-01 -0.194379480343E-01
 -0.206153796866E-01 -0.218610746020E-01 -0.231786820471E-01 -0.245720160418E-01 -0.260450597612E-01
 -0.276019697181E-01 -0.292470796770E-01 -0.309849042450E-01 -0.328201420804E-01 -0.347576786530E-01
 -0.368025884855E-01 -0.389601367993E-01 -0.412357804785E-01 -0.436351682639E-01 -0.461641400776E-01
 -0.488287253717E-01 -0.516351403914E-01 -0.545897842266E-01 -0.576992335279E-01 -0.609702357449E-01
 -0.644097007460E-01 -0.680246906603E-01 -0.718224077858E-01 -0.758101803875E-01 -0.799954462126E-01
 -0.843857335345E-01 -0.889886395357E-01 -0.938118058305E-01 -0.988628909250E-01 -0.104149539407E+00
 -0.109679347658E+00 -0.115459825873E+00 -0.121498356179E+00 -0.127802146651E+00 -0.134378181011E+00
 -0.141233163829E+00 -0.148373461031E+00 -0.155805035554E+00 -0.163533377992E+00 -0.171563432104E+00
 -0.179899515080E+00 -0.188545232498E+00 -0.197503387930E+00 -0.206775887197E+00 -0.216363637340E+00
 -0.226266440388E+00 -0.236482882102E+00 -0.247010215914E+00 -0.257844242355E+00 -0.268979184376E+00
 -0.280407559009E+00 -0.292120045974E+00 -0.304105353937E+00 -0.316350085257E+00 -0.328838600259E+00
 -0.341552882237E+00 -0.354472404613E+00 -0.367574001905E+00 -0.380831746366E+00 -0.394216832294E+00
 -0.407697469994E+00 -0.421238791185E+00 -0.434802766820E+00 -0.448348137397E+00 -0.461830354006E+00
 -0.475201526651E+00 -0.488410374923E+00 -0.501402175934E+00 -0.514118706427E+00 -0.526498180561E+00
 -0.538475191693E+00 -0.549980673728E+00 -0.560941903274E+00 -0.571282565985E+00 -0.580922905752E+00
 -0.589779966207E+00 -0.597767918925E+00 -0.604798461592E+00 -0.610781264099E+00 -0.615624444604E+00
 -0.619235067612E+00 -0.621519663809E+00 -0.622384776694E+00 -0.621737540438E+00 -0.619486291092E+00
 -0.615541210337E+00 -0.609814998386E+00 -0.602223571695E+00 -0.592686780780E+00 -0.581129143417E+00
 -0.567480589539E+00 -0.551677213854E+00 -0.533662032952E+00 -0.513385743651E+00 -0.490807479052E+00
 -0.465895558562E+00 -0.438628227762E+00 -0.408994382908E+00 -0.376994274340E+00 -0.342640181480E+00
 -0.305957051171E+00 -0.266983088995E+00 -0.225770292664E+00 -0.182384913883E+00 -0.136907835557E+00
 -0.894348501678E-01 -0.400768265781E-01  0.110402447828E-01  0.637753339885E-01  0.117972580750E+00
  0.173461624007E+00  0.230058041059E+00  0.287563886625E+00  0.345768333829E+00  0.404448447852E+00
  0.463370173098E+00  0.522289691086E+00  0.580955390184E+00  0.639110741224E+00  0.696498207271E+00
  0.752863672422E+00  0.807959512769E+00  0.861543023009E+00  0.913367704986E+00  0.963169996476E+00
  0.101066037269E+01  0.105552706772E+01  0.109745062463E+01  0.113611930597E+01  0.117123823165E+01
  0.120253248653E+01  0.122974756958E+01  0.125264964041E+01  0.127102641637E+01  0.128468869128E+01
  0.129347214312E+01  0.129723906855E+01  0.129587975619E+01  0.128931332805E+01  0.127748797092E+01
  0.126038056419E+01  0.123799575521E+01  0.121036454995E+01  0.117754250039E+01  0.113960756600E+01
  0.109665770965E+01  0.104880828879E+01  0.996189292695E+00  0.938942443187E+00  0.000000000000E+00
  0.000000000000E+00  0.000000000000E+00  0.000000000000E+00  0.000000000000E+00  0.000000000000E+00
  0.000000000000E+00  0.000000000000E+00  0.000000000000E+00  0.000000000000E+00  0.000000000000E+00
  0.000000000000E+00  0.000000000000E+00  0.000000000000E+00  0.000000000000E+00  0.000000000000E+00
  0.000000000000E+00  0.000000000000E+00  0.000000000000E+00  0.000000000000E+00  0.000000000000E+00
  0.000000000000E+00  0.000000000000E+00  0.000000000000E+00  0.000000000000E+00  0.000000000000E+00
  0.000000000000E+00  0.000000000000E+00  0.000000000000E+00  0.000000000000E+00  0.000000000000E+00
  0.000000000000E+00  0.000000000000E+00  0.000000000000E+00  0.000000000000E+00  0.000000000000E+00
  0.000000000000E+00  0.000000000000E+00  0.000000000000E+00  0.000000000000E+00  0.000000000000E+00
  0.000000000000E+00  0.000000000000E+00  0.000000000000E+00  0.000000000000E+00  0.000000000000E+00
  0.000000000000E+00  0.000000000000E+00  0.000000000000E+00  0.000000000000E+00  0.000000000000E+00
 End of Dataset
