unknown system                          
           1
     6.887065    0.000000    0.000000
     0.000000    6.887065    0.000000
     0.000000    0.000000    8.027592
   B    P    S 
     4     2    10
Direct configuration=     1
   0.71875250  0.56674963  0.38339064
   0.43325037  0.71875250  0.38339064
   0.28124750  0.56674963  0.88339067
   0.56674963  0.71875250  0.88339067
   0.91994214  0.21188593  0.91521937
   0.08005786  0.21188593  0.41521931
   0.50996166  0.56668973  0.01257426
   0.49003834  0.56668973  0.51257426
   0.67072719  0.15014099  0.79171938
   0.32927281  0.84985900  0.79171938
   0.84985900  0.67072719  0.79171938
   0.15014099  0.32927281  0.79171938
   0.67072719  0.84985900  0.29171944
   0.32927281  0.15014099  0.29171944
   0.84985900  0.32927281  0.29171944
   0.15014099  0.67072719  0.29171944
