H7 Pb2 O3
1.0
   5.5217256546020508   -1.4795418977737427    0.0000000000000000
  -1.4795418977737427    5.5217256546020508    0.0000000000000000
   0.0000000000000000    0.0000000000000000    4.9842863082885742
Pb O H
2 3 7
direct
   0.0406691841781139    0.5042058229446411    0.6397139430046082 Pb
   0.5364633798599243    0.0406691841781139    0.6397139430046082 Pb
   0.5056038498878479    0.5369148254394531    0.0918071120977402 O
   0.4630851745605469    0.9686890244483948    0.0918071120977402 O
   0.9686890244483948    0.5056038498878479    0.0918071120977402 O
   0.1856327354907990    0.7922651767730713    0.1402693241834641 H
   0.2077348232269287    0.3933675289154053    0.1402693241834641 H
   0.6066324710845947    0.8143672943115234    0.1402693241834641 H
   0.8143672943115234    0.2077348232269287    0.1402693241834641 H
   0.7922651767730713    0.6066324710845947    0.1402693241834641 H
   0.3933675289154053    0.1856327354907990    0.1402693241834641 H
   0.3872858881950378    0.4684381186962128    0.4791839420795441 H
