As2 O6
1.0
   5.2593202590942383    0.0000000000000000    0.0000000000000000
   0.0000000000000000    5.2593202590942383    0.0000000000000000
   0.0000000000000000    0.0000000000000000    4.8961577415466309
O As
6 2
direct
   0.6926484704017639    0.6625546216964722    0.2794124484062195 O
   0.1926484107971191    0.1625546216964722    0.7794124484062195 O
   0.7874011993408203    0.4472560584545135    0.7056719064712524 O
   0.5527439117431641    0.7874011993408203    0.7056719064712524 O
   0.2874011993408203    0.9472560882568359    0.2056719064712524 O
   0.0527439415454865    0.2874011993408203    0.2056719064712524 O
   0.5906419157981873    0.5841765999794006    0.5519883036613464 As
   0.0906419754028320    0.0841765403747559    0.0519883632659912 As
