Na2 Sb4 O8
1.0
   8.5234174728393555    0.0000000000000000    0.0000000000000000
   0.0000000000000000    5.3645548820495605    0.0000000000000000
   0.0000000000000000    0.0000000000000000    5.1555156707763672
O Sb O Na
4 4 4 2
direct
   0.7228549122810364    0.9641469120979309    0.1423379182815552 O
   0.2771450877189636    0.0358530879020691    0.6423379182815552 O
   0.7228549122810364    0.0358530879020691    0.6423379182815552 O
   0.2771450877189636    0.9641469120979309    0.1423379182815552 O
   0.2388091683387756    0.7455903887748718    0.8769032955169678 Sb
   0.7611908316612244    0.2544096112251282    0.3769032955169678 Sb
   0.2388091683387756    0.2544096112251282    0.3769032955169678 Sb
   0.7611908316612244    0.7455903887748718    0.8769032955169678 Sb
   0.7195769548416138    0.5383198261260986    0.5909615755081177 O
   0.2804230451583862    0.4616801738739014    0.0909615755081177 O
   0.7195769548416138    0.4616801738739014    0.0909615755081177 O
   0.2804230451583862    0.5383198261260986    0.5909615755081177 O
   0.4950162172317505    0.7535809278488159    0.3730377256870270 Na
   0.5049837827682495    0.2464190721511841    0.8730376958847046 Na
