Ga2 Ag4 F12
1.0
   8.5065307617187500   -2.2793178558349609    0.0000000000000000
  -2.2793178558349609    8.5065307617187500    0.0000000000000000
   0.0000000000000000    0.0000000000000000    4.4886627197265625
F Ga F Ag
6 2 6 4
direct
   0.2629265785217285    0.4587009847164154    0.2535184025764465 F
   0.5412989854812622    0.8042255640029907    0.2535184025764465 F
   0.1957744061946869    0.7370734214782715    0.7464815974235535 F
   0.7370734214782715    0.5412989854812622    0.7464815974235535 F
   0.4587009847164154    0.1957744061946869    0.7464815974235535 F
   0.8042255640029907    0.2629265785217285    0.2535184025764465 F
   0.9940870404243469    0.1284060329198837    0.1976995468139648 Ga
   0.0059129595756531    0.8715939521789551    0.8023004531860352 Ga
   0.8665066957473755    0.7821058034896851    0.2438098937273026 F
   0.2178941965103149    0.0844008922576904    0.2438098937273026 F
   0.9155991077423096    0.1334933042526245    0.7561901211738586 F
   0.1334933042526245    0.2178941965103149    0.7561901211738586 F
   0.7821058034896851    0.9155991077423096    0.7561901211738586 F
   0.0844008922576904    0.8665066957473755    0.2438098937273026 F
   0.3572778105735779    0.4924898445606232    0.7508945465087891 Ag
   0.8647879362106323    0.3572778105735779    0.7508945465087891 Ag
   0.6427221894264221    0.5075101852416992    0.2491054534912109 Ag
   0.1352120339870453    0.6427221894264221    0.2491054534912109 Ag
