Rb8 Cl4
1.0
   5.7321710586547852    0.0000000000000000    0.0000000000000000
   0.0000000000000000    5.7321710586547852    0.0000000000000000
   0.0000000000000000    0.0000000000000000   15.9360637664794922
Rb Cl
8 4
direct
   0.9978407025337219    0.0000512599945068    0.2116477191448212 Rb
   0.0021592974662781    0.9999487400054932    0.7116477489471436 Rb
   0.9999487400054932    0.9978407025337219    0.9616477489471436 Rb
   0.0000512599945068    0.0021592974662781    0.4616477191448212 Rb
   0.4976433217525482    0.5004820823669434    0.9600532650947571 Rb
   0.5023566484451294    0.4995179176330566    0.4600532054901123 Rb
   0.4995179176330566    0.4976433217525482    0.7100532054901123 Rb
   0.5004820823669434    0.5023566484451294    0.2100532054901123 Rb
   0.9980748891830444    0.5029955506324768    0.3424746394157410 Cl
   0.0019251108169556    0.4970044493675232    0.8424746394157410 Cl
   0.4970044493675232    0.9980748891830444    0.0924746990203857 Cl
   0.5029955506324768    0.0019251108169556    0.5924746394157410 Cl
