P16
1.0
   6.9471702575683594    0.0000000000000000    0.0000000000000000
   0.0000000000000000    6.9471702575683594    0.0000000000000000
   0.0000000000000000    0.0000000000000000    6.9471702575683594
P
16
direct
   0.2003209888935089    0.6124686598777771    0.1843811720609665 P
   0.7996790409088135    0.3875313401222229    0.1843811720609665 P
   0.3875313401222229    0.2003209888935089    0.8156188130378723 P
   0.6124686598777771    0.7996790409088135    0.8156188130378723 P
   0.2003209888935089    0.6124686598777771    0.8156188130378723 P
   0.7996790409088135    0.3875313401222229    0.8156188130378723 P
   0.6124686598777771    0.7996790409088135    0.1843811720609665 P
   0.3875313401222229    0.2003209888935089    0.1843811720609665 P
   0.7003209590911865    0.1124687194824219    0.6843811869621277 P
   0.2996790111064911    0.8875313401222229    0.6843811869621277 P
   0.8875313401222229    0.7003209590911865    0.3156188130378723 P
   0.1124687194824219    0.2996790111064911    0.3156188130378723 P
   0.7003209590911865    0.1124687194824219    0.3156188130378723 P
   0.2996790111064911    0.8875313401222229    0.3156188130378723 P
   0.1124687194824219    0.2996790111064911    0.6843811869621277 P
   0.8875313401222229    0.7003209590911865    0.6843811869621277 P
