Mg16 Co4
1.0
   7.3657760620117188    0.0000000000000000    0.0000000000000000
   0.0000000000000000    7.3657760620117188    0.0000000000000000
   0.0000000000000000    0.0000000000000000    7.7806863784790039
Mg Co
16 4
direct
   0.5601948499679565    0.2568086087703705    0.1304292380809784 Mg
   0.4398051500320435    0.7431913614273071    0.1304292380809784 Mg
   0.2568086087703705    0.4398051500320435    0.8695707321166992 Mg
   0.7431913614273071    0.5601948499679565    0.8695707321166992 Mg
   0.5601948499679565    0.7431913614273071    0.6304292678833008 Mg
   0.4398051500320435    0.2568086087703705    0.6304292678833008 Mg
   0.2568086087703705    0.5601948499679565    0.3695707619190216 Mg
   0.7431913614273071    0.4398051500320435    0.3695707619190216 Mg
   0.0601948499679565    0.7568086385726929    0.6304292678833008 Mg
   0.9398051500320435    0.2431913912296295    0.6304292678833008 Mg
   0.7568086385726929    0.9398051500320435    0.3695707619190216 Mg
   0.2431913912296295    0.0601948499679565    0.3695707619190216 Mg
   0.0601948499679565    0.2431913912296295    0.1304292380809784 Mg
   0.9398051500320435    0.7568086385726929    0.1304292380809784 Mg
   0.7568086385726929    0.0601948499679565    0.8695707321166992 Mg
   0.2431913912296295    0.9398051500320435    0.8695707321166992 Mg
   0.6145833134651184    0.1043240204453468    0.5069520473480225 Co
   0.1043240204453468    0.3854166865348816    0.4930479526519775 Co
   0.8956759572029114    0.3854166865348816    0.9930479526519775 Co
   0.3854166865348816    0.1043240204453468    0.0069520473480225 Co
