Nd2 Mg2 Se16
1.0
   8.2623348236083984    0.0000000000000000    0.0000000000000000
   0.0000000000000000    8.2623348236083984    0.0000000000000000
   0.0000000000000000    0.0000000000000000    8.6314258575439453
Se Mg Nd
16 2 2
direct
   0.5883349180221558    0.3377819955348969    0.3297748267650604 Se
   0.4116650819778442    0.6622179746627808    0.3297748267650604 Se
   0.3377819955348969    0.4116650819778442    0.6702251434326172 Se
   0.6622179746627808    0.5883349180221558    0.6702251434326172 Se
   0.0883349180221558    0.8377820253372192    0.8297748565673828 Se
   0.9116650819778442    0.1622180044651031    0.8297748565673828 Se
   0.8377820253372192    0.9116650819778442    0.1702251732349396 Se
   0.1622180044651031    0.0883349180221558    0.1702251732349396 Se
   0.5628677606582642    0.7993093132972717    0.9534307122230530 Se
   0.4371322393417358    0.2006906867027283    0.9534307122230530 Se
   0.7993093132972717    0.4371322393417358    0.0465692877769470 Se
   0.2006906867027283    0.5628677606582642    0.0465692877769470 Se
   0.0628677606582642    0.2993092536926270    0.4534306526184082 Se
   0.9371322393417358    0.7006906867027283    0.4534306526184082 Se
   0.2993092536926270    0.9371322393417358    0.5465692877769470 Se
   0.7006906867027283    0.0628677606582642    0.5465692877769470 Se
   0.0049603036604822    0.0079166591167450    0.6214994192123413 Mg
   0.5049602985382080    0.5079166889190674    0.1214994192123413 Mg
   0.9962435960769653    0.4972567856311798    0.7422564029693604 Nd
   0.4962435960769653    0.9972567558288574    0.2422564029693604 Nd
