H10
1.0
   4.8145546913146973    0.0000000000000000    0.0000000000000000
   0.0000000000000000    4.8145546913146973    0.0000000000000000
   0.0000000000000000    0.0000000000000000    4.8145546913146973
H
10
direct
   0.3310474455356598    0.8867814540863037    0.1845040321350098 H
   0.6689525842666626    0.1132185459136963    0.1845040321350098 H
   0.1132185459136963    0.3310474455356598    0.8154959678649902 H
   0.8867814540863037    0.6689525842666626    0.8154959678649902 H
   0.6689525842666626    0.1132185459136963    0.8154959678649902 H
   0.3310474455356598    0.8867814540863037    0.8154959678649902 H
   0.8867814540863037    0.6689525842666626    0.1845040321350098 H
   0.1132185459136963    0.3310474455356598    0.1845040321350098 H
   0.3370423913002014    0.9014503359794617    0.9377202987670898 H
   0.8370423913002014    0.4014503955841064    0.4377202987670898 H
