O6
1.0
   3.8633060455322266   -1.0351696014404297    0.0000000000000000
  -1.0351696014404297    3.8633060455322266    0.0000000000000000
   0.0000000000000000    0.0000000000000000    5.7589635848999023
O
6
direct
   0.3168939352035522    0.9989868998527527    0.0391083844006062 O
   0.0010131001472473    0.3179070353507996    0.3724417388439178 O
   0.6820929646492004    0.6831060647964478    0.7057750821113586 O
   0.0010131001472473    0.6831060647964478    0.6275582909584045 O
   0.6820929646492004    0.9989868998527527    0.2942249476909637 O
   0.3168939352035522    0.3179070353507996    0.9608916044235229 O
