H16
1.0
   6.6093940734863281    0.0000000000000000    0.0000000000000000
   0.0000000000000000    6.6093940734863281    0.0000000000000000
   0.0000000000000000    0.0000000000000000    4.0729751586914062
H
16
direct
   0.9635268449783325    0.3162205815315247    0.5964100360870361 H
   0.0364731550216675    0.6837794184684753    0.5964100360870361 H
   0.3162205815315247    0.0364731550216675    0.4035899639129639 H
   0.6837794184684753    0.9635268449783325    0.4035899639129639 H
   0.0364731550216675    0.3162205815315247    0.4035899639129639 H
   0.9635268449783325    0.6837794184684753    0.4035899639129639 H
   0.6837794184684753    0.0364731550216675    0.5964100360870361 H
   0.3162205815315247    0.9635268449783325    0.5964100360870361 H
   0.4635268449783325    0.8162205815315247    0.0964100360870361 H
   0.5364731550216675    0.1837794184684753    0.0964100360870361 H
   0.8162205815315247    0.5364731550216675    0.9035899639129639 H
   0.1837794184684753    0.4635268449783325    0.9035899639129639 H
   0.5364731550216675    0.8162205815315247    0.9035899639129639 H
   0.4635268449783325    0.1837794184684753    0.9035899639129639 H
   0.1837794184684753    0.5364731550216675    0.0964100360870361 H
   0.8162205815315247    0.4635268449783325    0.0964100360870361 H
