N3 O9
1.0
   6.0809964296479109   -1.6309091407513634    0.0068074894559092
  -1.6281380332183524    6.0912173787130852   -0.0093963415307356
   0.0052664909344028   -0.0092553173021159    6.7910909779966735
O N
9 3
direct
   0.4224649689878599    0.1228996367136575    0.0342347928705287 O
   0.8883390645233954    0.3159056156120308    0.3604817233534190 O
   0.6918107942534358    0.5876229884534636    0.6963980797892354 O
   0.5908395232766536    0.8971464983779109    0.0284746553125027 O
   0.1145810015944921    0.7095627533440090    0.3688875807057607 O
   0.2976461952830550    0.4213385683037565    0.7023838761659466 O
   0.0049450510401855    0.5212142329947607    0.0874701900508984 O
   0.4881425053757905    0.4953423840064177    0.4221664251744478 O
   0.5005062389145072    0.0095123215412428    0.7540910474791734 O
   0.4923980240215169    0.5013518793797982    0.6058027705296603 N
   0.5046027246311900    0.0098553699955770    0.9377393011541979 N
   0.0025665905938636    0.5155919925280257    0.2711009216361475 N
