Te2 O10
1.0
   5.3937449455261230    0.0000000000000000    0.0000000000000000
   0.0000000000000000    5.3937449455261230    0.0000000000000000
   0.0000000000000000    0.0000000000000000    7.1387701034545898
O Te
10 2
direct
   0.7308256626129150    0.2286437302827835    0.7000594735145569 O
   0.2691743373870850    0.7713562846183777    0.7000594735145569 O
   0.2286437302827835    0.2691743373870850    0.2999405264854431 O
   0.7713562846183777    0.7308256626129150    0.2999405264854431 O
   0.7308256626129150    0.7713562846183777    0.7000594735145569 O
   0.2691743373870850    0.2286437302827835    0.7000594735145569 O
   0.2286437302827835    0.7308256626129150    0.2999405264854431 O
   0.7713562846183777    0.2691743373870850    0.2999405264854431 O
   0.5006886720657349    0.9785379171371460    0.0035640192218125 O
   0.9785379171371460    0.4993113279342651    0.9964359998703003 O
   0.0022551417350769    0.4968481957912445    0.2364797592163086 Te
   0.4968481957912445    0.9977448582649231    0.7635202407836914 Te
