Na2 S8
1.0
   6.7942295074462891    0.0000000000000000    0.0000000000000000
   0.0000000000000000    6.7942295074462891    0.0000000000000000
   0.0000000000000000    0.0000000000000000    6.2060060501098633
S Na
8 2
direct
   0.8746367692947388    0.6577793359756470    0.7514482736587524 S
   0.1253632307052612    0.3422206640243530    0.7514482736587524 S
   0.3422206640243530    0.8746367692947388    0.2514482736587524 S
   0.6577793359756470    0.1253632307052612    0.2514482736587524 S
   0.8746367692947388    0.3422206640243530    0.2514482736587524 S
   0.1253632307052612    0.6577793359756470    0.2514482736587524 S
   0.3422206640243530    0.1253632307052612    0.7514482736587524 S
   0.6577793359756470    0.8746367692947388    0.7514482736587524 S
   0.2546313405036926    0.2791023850440979    0.2891880869865417 Na
   0.7208976149559021    0.2546313405036926    0.7891880869865417 Na
