K2 I6
1.0
   8.9292192459106445   -2.3925771713256836    0.0000000000000000
  -2.3925771713256836    8.9292192459106445    0.0000000000000000
   0.0000000000000000    0.0000000000000000    4.7233190536499023
I K
6 2
direct
   0.4439092278480530    0.2704965174198151    0.2607283890247345 I
   0.7295035123825073    0.1734127104282379    0.2607283890247345 I
   0.8265873193740845    0.5560907721519470    0.7392716407775879 I
   0.2704965174198151    0.4439092278480530    0.2607283890247345 I
   0.1734127104282379    0.7295035123825073    0.2607283890247345 I
   0.5560907721519470    0.8265873193740845    0.7392716407775879 I
   0.1850497275590897    0.0884311199188232    0.7507031559944153 K
   0.9033814072608948    0.8149502873420715    0.2492968440055847 K
