Rb2 Se4 Br2 F8
1.0
   7.1381778717041016    0.0000000000000000    0.0000000000000000
   0.0000000000000000    8.3413066864013672    0.0000000000000000
   0.0000000000000000    0.0000000000000000    6.3881521224975586
F Rb Se Br F
4 2 4 2 4
direct
   0.1515188217163086    0.8605012297630310    0.6862487196922302 F
   0.8484811782836914    0.1394987702369690    0.6862487196922302 F
   0.6515188217163086    0.6394987702369690    0.6862487196922302 F
   0.3484811782836914    0.3605012893676758    0.6862487196922302 F
   0.0008516043890268    0.0058437236584723    0.3146305382251740 Rb
   0.4991483986377716    0.5058436989784241    0.3146305382251740 Rb
   0.0394057556986809    0.3182894587516785    0.8044035434722900 Se
   0.9605942368507385    0.6817105412483215    0.8044035434722900 Se
   0.5394057631492615    0.1817105412483215    0.8044035434722900 Se
   0.4605942368507385    0.8182894587516785    0.8044035434722900 Se
   0.5071546435356140    0.9501078724861145    0.4188634455204010 Br
   0.9928453564643860    0.4501078128814697    0.4188634455204010 Br
   0.2859778702259064    0.2053691595792770    0.0199583042412996 F
   0.7140221595764160    0.7946308255195618    0.0199583042412996 F
   0.7859778404235840    0.2946308255195618    0.0199583042412996 F
   0.2140221297740936    0.7053691744804382    0.0199583042412996 F
