Zn16
1.0
   6.2800741635139570    0.0000000011974313    0.0000000003376472
   0.0000000011974332    6.2800741755933469   -0.0000000002595654
   0.0000000003376506   -0.0000000002595642    6.2800741616678213
Zn
16
direct
   0.6746529315604177    0.4238527991218440    0.1655905942836707 Zn
   0.1746529341341302    0.9238528031565920    0.6655905866611856 Zn
   0.6746529337150596    0.9238528033628260    0.6655905866795392 Zn
   0.1746529358137458    0.4238527992247710    0.6655905867449584 Zn
   0.1746529350401310    0.9238528031368953    0.1655905946817439 Zn
   0.1746529358018860    0.4238527997081066    0.1655905951025696 Zn
   0.6746529339945492    0.9238528024639934    0.1655905947016333 Zn
   0.6746529325265326    0.4238527998287961    0.6655905856061834 Zn
   0.9246529352894142    0.6738528022681853    0.4155905830773589 Zn
   0.4246529329333678    0.1738528032995613    0.4155905829315169 Zn
   0.4246529331725543    0.6738528006564170    0.9155905878476802 Zn
   0.9246529329420636    0.1738528026764888    0.9155905880632692 Zn
   0.4246529348956468    0.1738528010999534    0.9155905879523167 Zn
   0.9246529347291313    0.6738528016964491    0.9155905877769019 Zn
   0.9246529346976230    0.1738528006659136    0.4155905829794642 Zn
   0.4246529339024336    0.6738527984280231    0.4155905826454806 Zn
