Li1 I3 Br1
1.0
   6.4661865234375000   -1.7326095104217529    0.0000000000000000
  -1.7326095104217529    6.4661865234375000    0.0000000000000000
   0.0000000000000000    0.0000000000000000    4.5646343231201172
Li I Br
1 3 1
direct
   0.8450832962989807    0.5072263479232788    0.2920483350753784 Li
   0.1116225570440292    0.4080105125904083    0.7757901549339294 I
   0.5919895172119141    0.7036120295524597    0.7757901549339294 I
   0.7036120295524597    0.1116225570440292    0.7757901549339294 I
   0.1621981263160706    0.9504191279411316    0.2987624108791351 Br
