H20
1.0
   6.5386042594909668    0.0000000000000000    0.0000000000000000
   0.0000000000000000    6.5386042594909668    0.0000000000000000
   0.0000000000000000    0.0000000000000000    5.2928748130798340
H
20
direct
   0.0644619315862656    0.0710003525018692    0.0553175471723080 H
   0.0710003525018692    0.9355380535125732    0.9446824789047241 H
   0.4355380535125732    0.5710003376007080    0.5553175210952759 H
   0.4289996623992920    0.4355380535125732    0.4446824491024017 H
   0.3542863130569458    0.1524056494235992    0.9288430809974670 H
   0.6457136869430542    0.8475943803787231    0.9288430809974670 H
   0.1524056494235992    0.6457136869430542    0.0711569190025330 H
   0.8475943803787231    0.3542863130569458    0.0711569190025330 H
   0.8542863130569458    0.3475943505764008    0.4288430213928223 H
   0.1457136869430542    0.6524056196212769    0.4288430213928223 H
   0.6524056196212769    0.8542863130569458    0.5711569190025330 H
   0.3475943505764008    0.1457136869430542    0.5711569190025330 H
   0.5578784346580505    0.8022381663322449    0.0183808896690607 H
   0.4421215653419495    0.1977618336677551    0.0183808896690607 H
   0.8022381663322449    0.4421215653419495    0.9816191196441650 H
   0.1977618336677551    0.5578784346580505    0.9816191196441650 H
   0.0578784942626953    0.6977618336677551    0.5183808803558350 H
   0.9421215653419495    0.3022382259368896    0.5183808803558350 H
   0.3022382259368896    0.0578784942626953    0.4816191196441650 H
   0.6977618336677551    0.9421215653419495    0.4816191196441650 H
