H8 Cl4 O4
1.0
   9.1006088256835938    0.0000000000000000    0.0000000000000000
   0.0000000000000000    5.8584880828857422    0.0000000000000000
   0.0000000000000000    0.0000000000000000    4.6629686355590820
Cl O H
4 4 8
direct
   0.9888437390327454    0.2265280783176422    0.1545199900865555 Cl
   0.5111562609672546    0.2265280783176422    0.1545199900865555 Cl
   0.9888437390327454    0.7265280485153198    0.6545199751853943 Cl
   0.5111562609672546    0.7265280485153198    0.6545199751853943 Cl
   0.2490661293268204    0.4620094895362854    0.1497108936309814 O
   0.7509338855743408    0.5379905104637146    0.1497108936309814 O
   0.2490661293268204    0.9620094895362854    0.6497108936309814 O
   0.7509338855743408    0.0379905104637146    0.6497108936309814 O
   0.6531518101692200    0.5829316973686218    0.1350477188825607 H
   0.3468481898307800    0.4170683026313782    0.1350477188825607 H
   0.1531517505645752    0.4170683026313782    0.1350477188825607 H
   0.8468481898307800    0.5829316973686218    0.1350477188825607 H
   0.6531518101692200    0.0829317569732666    0.6350477337837219 H
   0.3468481898307800    0.9170683026313782    0.6350477337837219 H
   0.1531517505645752    0.9170683026313782    0.6350477337837219 H
   0.8468481898307800    0.0829317569732666    0.6350477337837219 H
