S8
1.0
   5.0230331420898438    0.0000000000000000    0.0000000000000000
   0.0000000000000000    5.5888361930847168    0.0000000000000000
   0.0000000000000000    0.0000000000000000    7.5175838470458984
S
8
direct
   0.6331987380981445    0.5427141785621643    0.5480884909629822 S
   0.3668012619018555    0.4572858214378357    0.4519115090370178 S
   0.6331987380981445    0.2072858214378357    0.2019115090370178 S
   0.3668012619018555    0.7927141785621643    0.7980884909629822 S
   0.1168012619018555    0.5427141785621643    0.2019115090370178 S
   0.8831987380981445    0.4572858214378357    0.7980884909629822 S
   0.1168012619018555    0.2072858214378357    0.5480884909629822 S
   0.8831987380981445    0.7927141785621643    0.4519115090370178 S
