Se2 O4 F10
1.0
   6.0382561683654785    0.0000000000000000    0.0000000000000000
   0.0000000000000000    6.0382561683654785    0.0000000000000000
   0.0000000000000000    0.0000000000000000    7.6693639755249023
O F Se
4 10 2
direct
   0.3808109462261200    0.4136162102222443    0.8761187791824341 O
   0.4136162102222443    0.6191890239715576    0.1238812208175659 O
   0.1191890537738800    0.9136161804199219    0.3761187791824341 O
   0.0863837897777557    0.1191890537738800    0.6238812208175659 O
   0.9312719702720642    0.7275140285491943    0.0980042368173599 F
   0.0687280297279358    0.2724859714508057    0.0980042368173599 F
   0.7275140285491943    0.0687280297279358    0.9019957780838013 F
   0.2724859714508057    0.9312719702720642    0.9019957780838013 F
   0.4312720298767090    0.7724859714508057    0.5980042219161987 F
   0.5687280297279358    0.2275140285491943    0.5980042219161987 F
   0.2275140285491943    0.4312720298767090    0.4019957780838013 F
   0.7724859714508057    0.5687280297279358    0.4019957780838013 F
   0.5921766757965088    0.0856257453560829    0.2396186590194702 F
   0.9078233242034912    0.5856257677078247    0.7396186590194702 F
   0.2807672619819641    0.0374864488840103    0.5239688158035278 Se
   0.2192327380180359    0.5374864339828491    0.0239688158035278 Se
