K4 Cl4
1.0
   4.5042901039123535    0.0000000000000000    0.0000000000000000
   0.0000000000000000    7.2764854431152344    0.0000000000000000
   0.0000000000000000    0.0000000000000000    9.5890960693359375
Cl K
4 4
direct
   0.2099860012531281    0.7592782974243164    0.9247804880142212 Cl
   0.2900139987468719    0.2407217025756836    0.4247804880142212 Cl
   0.7900140285491943    0.2407217025756836    0.0752195119857788 Cl
   0.7099859714508057    0.7592782974243164    0.5752195119857788 Cl
   0.2136186659336090    0.9859676957130432    0.6490781903266907 K
   0.2863813340663910    0.0140323042869568    0.1490781307220459 K
   0.7863813638687134    0.4859676361083984    0.3509218096733093 K
   0.7136186361312866    0.5140323042869568    0.8509218096733093 K
