V3 In1 Te1 F15
1.0
   7.9759454727172852   -2.1371481418609619    0.0000000000000000
  -2.1371481418609619    7.9759454727172852    0.0000000000000000
   0.0000000000000000    0.0000000000000000    6.2814722061157227
V F Te F In
3 12 1 3 1
direct
   0.1172535121440887    0.2627530694007874    0.6798455715179443 V
   0.7372469305992126    0.8545004129409790    0.6798455715179443 V
   0.1454995572566986    0.8827464580535889    0.6798455715179443 V
   0.2779487073421478    0.8459866046905518    0.8634024262428284 F
   0.1540133953094482    0.4319621324539185    0.8634024262428284 F
   0.5680378675460815    0.7220512628555298    0.8634024262428284 F
   0.7220512628555298    0.1540133953094482    0.1365975737571716 F
   0.8459866046905518    0.5680378675460815    0.1365975737571716 F
   0.4319621324539185    0.2779487073421478    0.1365975737571716 F
   0.3125132918357849    0.9371610283851624    0.4177197813987732 F
   0.0628389716148376    0.3753522634506226    0.4177197813987732 F
   0.6246477365493774    0.6874867081642151    0.4177197813987732 F
   0.6874867081642151    0.0628389716148376    0.5822802186012268 F
   0.9371610283851624    0.6246477365493774    0.5822802186012268 F
   0.3753522634506226    0.3125132918357849    0.5822802186012268 F
   0.7695925235748291    0.4703370630741119    0.2979756891727448 Te
   0.1910349726676941    0.0794104635715485    0.7950235009193420 F
   0.9205895662307739    0.1116245090961456    0.7950235009193420 F
   0.8883755207061768    0.8089650273323059    0.7950235009193420 F
   0.4455461204051971    0.0312042087316513    0.1266528517007828 In
