Cl8
1.0
   6.2038760185241699    0.0000000000000000    0.0000000000000000
   0.0000000000000000    6.7030282020568848    0.0000000000000000
   0.0000000000000000    0.0000000000000000    7.5604586601257324
Cl
8
direct
   0.4240606427192688    0.2851190865039825    0.7185613512992859 Cl
   0.6740606427192688    0.5351190567016602    0.9982845187187195 Cl
   0.4240606427192688    0.7851190567016602    0.2185614109039307 Cl
   0.6740606427192688    0.0351190567016602    0.4982845187187195 Cl
   0.0759393572807312    0.2851190865039825    0.2482835650444031 Cl
   0.3259393572807312    0.5351190567016602    0.4685614109039307 Cl
   0.0759393572807312    0.7851190567016602    0.7482857704162598 Cl
   0.3259393572807312    0.0351190567016602    0.9685613512992859 Cl
