Sc16
1.0
   7.1757459640502930    0.0000000000000000    0.0000000000000000
   0.0000000000000000    7.1757459640502930    0.0000000000000000
   0.0000000000000000    0.0000000000000000    7.1757459640502930
Sc
16
direct
   0.2539499700069427    0.2442002147436142    0.7481901049613953 Sc
   0.7460500001907349    0.7557997703552246    0.7481901049613953 Sc
   0.2442002147436142    0.7460500001907349    0.2518098950386047 Sc
   0.7460500001907349    0.7557997703552246    0.2518098950386047 Sc
   0.2539499700069427    0.2442002147436142    0.2518098950386047 Sc
   0.7557997703552246    0.2539499700069427    0.7481901049613953 Sc
   0.0039499998092651    0.4942002296447754    0.0018098950386047 Sc
   0.4960500299930573    0.0057997852563858    0.0018098950386047 Sc
   0.9942002296447754    0.9960500001907349    0.4981901645660400 Sc
   0.5057997703552246    0.5039499998092651    0.4981901645660400 Sc
   0.7557997703552246    0.2539499700069427    0.2518098950386047 Sc
   0.2442002147436142    0.7460500001907349    0.7481901049613953 Sc
   0.4960500299930573    0.0057997852563858    0.4981901645660400 Sc
   0.0039499998092651    0.4942002296447754    0.4981901645660400 Sc
   0.5057997703552246    0.5039499998092651    0.0018098950386047 Sc
   0.9942002296447754    0.9960500001907349    0.0018098950386047 Sc
