Ge8 As8 P2 S2
1.0
   9.9977092742919922    0.0000000000000000    0.0000000000000000
   0.0000000000000000    9.9977092742919922    0.0000000000000000
   0.0000000000000000    0.0000000000000000    4.2622604370117188
Ge S As P
8 2 8 2
direct
   0.4687027633190155    0.2838360071182251    0.7567286491394043 Ge
   0.5312972068786621    0.7161639928817749    0.7567286491394043 Ge
   0.2161639928817749    0.9687027931213379    0.7567286491394043 Ge
   0.7838360071182251    0.0312972366809845    0.7567286491394043 Ge
   0.0312972366809845    0.7838360071182251    0.2432713508605957 Ge
   0.9687027931213379    0.2161639928817749    0.2432713508605957 Ge
   0.2838360071182251    0.4687027633190155    0.2432713508605957 Ge
   0.7161639928817749    0.5312972068786621    0.2432713508605957 Ge
   0.4937261641025543    0.9797151684761047    0.7510625123977661 S
   0.9937261343002319    0.5202848315238953    0.2489374876022339 S
   0.6396932005882263    0.1975943595170975    0.2508761584758759 As
   0.3603067994117737    0.8024056553840637    0.2508761584758759 As
   0.3024056553840637    0.1396932601928711    0.2508761584758759 As
   0.6975943446159363    0.8603067994117737    0.2508761584758759 As
   0.8603067994117737    0.6975943446159363    0.7491238117218018 As
   0.1396932601928711    0.3024056553840637    0.7491238117218018 As
   0.1975943595170975    0.6396932005882263    0.7491238117218018 As
   0.8024056553840637    0.3603067994117737    0.7491238117218018 As
   0.0612716227769852    0.9899862408638000    0.2517388761043549 P
   0.5100137591362000    0.5612716078758240    0.2517388761043549 P
