Sb1 H6 O3
1.0
   4.1754817962646484   -1.1188168525695801    0.0000000000000000
  -1.1188168525695801    4.1754817962646484    0.0000000000000000
   0.0000000000000000    0.0000000000000000    5.0799007415771484
O H O H Sb
1 3 2 3 1
direct
   0.2418714463710785    0.1966719478368759    0.9360478520393372 O
   0.0228234007954597    0.4564422965049744    0.4836089015007019 H
   0.5435577034950256    0.5663810968399048    0.4836089015007019 H
   0.4336189031600952    0.9771766066551208    0.4836089015007019 H
   0.3231228590011597    0.6904267668724060    0.5266984701156616 O
   0.7342504858970642    0.1797643452882767    0.5257929563522339 O
   0.9947242140769958    0.6262793540954590    0.0374978929758072 H
   0.3737206459045410    0.3684448599815369    0.0374978929758072 H
   0.6315551400184631    0.0052757859230042    0.0374978929758072 H
   0.9872463941574097    0.9054671525955200    0.7479228377342224 Sb
