Hf4 Cl8
1.0
   7.7997646331787109    0.0000000000000000    0.0000000000000000
   0.0000000000000000    8.4810180664062500    0.0000000000000000
   0.0000000000000000    0.0000000000000000    5.1581611633300781
Cl Hf
8 4
direct
   0.7857826948165894    0.6231044530868530    0.7463772296905518 Cl
   0.2142173051834106    0.3768955469131470    0.2536227703094482 Cl
   0.2142173051834106    0.6231044530868530    0.7463772296905518 Cl
   0.7857826948165894    0.3768955469131470    0.2536227703094482 Cl
   0.2857826948165894    0.1231044530868530    0.7463772296905518 Cl
   0.7142173051834106    0.8768955469131470    0.2536227703094482 Cl
   0.7142173051834106    0.1231044530868530    0.7463772296905518 Cl
   0.2857826948165894    0.8768955469131470    0.2536227703094482 Cl
   0.4943400919437408    0.8634133338928223    0.7476223111152649 Hf
   0.5056599378585815    0.1365866661071777    0.2523776888847351 Hf
   0.9943400621414185    0.3634133338928223    0.7476223111152649 Hf
   0.0056599080562592    0.6365866661071777    0.2523776888847351 Hf
