Rb2 Y1 H1 Pb4 O8
1.0
   7.9639560139085299   -0.1945381702293862   -0.3223081268391377
  -0.1907934874824108    7.4361672460738433    0.1599342037331442
  -0.2873548262729028    0.1430913718012568    6.2699507056971804
O Pb O Y Rb H
4 4 4 1 2 1
direct
   0.3309594860015183    0.3646444716046971    0.3781367747872028 O
   0.5343922527940370    0.7314742128363330    0.1959906478311162 O
   0.3427118719232883    0.7318402392437630    0.6695947693740401 O
   0.7084778968995918    0.4850832678016819    0.7143706919329434 O
   0.3221489886179387    0.8197135168027853   -0.0187761534121613 Pb
   0.6940454874042274    0.2147126725172618   -0.0338040692963387 Pb
   0.7898056034604169    0.7175965318486404    0.9777273705607060 Pb
   0.2141184925467530    0.3412674096051008    1.0539485951363938 Pb
   0.0944624085403146    0.6961995150107737    0.0656223438860873 O
   0.9689588151108968    0.2309953361997467    0.2000864642518266 O
   0.7454130275508692    0.9736161699541188    0.7961273022616093 O
   0.3819250861177439    0.0979236456079660    0.9878745388559466 O
   0.4965860598264940    0.5729216756589735    0.4967583272772964 Y
   1.0276326287622153    0.5354658469488557    0.5089220133633380 Rb
   0.4880370380064948    0.0522452484760493    0.4745208770859916 Rb
  -0.0086605233905994    0.1237505108904698    0.2915074664101679 H
