H8 O8
1.0
   4.9268503189086914    0.0000000000000000    0.0000000000000000
   0.0000000000000000    4.9268503189086914    0.0000000000000000
   0.0000000000000000    0.0000000000000000    6.1429729461669922
H O
8 8
direct
   0.7388204932212830    0.0940534397959709    0.4925035238265991 H
   0.2611795067787170    0.9059465527534485    0.4925035238265991 H
   0.0940534397959709    0.2611795067787170    0.5074964761734009 H
   0.9059465527534485    0.7388204932212830    0.5074964761734009 H
   0.2388205528259277    0.4059465527534485    0.9925035238265991 H
   0.7611795067787170    0.5940534472465515    0.9925035238265991 H
   0.5940534472465515    0.2388205528259277    0.0074964761734009 H
   0.4059465527534485    0.7611795067787170    0.0074964761734009 H
   0.7903351187705994    0.3766907155513763    0.9388914704322815 O
   0.3766907155513763    0.2096648812294006    0.0611085295677185 O
   0.7096648812294006    0.8766907453536987    0.4388914108276367 O
   0.1233092844486237    0.7096648812294006    0.5611085295677185 O
   0.1882388293743134    0.6638808846473694    0.0531314983963966 O
   0.6638808846473694    0.8117611408233643    0.9468684792518616 O
   0.3117611706256866    0.1638808250427246    0.5531315207481384 O
   0.8361191153526306    0.3117611706256866    0.4468685090541840 O
