Tc2 O10
1.0
   4.7993526458740234    0.0000000000000000    0.0000000000000000
   0.0000000000000000    4.7993526458740234    0.0000000000000000
   0.0000000000000000    0.0000000000000000    8.5561819076538086
Tc O
2 10
direct
   0.0566961131989956    0.4704379141330719    0.2148613929748535 Tc
   0.5295621156692505    0.0566961131989956    0.7148613929748535 Tc
   0.8011960983276367    0.2991382479667664    0.3176672756671906 O
   0.1988039016723633    0.7008617520332336    0.3176672756671906 O
   0.7008617520332336    0.8011960983276367    0.8176672458648682 O
   0.2991382479667664    0.1988039016723633    0.8176672458648682 O
   0.1988039016723633    0.7008617520332336    0.6823327541351318 O
   0.8011960983276367    0.2991382479667664    0.6823327541351318 O
   0.2991382479667664    0.1988039016723633    0.1823327243328094 O
   0.7008617520332336    0.8011960983276367    0.1823327243328094 O
   0.0057970816269517    0.4773976206779480    0.0303015112876892 O
   0.5226023793220520    0.0057970816269517    0.5303015112876892 O
