W4 O16
1.0
   7.5447293508480762   -1.6554758014779942   -0.2649932978190105
  -1.8383747291682933    6.8631126924403949    0.2374191343140811
  -0.2409885028266186    0.2193401543441856    8.4865644017078434
O W O
12 4 4
direct
   0.6493330852677003    0.7815992036517022    0.7050792225534224 O
   0.4064813270459837    0.0456899765694355    0.6339443518884434 O
   0.6468326521152181    0.4249736704191127    0.3482583533555765 O
   0.2272408355519511    0.2898253276588056    0.3780954365361526 O
   0.5088365933959111    0.8043551324134359    0.3456640571657231 O
   0.2395067153332436    0.5845680408682257    0.7104437905509257 O
   0.4461003065574605    0.5639521327395065    0.0804339306041664 O
   0.1311939697772504    0.6072958654575901    0.1973014838661552 O
   0.4795723922645339    0.8981873274500787    0.9403049936043704 O
   0.4437152346546637    0.3572406447394189    0.8324337403128250 O
   0.7875404035131853    0.2930576680843431    0.7320894409953650 O
   0.6958043354146823    0.3323888247781596    0.0452568983864826 O
   0.3734137282165815    0.7906864660510869    0.1713490850062356 W
   0.5247256335387054    0.3480577017047273    0.1682320226729929 W
   0.5524213972980527    0.1680286331483422    0.7989841818754787 W
   0.4510894901279934    0.6331699530567685    0.8220525356687516 W
   0.3494917539703281    1.0554411813558364    0.1766743761087390 O
   0.9979678111301660    0.0820844317958499    0.9647703584005003 O
   0.9058804825738670    0.9208454783894482    1.0471548902046388 O
   0.0727599606523968    0.1286442026090127    0.4014769071761426 O
