P4 F16
1.0
   8.6570167541503906    0.0000000000000000    0.0000000000000000
   0.0000000000000000    8.6570167541503906    0.0000000000000000
   0.0000000000000000    0.0000000000000000    5.7393960952758789
F P
16 4
direct
   0.3724518120288849    0.1245084032416344    0.2441354691982269 F
   0.6275482177734375    0.8754916191101074    0.2441354691982269 F
   0.8754916191101074    0.3724518120288849    0.2441354691982269 F
   0.1245084032416344    0.6275482177734375    0.2441354691982269 F
   0.6275482177734375    0.1245084032416344    0.7558645009994507 F
   0.3724518120288849    0.8754916191101074    0.7558645009994507 F
   0.1245084032416344    0.3724518120288849    0.7558645009994507 F
   0.8754916191101074    0.6275482177734375    0.7558645009994507 F
   0.6275482177734375    0.8754916191101074    0.7558645009994507 F
   0.3724518120288849    0.1245084032416344    0.7558645009994507 F
   0.1245084032416344    0.6275482177734375    0.7558645009994507 F
   0.8754916191101074    0.3724518120288849    0.7558645009994507 F
   0.3724518120288849    0.8754916191101074    0.2441354691982269 F
   0.6275482177734375    0.1245084032416344    0.2441354691982269 F
   0.8754916191101074    0.6275482177734375    0.2441354691982269 F
   0.1245084032416344    0.3724518120288849    0.2441354691982269 F
   0.9985154867172241    0.4995926320552826    0.2574585378170013 P
   0.5004073381423950    0.9985154867172241    0.2574585378170013 P
   0.0014845132827759    0.5004073381423950    0.7425414323806763 P
   0.4995926320552826    0.0014845132827759    0.7425414323806763 P
