Cs1 Ag8 S1 Br5
1.0
   7.6809701919555664    0.0000000000000000    0.0000000000000000
   0.0000000000000000    7.6809701919555664    0.0000000000000000
   0.0000000000000000    0.0000000000000000    7.8492841720581055
S Ag Br Cs
1 8 5 1
direct
   0.7663478255271912    0.5055061578750610    0.7002870440483093 S
   0.5064756274223328    0.7452818751335144    0.6587463021278381 Ag
   0.4935243725776672    0.2547181248664856    0.6587463021278381 Ag
   0.7452818751335144    0.4935243725776672    0.3412536978721619 Ag
   0.2547181248664856    0.5064756274223328    0.3412536978721619 Ag
   0.7465102672576904    0.9931297302246094    0.3476860821247101 Ag
   0.2534897327423096    0.0068702697753906    0.3476860821247101 Ag
   0.9931297302246094    0.2534897327423096    0.6523139476776123 Ag
   0.0068702697753906    0.7465102672576904    0.6523139476776123 Ag
   0.7452870011329651    0.9998458027839661    0.7771792411804199 Br
   0.2547129988670349    0.0001542012614664    0.7771792411804199 Br
   0.9998458027839661    0.2547129988670349    0.2228207588195801 Br
   0.0001542012614664    0.7452870011329651    0.2228207588195801 Br
   0.4851491451263428    0.2448719143867493    0.3178477883338928 Br
   0.4349712729454041    0.5894081592559814    0.0053374292328954 Cs
