Si1 H3 O6 F2
1.0
   4.4525070190429688    0.0000000000000000   -0.2196839898824692
   0.0000000000000000    7.1676173210144043    0.0000000000000000
  -0.2196839898824692    0.0000000000000000    5.4188141822814941
H Si O F H O
2 1 2 2 1 4
direct
   0.6137918233871460    0.2307118922472000    0.3513790667057037 H
   0.6137918233871460    0.7692881226539612    0.3513790667057037 H
   0.1926225423812866    0.4694868922233582    0.1334399133920670 Si
   0.9621564149856567    0.3393922448158264    0.3515026569366455 O
   0.8716700077056885    0.8964812159538269    0.3040163815021515 O
   0.4448897540569305    0.1555450111627579    0.6717982888221741 F
   0.4448897540569305    0.8444550037384033    0.6717982888221741 F
   0.0599664263427258    0.9285488128662109    0.2543415129184723 H
   0.9985456466674805    0.3530344069004059    0.9169231653213501 O
   0.9985456466674805    0.6469656229019165    0.9169231653213501 O
   0.4270514845848083    0.6607334613800049    0.2199442386627197 O
   0.4270514845848083    0.3392665386199951    0.2199442386627197 O
