Te4 As2
1.0
   5.6162939071655273    0.0000000000000000    0.0000000000000000
   0.0000000000000000    5.6162939071655273    0.0000000000000000
   0.0000000000000000    0.0000000000000000    5.9318094253540039
Te As
4 2
direct
   0.2541388273239136    0.7698633670806885    0.2174269407987595 Te
   0.7458611726760864    0.2301366329193115    0.2174269407987595 Te
   0.7698633670806885    0.7458611726760864    0.7825730443000793 Te
   0.2301366329193115    0.2541388273239136    0.7825730443000793 Te
   0.5076482295989990    0.4681014418601990    0.6177811026573181 As
   0.0076482295989990    0.0318985581398010    0.3822188973426819 As
