Rb6 As2 F12
1.0
  10.1825218200683594   -2.7283978462219238    0.0000000000000000
  -2.7283978462219238   10.1825218200683594    0.0000000000000000
   0.0000000000000000    0.0000000000000000    4.6637120246887207
F As Rb
12 2 6
direct
   0.6714447140693665    0.1165737062692642    0.7507456541061401 F
   0.8834263086318970    0.5548710227012634    0.7507456541061401 F
   0.4451289772987366    0.3285552859306335    0.7507456541061401 F
   0.1165737062692642    0.6714447140693665    0.2492543458938599 F
   0.5548710227012634    0.8834263086318970    0.2492543458938599 F
   0.3285552859306335    0.4451289772987366    0.2492543458938599 F
   0.3285552859306335    0.8834263086318970    0.2492543458938599 F
   0.1165737062692642    0.4451289772987366    0.2492543458938599 F
   0.5548710227012634    0.6714447140693665    0.2492543458938599 F
   0.8834263086318970    0.3285552859306335    0.7507456541061401 F
   0.4451289772987366    0.1165737062692642    0.7507456541061401 F
   0.6714447140693665    0.5548710227012634    0.7507456541061401 F
   0.6747434139251709    0.3479940593242645    0.7534636855125427 As
   0.3267493546009064    0.6747434139251709    0.2534637451171875 As
   0.1816263198852539    0.8361276984214783    0.7617677450180054 Rb
   0.1638723015785217    0.3454986214637756    0.7617677450180054 Rb
   0.6545013785362244    0.8183736801147461    0.7617677450180054 Rb
   0.8183736801147461    0.1638723015785217    0.2617677450180054 Rb
   0.8361276984214783    0.6545013785362244    0.2617677450180054 Rb
   0.3454986214637756    0.1816263198852539    0.2617677450180054 Rb
