Cs8 H8
1.0
   8.4018249511718750    0.0000000000000000    0.0000000000000000
   0.0000000000000000    8.4018249511718750    0.0000000000000000
   0.0000000000000000    0.0000000000000000    8.4018249511718750
H Cs
8 8
direct
   0.9619151949882507    0.8216686248779297    0.4573615491390228 H
   0.4619152545928955    0.3216686248779297    0.9573615789413452 H
   0.5132275223731995    0.9990744590759277    0.5405991077423096 H
   0.9990744590759277    0.4867724776268005    0.4594008922576904 H
   0.4594008922576904    0.9990744590759277    0.4867724776268005 H
   0.4990744590759277    0.9867724776268005    0.9594008922576904 H
   0.0132274627685547    0.4990744590759277    0.0405991077423096 H
   0.9594008922576904    0.4990744590759277    0.9867724776268005 H
   0.6982735991477966    0.3371850252151489    0.6749976277351379 Cs
   0.3017264008522034    0.6628149747848511    0.6749976277351379 Cs
   0.6628149747848511    0.6982735991477966    0.3250023722648621 Cs
   0.3371850252151489    0.3017264008522034    0.3250023722648621 Cs
   0.1982736587524414    0.8371850252151489    0.1749975681304932 Cs
   0.8017264008522034    0.1628149747848511    0.1749975681304932 Cs
   0.8371850252151489    0.8017264008522034    0.8250023722648621 Cs
   0.1628149747848511    0.1982736587524414    0.8250023722648621 Cs
