N2 O4
1.0
   4.2125935554504395   -1.1287612915039062    0.0000000000000000
  -1.1287612915039062    4.2125935554504395    0.0000000000000000
   0.0000000000000000    0.0000000000000000    5.4767675399780273
N O
2 4
direct
   0.0495223365724087    0.5278813242912292    0.5209569334983826 N
   0.5216410160064697    0.0495223365724087    0.0209569931030273 N
   0.0400642566382885    0.4758481085300446    0.3305441439151764 O
   0.4357838630676270    0.9599357247352600    0.1694558560848236 O
   0.9599357247352600    0.5241519212722778    0.6694558858871460 O
   0.5642161369323730    0.0400642566382885    0.8305441141128540 O
