Be4 Fe4 C4
1.0
   4.3408970832824707    0.0000000000000000    0.0000000000000000
   0.0000000000000000    4.2314596176147461    0.0000000000000000
   0.0000000000000000    0.0000000000000000    5.7976293563842773
Fe C Be
4 4 4
direct
   0.4939227998256683    0.4942729473114014    0.0091344891116023 Fe
   0.0060772001743317    0.5057270526885986    0.0091344891116023 Fe
   0.4939227998256683    0.4942729473114014    0.5091344714164734 Fe
   0.0060772001743317    0.5057270526885986    0.5091344714164734 Fe
   0.7560866475105286    0.3393473327159882    0.7464093565940857 C
   0.2439133524894714    0.6606526374816895    0.7535906434059143 C
   0.2439133524894714    0.6606526374816895    0.2535906434059143 C
   0.7560866475105286    0.3393473327159882    0.2464094161987305 C
   0.2557747960090637    0.9960949420928955    0.6290221810340881 Be
   0.7442252039909363    0.0039050579071045    0.8709778189659119 Be
   0.7442252039909363    0.0039050579071045    0.3709778189659119 Be
   0.2557747960090637    0.9960949420928955    0.1290221214294434 Be
