Co16
1.0
   4.9561538696289062    0.0000000000000000    0.0000000000000000
   0.0000000000000000    4.9561538696289062    0.0000000000000000
   0.0000000000000000    0.0000000000000000    8.1922740936279297
Co
16
direct
   0.9094545841217041    0.4115240871906281    0.8748884797096252 Co
   0.5905454158782959    0.0884759128093719    0.8748884797096252 Co
   0.0884759128093719    0.9094545841217041    0.3748884201049805 Co
   0.4115240871906281    0.5905454158782959    0.3748884201049805 Co
   0.5905454158782959    0.4115240871906281    0.1251115202903748 Co
   0.9094545841217041    0.0884759128093719    0.1251115202903748 Co
   0.4115240871906281    0.9094545841217041    0.6251115202903748 Co
   0.0884759128093719    0.5905454158782959    0.6251115202903748 Co
   0.0905454158782959    0.5884759426116943    0.1251115202903748 Co
   0.4094545841217041    0.9115240573883057    0.1251115202903748 Co
   0.9115240573883057    0.0905454158782959    0.6251115202903748 Co
   0.5884759426116943    0.4094545841217041    0.6251115202903748 Co
   0.4094545841217041    0.5884759426116943    0.8748884797096252 Co
   0.0905454158782959    0.9115240573883057    0.8748884797096252 Co
   0.5884759426116943    0.0905454158782959    0.3748884201049805 Co
   0.9115240573883057    0.4094545841217041    0.3748884201049805 Co
