S2 Br1 Cl2
1.0
   3.9925060272216797    0.0000000000000000    0.0000000000000000
   0.0000000000000000    5.0567469596862793    0.0000000000000000
   0.0000000000000000    0.0000000000000000    6.5512781143188477
Cl S Br Cl
1 2 1 1
direct
   0.6569678187370300    0.0325646586716175    0.2336638271808624 Cl
   0.2726987302303314    0.2924193143844604    0.5861291885375977 S
   0.7273012399673462    0.7075806856155396    0.4138708114624023 S
   0.7852318882942200    0.8075194358825684    0.6972379088401794 Br
   0.1422904133796692    0.4959440231323242    0.1216822341084480 Cl
