H16
1.0
   6.4819941520690918    0.0000000000000000    0.0000000000000000
   0.0000000000000000    8.2077674865722656    0.0000000000000000
   0.0000000000000000    0.0000000000000000    5.6348938941955566
H
16
direct
   0.7239345312118530    0.9691585302352905    0.4390995204448700 H
   0.2760654687881470    0.0308414697647095    0.4390995204448700 H
   0.7239345312118530    0.9691585302352905    0.5609004497528076 H
   0.2760654687881470    0.0308414697647095    0.5609004497528076 H
   0.2239345312118530    0.4691585302352905    0.9390995502471924 H
   0.7760654687881470    0.5308414697647095    0.9390995502471924 H
   0.2239345312118530    0.4691585302352905    0.0609004795551300 H
   0.7760654687881470    0.5308414697647095    0.0609004795551300 H
   0.5724166631698608    0.2588341832160950    0.7598639726638794 H
   0.4275833368301392    0.7411658167839050    0.7598639726638794 H
   0.4275833368301392    0.2588341832160950    0.2401360273361206 H
   0.5724166631698608    0.7411658167839050    0.2401360273361206 H
   0.4275833368301392    0.7411658167839050    0.2401360273361206 H
   0.5724166631698608    0.2588341832160950    0.2401360273361206 H
   0.5724166631698608    0.7411658167839050    0.7598639726638794 H
   0.4275833368301392    0.2588341832160950    0.7598639726638794 H
