Na2 Sb2 O14
1.0
   6.5870180130004883   -1.7649862766265869    0.0000000000000000
  -1.7649862766265869    6.5870180130004883    0.0000000000000000
   0.0000000000000000    0.0000000000000000    6.8773040771484375
Na O Sb O
2 2 2 12
direct
   0.0279839616268873    0.0103124780580401    0.9588894248008728 Na
   0.9896875023841858    0.9720160365104675    0.4588894844055176 Na
   0.6051969528198242    0.6923997998237610    0.9203715324401855 O
   0.3076002001762390    0.3948030471801758    0.4203715324401855 O
   0.4783905446529388    0.1477510333061218    0.5456766486167908 Sb
   0.8522489666938782    0.5216094255447388    0.0456767082214355 Sb
   0.3645944893360138    0.0528868809342384    0.2084546983242035 O
   0.9471130967140198    0.3117076158523560    0.2084546983242035 O
   0.6882923841476440    0.6354055404663086    0.2084546983242035 O
   0.9471130967140198    0.6354055404663086    0.7084547281265259 O
   0.6882923841476440    0.0528868809342384    0.7084547281265259 O
   0.3645944893360138    0.3117076158523560    0.7084547281265259 O
   0.3838513195514679    0.8912675380706787    0.5354805588722229 O
   0.1087324619293213    0.4925837516784668    0.5354805588722229 O
   0.5074162483215332    0.6161487102508545    0.5354805588722229 O
   0.1087324619293213    0.6161487102508545    0.0354804992675781 O
   0.5074162483215332    0.8912675380706787    0.0354804992675781 O
   0.3838513195514679    0.4925837516784668    0.0354804992675781 O
