C8 N8
1.0
   5.3705534934997559    0.0000000000000000    0.0000000000000000
   0.0000000000000000    6.6588478088378906    0.0000000000000000
   0.0000000000000000    0.0000000000000000   10.1312055587768555
C N
8 8
direct
   0.9592458605766296    0.3896922767162323    0.4826617538928986 C
   0.0407541394233704    0.6103076934814453    0.9826617240905762 C
   0.0407541394233704    0.8896923065185547    0.0173382461071014 C
   0.9592458605766296    0.1103077232837677    0.5173382759094238 C
   0.0407541394233704    0.6103076934814453    0.5173382759094238 C
   0.9592458605766296    0.3896922767162323    0.0173382461071014 C
   0.9592458605766296    0.1103077232837677    0.9826617240905762 C
   0.0407541394233704    0.8896923065185547    0.4826617538928986 C
   0.8580428957939148    0.9895485639572144    0.0759468227624893 N
   0.1419571042060852    0.0104514360427856    0.5759468078613281 N
   0.1419571042060852    0.4895485639572144    0.4240531921386719 N
   0.8580428957939148    0.5104514360427856    0.9240531921386719 N
   0.1419571042060852    0.0104514360427856    0.9240531921386719 N
   0.8580428957939148    0.9895485639572144    0.4240531921386719 N
   0.8580428957939148    0.5104514360427856    0.5759468078613281 N
   0.1419571042060852    0.4895485639572144    0.0759468227624893 N
