Rb2 Os2 S8
1.0
   9.9491653442382812    0.0000000000000000    0.0000000000000000
   0.0000000000000000    6.8916692733764648    0.0000000000000000
   0.0000000000000000    0.0000000000000000    5.5051097869873047
Rb S Os
2 8 2
direct
   0.5797308683395386    0.9651891589164734    0.6047720909118652 Rb
   0.0797308683395386    0.4651892185211182    0.6047720909118652 Rb
   0.1655791848897934    0.8953689336776733    0.7925120592117310 S
   0.8344208002090454    0.1046310663223267    0.7925120592117310 S
   0.8344208002090454    0.8953689336776733    0.2074879407882690 S
   0.1655791848897934    0.1046310663223267    0.2074879407882690 S
   0.6655791997909546    0.3953689336776733    0.7925120592117310 S
   0.3344208002090454    0.6046310663223267    0.7925120592117310 S
   0.3344208002090454    0.3953689336776733    0.2074879407882690 S
   0.6655791997909546    0.6046310663223267    0.2074879407882690 S
   0.5279642343521118    0.3873047232627869    0.1667731106281281 Os
   0.0279642343521118    0.8873047232627869    0.1667731106281281 Os
