N6 O14
1.0
   6.8691067695617676    0.0000000000000000    0.0000000000000000
   0.0000000000000000    6.8691067695617676    0.0000000000000000
   0.0000000000000000    0.0000000000000000    6.8691067695617676
N O
6 14
direct
   0.7585843205451965    0.3335130512714386    0.9634687304496765 N
   0.2414156794548035    0.6664869785308838    0.9634687304496765 N
   0.8335130214691162    0.7414156794548035    0.5365312695503235 N
   0.1664869487285614    0.2585842609405518    0.5365312695503235 N
   0.5365312695503235    0.8335130214691162    0.7414156794548035 N
   0.5365312695503235    0.1664869487285614    0.2585842609405518 N
   0.9707442522048950    0.6642561554908752    0.4821808338165283 O
   0.4821808338165283    0.9707442522048950    0.6642561554908752 O
   0.6642561554908752    0.4821808338165283    0.9707442522048950 O
   0.1642560958862305    0.5292557477951050    0.0178191661834717 O
   0.5292557477951050    0.0178191661834717    0.1642560958862305 O
   0.0178191661834717    0.1642560958862305    0.5292557477951050 O
   0.7634424567222595    0.1893033832311630    0.8400060534477234 O
   0.2365575432777405    0.8106966018676758    0.8400060534477234 O
   0.2365575432777405    0.1893033832311630    0.1599939465522766 O
   0.7634424567222595    0.8106966018676758    0.1599939465522766 O
   0.6893033981323242    0.2634425163269043    0.3400061130523682 O
   0.3106966018676758    0.7365575432777405    0.3400061130523682 O
   0.6893033981323242    0.7365575432777405    0.6599939465522766 O
   0.3106966018676758    0.2634425163269043    0.6599939465522766 O
