Ta2 F6
1.0
   3.9332115650177002    0.0000000000000000   -0.5591775178909302
   0.0000000000000000    6.7513961791992188    0.0000000000000000
  -0.5591775178909302    0.0000000000000000    5.2247848510742188
F Ta F
4 2 2
direct
   0.8942236900329590    0.0019087791442871    0.2399441301822662 F
   0.1057763099670410    0.5019087791442871    0.7600558996200562 F
   0.1057763099670410    0.9980912208557129    0.7600558996200562 F
   0.8942236900329590    0.4980912208557129    0.2399441301822662 F
   0.9994503855705261    0.2509941160678864    0.4940440654754639 Ta
   0.0005496029625647    0.7509940862655640    0.5059559345245361 Ta
   0.4889974296092987    0.2417919337749481    0.5232989788055420 F
   0.5110025405883789    0.7417919635772705    0.4767010211944580 F
