Si4 O12
1.0
   5.1563105583190918    0.0000000000000000    0.0000000000000000
   0.0000000000000000    7.5197334289550781    0.0000000000000000
   0.0000000000000000    0.0000000000000000    6.6824526786804199
Si O
4 12
direct
   0.0162448640912771    0.0673146769404411    0.9820643663406372 Si
   0.0162448640912771    0.0673146769404411    0.4820643663406372 Si
   0.5162448883056641    0.5673146843910217    0.9820643663406372 Si
   0.5162448883056641    0.5673146843910217    0.4820643663406372 Si
   0.5714974999427795    0.4150443077087402    0.1452443897724152 O
   0.5714974999427795    0.4150443077087402    0.6452443599700928 O
   0.0714974403381348    0.9150443077087402    0.1452443897724152 O
   0.0714974403381348    0.9150443077087402    0.6452443599700928 O
   0.1556521207094193    0.2118693292140961    0.9250652194023132 O
   0.1556521207094193    0.2118693292140961    0.4250652790069580 O
   0.6556521058082581    0.7118693590164185    0.9250652194023132 O
   0.6556521058082581    0.7118693590164185    0.4250652790069580 O
   0.2320296764373779    0.5875546336174011    0.4071039855480194 O
   0.2320296764373779    0.5875546336174011    0.9071040153503418 O
   0.7320296764373779    0.0875546932220459    0.4071039855480194 O
   0.7320296764373779    0.0875546932220459    0.9071040153503418 O
