Ti2 O8
1.0
   4.8290529251098633    0.0000000000000000    0.0000000000000000
   0.0000000000000000    5.5083456039428711    0.0000000000000000
   0.0000000000000000    0.0000000000000000    5.3245582580566406
O Ti O
4 2 4
direct
   0.2299347966909409    0.8790596723556519    0.6226525306701660 O
   0.7700651884078979    0.1209403276443481    0.6226525306701660 O
   0.2299347966909409    0.3790596723556519    0.1226525306701660 O
   0.7700651884078979    0.6209403276443481    0.1226525306701660 O
   0.9218683838844299    0.3658129870891571    0.8964954614639282 Ti
   0.9218683838844299    0.8658130168914795    0.3964954614639282 Ti
   0.7855081558227539    0.6132137775421143    0.6498417854309082 O
   0.2144918441772461    0.3867862224578857    0.6498417854309082 O
   0.7855081558227539    0.1132137775421143    0.1498417854309082 O
   0.2144918441772461    0.8867862224578857    0.1498417854309082 O
