B8 P4 S4
1.0
   5.8753695487976074    0.0000000000000000    0.0000000000000000
   0.0000000000000000    5.8753695487976074    0.0000000000000000
   0.0000000000000000    0.0000000000000000    8.8226070404052734
S B P
4 8 4
direct
   0.1167732551693916    0.6437001228332520    0.3035075962543488 S
   0.8832267522811890    0.3562998771667480    0.6964924335479736 S
   0.3562998771667480    0.1167732551693916    0.8035075664520264 S
   0.6437001228332520    0.8832267522811890    0.1964924037456512 S
   0.0853489190340042    0.4189335405826569    0.1733247041702271 B
   0.9146510958671570    0.5810664892196655    0.1733247041702271 B
   0.5810664892196655    0.0853489190340042    0.6733247041702271 B
   0.4189335405826569    0.9146510958671570    0.6733247041702271 B
   0.9146510958671570    0.5810664892196655    0.8266752958297729 B
   0.0853489190340042    0.4189335405826569    0.8266752958297729 B
   0.4189335405826569    0.9146510958671570    0.3266752958297729 B
   0.5810664892196655    0.0853489190340042    0.3266752958297729 B
   0.1389705985784531    0.7412528991699219    0.7533027529716492 P
   0.2587471008300781    0.1389705985784531    0.2533028125762939 P
   0.9403766393661499    0.3783410787582397    0.0155266206711531 P
   0.6216589212417603    0.9403766393661499    0.5155265927314758 P
