Ag8 F12
1.0
  10.2222661972045898    0.0000000000000000    0.0000000000000000
   0.0000000000000000    5.6952099800109863    0.0000000000000000
   0.0000000000000000    0.0000000000000000    5.7450695037841797
F Ag F
8 8 4
direct
   0.6842330694198608    0.9680362343788147    0.6286348104476929 F
   0.3157669305801392    0.0319637656211853    0.1286348104476929 F
   0.6842330694198608    0.0319637656211853    0.1286348104476929 F
   0.3157669305801392    0.9680362343788147    0.6286348104476929 F
   0.1842330694198608    0.4680361747741699    0.6286348104476929 F
   0.8157669305801392    0.5319637656211853    0.1286348104476929 F
   0.1842330694198608    0.5319637656211853    0.1286348104476929 F
   0.8157669305801392    0.4680361747741699    0.6286348104476929 F
   0.3433044552803040    0.6773869395256042    0.8860091567039490 Ag
   0.6566955447196960    0.3226130604743958    0.3860092163085938 Ag
   0.3433044552803040    0.3226130604743958    0.3860092163085938 Ag
   0.6566955447196960    0.6773869395256042    0.8860091567039490 Ag
   0.8433044552803040    0.1773869991302490    0.8860091567039490 Ag
   0.1566955447196960    0.8226130604743958    0.3860092163085938 Ag
   0.8433044552803040    0.8226130604743958    0.3860092163085938 Ag
   0.1566955447196960    0.1773869991302490    0.8860091567039490 Ag
   0.0077589005231857    0.0597540438175201    0.2321041226387024 F
   0.9922410845756531    0.9402459859848022    0.7321041226387024 F
   0.5077589154243469    0.5597540140151978    0.2321041226387024 F
   0.4922410845756531    0.4402459561824799    0.7321041226387024 F
