Cr4 S8
1.0
   5.5892089237751188    0.0000000147518464   -0.0000000257806285
   0.0000000164198902    6.5298609094634577    0.0000000199984405
  -0.0000000346295479    0.0000000163089244    7.0264466013027889
S Cr
8 4
direct
  -0.0453662182783008    0.6294911564934320    0.2949004794730257 S
   0.5453662077849306    0.8705088536136992    0.2949004783432184 S
   1.0453661985187717    0.1294911606806592    0.7050995168756253 S
   0.4546337893436354    0.3705088571267613    0.7050995163939587 S
   0.0454145429032761    0.1292391635561952    0.2951106731481623 S
   0.4545854696761283    0.3707608330298356    0.2951106907110599 S
   0.9545854671782302    0.6292391750308987    0.7048893227376153 S
   0.5454145078697312    0.8707608573961132    0.7048893110272429 S
   0.3712026846425035    0.0949674444293780    0.4998611458564642 Cr
   0.1287972955975507    0.4050325736382736    0.4998611401623526 Cr
   0.6287973044528974    0.5949674264538499    0.5001388694125908 Cr
   0.8712026821455803    0.9050325820364592    0.5001388634045085 Cr
