Si4 H4 O8
1.0
   5.4055757522583008    0.0000000000000000    0.0000000000000000
   0.0000000000000000    5.4055757522583008    0.0000000000000000
   0.0000000000000000    0.0000000000000000    7.2406635284423828
H O Si
4 8 4
direct
   0.2495312243700027    0.8892559409141541    0.0943767949938774 H
   0.7504687905311584    0.1107440590858459    0.5943768024444580 H
   0.1107440590858459    0.2495312243700027    0.3443768024444580 H
   0.8892559409141541    0.7504687905311584    0.8443768024444580 H
   0.2753496468067169    0.6460812091827393    0.5981012582778931 O
   0.7246503829956055    0.3539187908172607    0.0981012582778931 O
   0.3539187908172607    0.2753496468067169    0.8481012582778931 O
   0.6460812091827393    0.7246503829956055    0.3481012582778931 O
   0.3225590586662292    0.7332128286361694    0.1735218763351440 O
   0.6774409413337708    0.2667871713638306    0.6735218763351440 O
   0.2667871713638306    0.3225590586662292    0.4235218763351440 O
   0.7332128286361694    0.6774409413337708    0.9235218763351440 O
   0.3864072561264038    0.3598702847957611    0.6410571336746216 Si
   0.6135927438735962    0.6401296854019165    0.1410571336746216 Si
   0.6401296854019165    0.3864072561264038    0.8910571336746216 Si
   0.3598702847957611    0.6135927438735962    0.3910571336746216 Si
