H12
1.0
   6.2444181442260742    0.0000000000000000    0.0000000000000000
   0.0000000000000000    6.2444181442260742    0.0000000000000000
   0.0000000000000000    0.0000000000000000    5.2731184959411621
H
12
direct
   0.3503674864768982    0.7619528770446777    0.3777031898498535 H
   0.6496325135231018    0.2380471229553223    0.3777031898498535 H
   0.2380471229553223    0.3503674864768982    0.8777031898498535 H
   0.7619528770446777    0.6496325135231018    0.8777031898498535 H
   0.8378029465675354    0.2327513247728348    0.1698846071958542 H
   0.1621970534324646    0.7672486901283264    0.1698846071958542 H
   0.7672486901283264    0.8378029465675354    0.6698846220970154 H
   0.2327513247728348    0.1621970534324646    0.6698846220970154 H
   0.1621970534324646    0.2327513247728348    0.8301153779029846 H
   0.8378029465675354    0.7672486901283264    0.8301153779029846 H
   0.2327513247728348    0.8378029465675354    0.3301153779029846 H
   0.7672486901283264    0.1621970534324646    0.3301153779029846 H
