Ho2 Zr2 Cl12
1.0
   8.0336947475487932   -0.0000011923861585    0.0000004035138359
  -0.0000011937160191    9.1215964773174818    0.3071632719888383
   0.0000001385126615    0.2270540276684181    6.4832604100030418
Cl Ho Zr Cl
8 2 2 4
direct
   0.2576032802289375    0.0256145168685306    0.6699248971632050 Cl
   0.6977638197800200    0.9948385486183445    0.6795934909318029 Cl
   0.9238627130463606    0.2739884710259236    0.6210036576993487 Cl
  -0.0147142681335449    0.7242583550997576    0.7497261202634585 Cl
   0.8022362269163091    0.4948386177312152    0.1795937594311998 Cl
   0.2423969544207908    0.5256144809173053    0.1699245659806753 Cl
   0.5147141935709221    0.2242585436417185    0.2497263299839417 Cl
   0.5761377953526151    0.7739886563934760    0.1210039645441912 Cl
   0.4429225631414891    0.9505195489276349    0.3673010845855531 Ho
   0.0570773633879635    0.4505194412651793    0.8673010786077834 Ho
  -0.0201776927518690    0.0117832117223353    0.8366021514299561 Zr
   0.5201776832145736    0.5117833499955682    0.3366022854129460 Zr
   0.4954551407683002    0.7009743599406715    0.5994537574454194 Cl
   0.3341478429604549    0.3939291193385686    0.6652289452047494 Cl
   0.0045441759406830    0.2009742265789846    0.0994536129881886 Cl
   0.1658521953436923    0.8939291640200051    0.1652289643779681 Cl
