Na8 S4
1.0
   8.2858676910400391    0.0000000000000000    0.0000000000000000
   0.0000000000000000    8.2858676910400391    0.0000000000000000
   0.0000000000000000    0.0000000000000000    4.6668500900268555
Na S
8 4
direct
   0.2815203070640564    0.9539590477943420    0.4645633995532990 Na
   0.7184796929359436    0.0460409522056580    0.4645633995532990 Na
   0.0460409522056580    0.2815203070640564    0.4645633995532990 Na
   0.9539590477943420    0.7184796929359436    0.4645633995532990 Na
   0.7815203070640564    0.4539589881896973    0.9645633697509766 Na
   0.2184796929359436    0.5460409522056580    0.9645633697509766 Na
   0.5460409522056580    0.7815203070640564    0.9645633697509766 Na
   0.4539589881896973    0.2184796929359436    0.9645633697509766 Na
   0.7052458524703979    0.0242085773497820    0.9829933643341064 S
   0.9757913947105408    0.7052458524703979    0.9829933643341064 S
   0.2052458524703979    0.5242086052894592    0.4829933643341064 S
   0.4757914245128632    0.2052458524703979    0.4829933643341064 S
