Na3 Sr1 Ga1 S9
1.0
   8.4627532958984375   -2.2675881385803223    0.0000000000000000
  -2.2675881385803223    8.4627532958984375    0.0000000000000000
   0.0000000000000000    0.0000000000000000    6.0329279899597168
S Ga Sr Na
9 1 1 3
direct
   0.6001016497612000    0.6538660526275635    0.9166247844696045 S
   0.3461339473724365    0.9462355971336365    0.9166247844696045 S
   0.0537644028663635    0.3998983502388000    0.9166247844696045 S
   0.0868313610553741    0.8528789281845093    0.9078367948532104 S
   0.1471210718154907    0.2339524030685425    0.9078367948532104 S
   0.7660475969314575    0.9131686687469482    0.9078367948532104 S
   0.4038849771022797    0.3500041663646698    0.8046620488166809 S
   0.6499958038330078    0.0538808107376099    0.8046620488166809 S
   0.9461191892623901    0.5961149930953979    0.8046620488166809 S
   0.5388154387474060    0.3878713250160217    0.9088428616523743 Ga
   0.2993934750556946    0.6386105418205261    0.3944287598133087 Sr
   0.8811252117156982    0.1886873245239258    0.3904577195644379 Na
   0.8113126754760742    0.6924378871917725    0.3904577195644379 Na
   0.3075621128082275    0.1188747882843018    0.3904577195644379 Na
