Mo1 F7
1.0
   6.8114690780639648   -1.8251277208328247    0.0000000000000000
  -1.8251277208328247    6.8114690780639648    0.0000000000000000
   0.0000000000000000    0.0000000000000000    3.5866875648498535
F Mo
7 1
direct
   0.1958818584680557    0.3954839706420898    0.1949930638074875 F
   0.6045160293579102    0.8003978729248047    0.1949930638074875 F
   0.1996021121740341    0.8041181564331055    0.1949930638074875 F
   0.3954839706420898    0.1958818584680557    0.1949930638074875 F
   0.8003978729248047    0.6045160293579102    0.1949930638074875 F
   0.8041181564331055    0.1996021121740341    0.1949930638074875 F
   0.2680344283580780    0.3385386765003204    0.7335559725761414 F
   0.9044234156608582    0.8624854087829590    0.2811678946018219 Mo
