Re4 O16
1.0
   7.3161115646362305    0.0000000000000000    0.0000000000000000
   0.0000000000000000    7.3161115646362305    0.0000000000000000
   0.0000000000000000    0.0000000000000000    8.1027526855468750
O Re
16 4
direct
   0.2841186821460724    0.0407427735626698    0.6861392855644226 O
   0.7158813476562500    0.9592572450637817    0.6861392855644226 O
   0.9592572450637817    0.2841186821460724    0.1861393451690674 O
   0.0407427735626698    0.7158813476562500    0.1861393451690674 O
   0.2841186821460724    0.9592572450637817    0.1861393451690674 O
   0.7158813476562500    0.0407427735626698    0.1861393451690674 O
   0.9592572450637817    0.7158813476562500    0.6861392855644226 O
   0.0407427735626698    0.2841186821460724    0.6861392855644226 O
   0.4694560468196869    0.7695800662040710    0.9669609665870667 O
   0.5305439233779907    0.2304199337959290    0.9669609665870667 O
   0.2304199337959290    0.4694560468196869    0.4669609069824219 O
   0.7695800662040710    0.5305439233779907    0.4669609069824219 O
   0.4694560468196869    0.2304199337959290    0.4669609069824219 O
   0.5305439233779907    0.7695800662040710    0.4669609069824219 O
   0.2304199337959290    0.5305439233779907    0.9669609665870667 O
   0.7695800662040710    0.4694560468196869    0.9669609665870667 O
   0.7473670840263367    0.7439360618591309    0.5676079392433167 Re
   0.2526329159736633    0.2560639381408691    0.5676079392433167 Re
   0.2560639381408691    0.7473670840263367    0.0676078796386719 Re
   0.7439360618591309    0.2526329159736633    0.0676078796386719 Re
