Li6 S6
1.0
   7.9051618576049805   -2.1181817054748535    0.0000000000000000
  -2.1181817054748535    7.9051618576049805    0.0000000000000000
   0.0000000000000000    0.0000000000000000    3.7105588912963867
Li S
6 6
direct
   0.8883550167083740    0.2910589873790741    0.0830490067601204 Li
   0.7089409828186035    0.5972959995269775    0.0830490067601204 Li
   0.4027040004730225    0.1116449832916260    0.0830490067601204 Li
   0.1116449832916260    0.7089409828186035    0.0830490067601204 Li
   0.2910589873790741    0.4027040004730225    0.0830490067601204 Li
   0.5972959995269775    0.8883550167083740    0.0830490067601204 Li
   0.4475049972534180    0.3129751086235046    0.5807333588600159 S
   0.6870248913764954    0.1345298886299133    0.5807333588600159 S
   0.8654701113700867    0.5524950027465820    0.5807333588600159 S
   0.5524950027465820    0.6870248913764954    0.5807333588600159 S
   0.3129751086235046    0.8654701113700867    0.5807333588600159 S
   0.1345298886299133    0.4475049972534180    0.5807333588600159 S
