H8 Pb4 O8
1.0
   7.1389079093933105    0.0000000000000000    0.0000000000000000
   0.0000000000000000    7.1389079093933105    0.0000000000000000
   0.0000000000000000    0.0000000000000000    5.1300821304321289
H O Pb
8 8 4
direct
   0.3285373151302338    0.1495262235403061    0.8511905074119568 H
   0.6714626550674438    0.8504737615585327    0.8511905074119568 H
   0.8504737615585327    0.3285373151302338    0.3511905670166016 H
   0.1495262235403061    0.6714626550674438    0.3511905670166016 H
   0.3285373151302338    0.8504737615585327    0.3511905670166016 H
   0.6714626550674438    0.1495262235403061    0.3511905670166016 H
   0.8504737615585327    0.6714626550674438    0.8511905074119568 H
   0.1495262235403061    0.3285373151302338    0.8511905074119568 H
   0.3841611444950104    0.2705903649330139    0.8924821019172668 O
   0.6158388853073120    0.7294096350669861    0.8924821019172668 O
   0.7294096350669861    0.3841611444950104    0.3924820423126221 O
   0.2705903649330139    0.6158388853073120    0.3924820423126221 O
   0.4223151803016663    0.9550092816352844    0.3824985921382904 O
   0.0449907183647156    0.4223151803016663    0.8824986219406128 O
   0.8480432033538818    0.1200860291719437    0.3156854212284088 O
   0.8799139857292175    0.8480432033538818    0.8156853914260864 O
   0.2631942033767700    0.7681161165237427    0.8521032929420471 Pb
   0.2318838834762573    0.2631942033767700    0.3521032333374023 Pb
   0.7368057966232300    0.7681161165237427    0.3521032333374023 Pb
   0.7681161165237427    0.2631942033767700    0.8521032929420471 Pb
