Li12 P6
1.0
   6.1469559669494629    0.0000000000000000    0.0000000000000000
   0.0000000000000000    6.1469559669494629    0.0000000000000000
   0.0000000000000000    0.0000000000000000    7.7696313858032227
P Li P
2 12 4
direct
   0.7512610554695129    0.2226483523845673    0.4142486453056335 P
   0.7773516178131104    0.2512609958648682    0.9142486453056335 P
   0.0366458892822266    0.9123370051383972    0.3054944872856140 Li
   0.4633541107177734    0.5876629948616028    0.3054944872856140 Li
   0.0876629948616028    0.5366458892822266    0.8054944872856140 Li
   0.4123370647430420    0.9633541107177734    0.8054944872856140 Li
   0.9633541107177734    0.0876629948616028    0.6945055127143860 Li
   0.5366458892822266    0.4123370647430420    0.6945055127143860 Li
   0.9123370051383972    0.4633541107177734    0.1945055127143860 Li
   0.5876629948616028    0.0366458892822266    0.1945055127143860 Li
   0.7412124872207642    0.7870059013366699    0.5554232597351074 Li
   0.2129940986633301    0.2412124872207642    0.0554232597351074 Li
   0.2587875127792358    0.2129940986633301    0.4445767402648926 Li
   0.7870059013366699    0.7587875127792358    0.9445767402648926 Li
   0.0952172502875328    0.5657448172569275    0.4777370095252991 P
   0.4047827422618866    0.9342551827430725    0.4777370095252991 P
   0.4342551827430725    0.5952172279357910    0.9777370095252991 P
   0.0657448768615723    0.9047827720642090    0.9777370095252991 P
