S2 Br4
1.0
   5.8931889533996582    0.0000000000000000    0.0000000000000000
   0.0000000000000000    5.8931889533996582    0.0000000000000000
   0.0000000000000000    0.0000000000000000    7.1705131530761719
S Br
2 4
direct
   0.0988711863756180    0.2513577044010162    0.9933838248252869 S
   0.5988711714744568    0.7513576745986938    0.4933838844299316 S
   0.6470817923545837    0.0162374321371317    0.3745851218700409 Br
   0.9837625622749329    0.6470817923545837    0.3745851218700409 Br
   0.1470818519592285    0.5162374377250671    0.8745851516723633 Br
   0.4837625622749329    0.1470818519592285    0.8745851516723633 Br
