Cu2 Te2
1.0
   4.3982739448547363    0.0000000000000000   -0.0186599493026733
   0.0000000000000000    4.3092722892761230    0.0000000000000000
  -0.0186599474400282    0.0000000000000000    4.9096922874450684
Cu Te
2 2
direct
   0.2462283968925476    0.1057861894369125    0.2410679608583450 Cu
   0.7537716031074524    0.1057861894369125    0.7589320540428162 Cu
   0.2483637332916260    0.6054008603096008    0.7691684365272522 Te
   0.7507050037384033    0.6047174334526062    0.2683144211769104 Te
