H12
1.0
   4.9731187820434570   -1.3325430154800415    0.0000000000000000
  -1.3325430154800415    4.9731187820434570    0.0000000000000000
   0.0000000000000000    0.0000000000000000    3.3481523990631104
H
12
direct
   0.6531415581703186    0.0038645369932055    0.7097088694572449 H
   0.9961354732513428    0.6492770314216614    0.7097088694572449 H
   0.3507229685783386    0.3468584418296814    0.7097088694572449 H
   0.6531415581703186    0.0038645369932055    0.2902911305427551 H
   0.9961354732513428    0.6492770314216614    0.2902911305427551 H
   0.3507229685783386    0.3468584418296814    0.2902911305427551 H
   0.9961354732513428    0.3468584418296814    0.7097088694572449 H
   0.3507229685783386    0.0038645369932055    0.7097088694572449 H
   0.6531415581703186    0.6492770314216614    0.7097088694572449 H
   0.9961354732513428    0.3468584418296814    0.2902911305427551 H
   0.3507229685783386    0.0038645369932055    0.2902911305427551 H
   0.6531415581703186    0.6492770314216614    0.2902911305427551 H
