Cu4 S16
1.0
   9.0727291107177734    0.0000000000000000    0.0000000000000000
   0.0000000000000000    9.0727291107177734    0.0000000000000000
   0.0000000000000000    0.0000000000000000    6.0341114997863770
S Cu
16 4
direct
   0.1418791413307190    0.4324889183044434    0.3641870617866516 S
   0.3581208586692810    0.0675110816955566    0.3641870617866516 S
   0.0675110816955566    0.1418791413307190    0.8641870617866516 S
   0.4324889183044434    0.3581208586692810    0.8641870617866516 S
   0.3581208586692810    0.4324889183044434    0.6358129382133484 S
   0.1418791413307190    0.0675110816955566    0.6358129382133484 S
   0.4324889183044434    0.1418791413307190    0.1358129382133484 S
   0.0675110816955566    0.3581208586692810    0.1358129382133484 S
   0.8581208586692810    0.5675110816955566    0.6358129382133484 S
   0.6418791413307190    0.9324889183044434    0.6358129382133484 S
   0.9324889183044434    0.8581208586692810    0.1358129382133484 S
   0.5675110816955566    0.6418791413307190    0.1358129382133484 S
   0.6418791413307190    0.5675110816955566    0.3641870617866516 S
   0.8581208586692810    0.9324889183044434    0.3641870617866516 S
   0.5675110816955566    0.8581208586692810    0.8641870617866516 S
   0.9324889183044434    0.6418791413307190    0.8641870617866516 S
   0.7212629914283752    0.2009568512439728    0.4642246663570404 Cu
   0.2990431487560272    0.7212629914283752    0.9642246961593628 Cu
   0.2787370085716248    0.7990431785583496    0.5357753038406372 Cu
   0.7009568214416504    0.2787370085716248    0.0357753336429596 Cu
