Nb9 S7
1.0
   9.5696773529052734   -2.5641875267028809    0.0000000000000000
  -2.5641875267028809    9.5696773529052734    0.0000000000000000
   0.0000000000000000    0.0000000000000000    4.1404333114624023
S Nb S Nb
1 3 6 6
direct
   0.7183489799499512    0.3396832048892975    0.2500318884849548 S
   0.2289252579212189    0.2388532906770706    0.2482012510299683 Nb
   0.7611467242240906    0.9900719523429871    0.2482012510299683 Nb
   0.0099280327558517    0.7710747718811035    0.2482012510299683 Nb
   0.5530165433883667    0.8702325820922852    0.2468460053205490 S
   0.1297674179077148    0.6827839612960815    0.2468460053205490 S
   0.3172160387039185    0.4469834566116333    0.2468460053205490 S
   0.8702325820922852    0.5530165433883667    0.7531539797782898 S
   0.6827839612960815    0.1297674179077148    0.7531539797782898 S
   0.4469834566116333    0.3172160387039185    0.7531539797782898 S
   0.7036901712417603    0.7792084813117981    0.7516180872917175 Nb
   0.2207915186882019    0.9244816899299622    0.7516180872917175 Nb
   0.0755183100700378    0.2963098287582397    0.7516180872917175 Nb
   0.7792084813117981    0.7036901712417603    0.2483819127082825 Nb
   0.9244816899299622    0.2207915186882019    0.2483819127082825 Nb
   0.2963098287582397    0.0755183100700378    0.2483819127082825 Nb
