B4 S12
1.0
   6.0559067726135254    0.0000000000000000    0.0000000000000000
   0.0000000000000000    5.7042741775512695    0.0000000000000000
   0.0000000000000000    0.0000000000000000   10.6651287078857422
S B
12 4
direct
   0.2111179679632187    0.9136673212051392    0.5580655336380005 S
   0.7888820171356201    0.5863326787948608    0.5580655336380005 S
   0.7888820171356201    0.0863326787948608    0.4419344663619995 S
   0.2111179679632187    0.4136673212051392    0.4419344663619995 S
   0.7111179828643799    0.4136673212051392    0.0580655336380005 S
   0.2888820171356201    0.0863326787948608    0.0580655336380005 S
   0.2888820171356201    0.5863326787948608    0.9419344663619995 S
   0.7111179828643799    0.9136673212051392    0.9419344663619995 S
   0.2609807550907135    0.5282571315765381    0.1800302565097809 S
   0.7390192747116089    0.9717428684234619    0.1800302565097809 S
   0.7609807252883911    0.0282571315765381    0.6800302267074585 S
   0.2390192449092865    0.4717428684234619    0.6800302267074585 S
   0.1063691675662994    0.6015712022781372    0.5687552690505981 B
   0.8936308622360229    0.8984287977218628    0.5687552690505981 B
   0.6063691377639771    0.1015712022781372    0.0687552690505981 B
   0.3936308324337006    0.3984287977218628    0.0687552690505981 B
