H8
1.0
   3.9442625045776367    0.0000000000000000    0.0000000000000000
   0.0000000000000000    3.9442625045776367    0.0000000000000000
   0.0000000000000000    0.0000000000000000    3.9442625045776367
H
8
direct
   0.2179116010665894    0.6741798520088196    0.4164809882640839 H
   0.2179116010665894    0.1741797924041748    0.9164810180664062 H
   0.7179116010665894    0.6741798520088196    0.9164810180664062 H
   0.7179116010665894    0.1741797924041748    0.4164809882640839 H
   0.7179116010665894    0.1741797924041748    0.9164810180664062 H
   0.7179116010665894    0.6741798520088196    0.4164809882640839 H
   0.2179116010665894    0.1741797924041748    0.4164809882640839 H
   0.2179116010665894    0.6741798520088196    0.9164810180664062 H
