S8
1.0
   6.4771547317504883   -1.7355482578277588    0.0000000000000000
  -1.7355482578277588    6.4771547317504883    0.0000000000000000
   0.0000000000000000    0.0000000000000000    6.0737419128417969
S
8
direct
   0.4813831448554993    0.8259975910186768    0.9940249919891357 S
   0.5186168551445007    0.1740024089813232    0.0059750080108643 S
   0.8699931502342224    0.5858231782913208    0.2639729678630829 S
   0.4141768217086792    0.2841699719429016    0.2639729678630829 S
   0.2841699719429016    0.8699931502342224    0.2639729678630829 S
   0.1300068497657776    0.4141768217086792    0.7360270023345947 S
   0.5858231782913208    0.7158300280570984    0.7360270023345947 S
   0.7158300280570984    0.1300068497657776    0.7360270023345947 S
