P1 H10 O5
1.0
   5.9116039276123047    0.0000000000000000    0.0000000000000000
   0.0000000000000000    5.9116039276123047    0.0000000000000000
   0.0000000000000000    0.0000000000000000    4.2625489234924316
H O H P H
4 5 4 1 2
direct
   0.6942521929740906    0.9641819596290588    0.9294125437736511 H
   0.3057478070259094    0.0358180403709412    0.9294125437736511 H
   0.0358180403709412    0.6942521929740906    0.9294125437736511 H
   0.9641819596290588    0.3057478070259094    0.9294125437736511 H
   0.4411423206329346    0.4891529381275177    0.9000517725944519 O
   0.7919563651084900    0.6442158818244934    0.4359263479709625 O
   0.2080436348915100    0.3557841181755066    0.4359263479709625 O
   0.3557841181755066    0.7919563651084900    0.4359263479709625 O
   0.6442158818244934    0.2080436348915100    0.4359263479709625 O
   0.3478269875049591    0.2100441157817841    0.3692100048065186 H
   0.6521730422973633    0.7899558544158936    0.3692100048065186 H
   0.7899558544158936    0.3478269875049591    0.3692100048065186 H
   0.2100441157817841    0.6521730422973633    0.3692100048065186 H
   0.1887077242136002    0.4204958379268646    0.7826555371284485 P
   0.4867504835128784    0.9562131166458130    0.8708547949790955 H
   0.0437868833541870    0.4867504835128784    0.8708547949790955 H
