Sc4 Br4
1.0
   7.7182607650756836    0.0000000000000000    0.0000000000000000
   0.0000000000000000    7.7182607650756836    0.0000000000000000
   0.0000000000000000    0.0000000000000000    3.4776430130004883
Br Sc
4 4
direct
   0.8419364094734192    0.3418411016464233    0.3259243667125702 Br
   0.1580635905265808    0.6581588983535767    0.3259243667125702 Br
   0.6581588983535767    0.8419364094734192    0.3259243667125702 Br
   0.3418411016464233    0.1580635905265808    0.3259243667125702 Br
   0.6147369146347046    0.1581543534994125    0.8314050436019897 Sc
   0.3852630853652954    0.8418456315994263    0.8314050436019897 Sc
   0.8418456315994263    0.6147369146347046    0.8314050436019897 Sc
   0.1581543534994125    0.3852630853652954    0.8314050436019897 Sc
