H3 Ru1 S1
1.0
   3.9016625881195068   -1.0454473495483398    0.0000000000000000
  -1.0454473495483398    3.9016625881195068    0.0000000000000000
   0.0000000000000000    0.0000000000000000    4.4678616523742676
S H Ru
1 3 1
direct
   0.6788004040718079    0.2461220771074295    0.1567754447460175 S
   0.0547608584165573    0.6496800780296326    0.7114505171775818 H
   0.3503199219703674    0.4050807952880859    0.7114505171775818 H
   0.5949192047119141    0.9452391266822815    0.7114505171775818 H
   0.0540174394845963    0.8983865380287170    0.0499600693583488 Ru
