Er1 Al1 H6 N2 O1
1.0
   4.3789806365966797   -1.1733444929122925    0.0000000000000000
  -1.1733444929122925    4.3789806365966797    0.0000000000000000
   0.0000000000000000    0.0000000000000000    5.1065406799316406
N H O Er N Al
1 6 1 1 1 1
direct
   0.8351864814758301    0.9419111609458923    0.6759542822837830 N
   0.3182774484157562    0.3286859691143036    0.8890706896781921 H
   0.6713140010833740    0.9895914793014526    0.8890706896781921 H
   0.0104085206985474    0.6817225217819214    0.8890706896781921 H
   0.6713140010833740    0.6817225217819214    0.1109293103218079 H
   0.0104085206985474    0.3286859691143036    0.1109293103218079 H
   0.3182774484157562    0.9895914793014526    0.1109293103218079 H
   0.8514595627784729    0.5372884869575500    0.2118907719850540 O
   0.0981170758605003    0.7997546792030334    0.4414196312427521 Er
   0.3451512455940247    0.4234336912631989    0.6723068356513977 N
   0.6354122757911682    0.3028840422630310    0.4515084028244019 Al
