V3 S1 O12
1.0
   7.5930094718933105    0.0000000000000000    0.0000000000000000
   0.0000000000000000    7.5930094718933105    0.0000000000000000
   0.0000000000000000    0.0000000000000000    4.0383410453796387
S O V
1 12 3
direct
   0.6551163792610168    0.3468661606311798    0.3819133341312408 S
   0.3527278602123260    0.1057052984833717    0.7780469059944153 O
   0.6472721099853516    0.8942946791648865    0.7780469059944153 O
   0.1057052984833717    0.6472721099853516    0.2219530940055847 O
   0.8942946791648865    0.3527278602123260    0.2219530940055847 O
   0.6472721099853516    0.1057052984833717    0.2219530940055847 O
   0.3527278602123260    0.8942946791648865    0.2219530940055847 O
   0.8942946791648865    0.6472721099853516    0.7780469059944153 O
   0.1057052984833717    0.3527278602123260    0.7780469059944153 O
   0.3210082352161407    0.3759324252605438    0.2716721594333649 O
   0.6789917945861816    0.6240675449371338    0.2716721594333649 O
   0.3759324252605438    0.6789917945861816    0.7283278703689575 O
   0.6240675449371338    0.3210082352161407    0.7283278703689575 O
   0.0043059824965894    0.5140820741653442    0.0749749094247818 V
   0.5140820741653442    0.9956940412521362    0.9250251054763794 V
   0.3316188752651215    0.6674823760986328    0.3408537805080414 V
