V4 F8
1.0
   7.1141519546508789    0.0000000000000000    0.0000000000000000
   0.0000000000000000    7.1141519546508789    0.0000000000000000
   0.0000000000000000    0.0000000000000000    3.6975874900817871
F V
8 4
direct
   0.6224614977836609    0.0745507329702377    0.2508548796176910 F
   0.8775385022163391    0.4254492521286011    0.2508548796176910 F
   0.4254492521286011    0.6224614977836609    0.2508548796176910 F
   0.0745507329702377    0.8775385022163391    0.2508548796176910 F
   0.3775385022163391    0.9254492521286011    0.7491451501846313 F
   0.1224615573883057    0.5745507478713989    0.7491451501846313 F
   0.5745507478713989    0.3775385022163391    0.7491451501846313 F
   0.9254492521286011    0.1224615573883057    0.7491451501846313 F
   0.8971735239028931    0.3942331075668335    0.7468088269233704 V
   0.6028264760971069    0.1057668924331665    0.7468088269233704 V
   0.1057668924331665    0.8971735239028931    0.7468088269233704 V
   0.3942331075668335    0.6028264760971069    0.7468088269233704 V
