Li1 Ta2 Cl6
1.0
   6.7574195861816406    0.0000000000000000    0.0000000000000000
   0.0000000000000000    6.7574195861816406    0.0000000000000000
   0.0000000000000000    0.0000000000000000    5.8073463439941406
Cl Ta Cl Li
2 2 4 1
direct
   0.0042618340812624    0.4947037994861603    0.0146094541996717 Cl
   0.4947037994861603    0.9957381486892700    0.9853905439376831 Cl
   0.0021837754175067    0.4935814142227173    0.4958315193653107 Ta
   0.4935814142227173    0.9978162050247192    0.5041685104370117 Ta
   0.7506403326988220    0.7512012124061584    0.4957760870456696 Cl
   0.2493596673011780    0.2487987875938416    0.4957760870456696 Cl
   0.7512012124061584    0.2493596673011780    0.5042239427566528 Cl
   0.2487987875938416    0.7506403326988220    0.5042239427566528 Cl
   0.7353636622428894    0.2693288922309875    0.0000489950180054 Li
