H16
1.0
   5.6127877235412598    0.0000000000000000    0.0000000000000000
   0.0000000000000000    5.6127877235412598    0.0000000000000000
   0.0000000000000000    0.0000000000000000    5.6127877235412598
H
16
direct
   0.1622579395771027    0.3246307373046875    0.4187533557415009 H
   0.8377420902252197    0.6753692626953125    0.4187533557415009 H
   0.6753692626953125    0.1622579395771027    0.5812466144561768 H
   0.3246307373046875    0.8377420902252197    0.5812466144561768 H
   0.1622579395771027    0.3246307373046875    0.5812466144561768 H
   0.8377420902252197    0.6753692626953125    0.5812466144561768 H
   0.3246307373046875    0.8377420902252197    0.4187533557415009 H
   0.6753692626953125    0.1622579395771027    0.4187533557415009 H
   0.6622579097747803    0.8246307373046875    0.9187533855438232 H
   0.3377420604228973    0.1753692626953125    0.9187533855438232 H
   0.1753692626953125    0.6622579097747803    0.0812466442584991 H
   0.8246307373046875    0.3377420604228973    0.0812466442584991 H
   0.6622579097747803    0.8246307373046875    0.0812466442584991 H
   0.3377420604228973    0.1753692626953125    0.0812466442584991 H
   0.8246307373046875    0.3377420604228973    0.9187533855438232 H
   0.1753692626953125    0.6622579097747803    0.9187533855438232 H
