Mo4 O4
1.0
   4.8885035514831543    0.0000000000000000    0.0000000000000000
   0.0000000000000000    4.8885035514831543    0.0000000000000000
   0.0000000000000000    0.0000000000000000    5.7633657455444336
O Mo
4 4
direct
   0.5475176572799683    0.5675730705261230    0.9880472421646118 O
   0.0675730705261230    0.9524823427200317    0.5119527578353882 O
   0.4524823427200317    0.4324269294738770    0.5119527578353882 O
   0.9324269294738770    0.0475176572799683    0.9880472421646118 O
   0.4413270652294159    0.7443931698799133    0.8074150085449219 Mo
   0.0586729347705841    0.7556068301200867    0.1925849914550781 Mo
   0.9413270950317383    0.2443931102752686    0.3074150085449219 Mo
   0.5586729049682617    0.2556068301200867    0.6925849914550781 Mo
