N4 O8
1.0
   6.0609769821166992    0.0000000000000000    0.0000000000000000
   0.0000000000000000    5.4126148223876953    0.0000000000000000
   0.0000000000000000    0.0000000000000000    4.9871158599853516
O N
8 4
direct
   0.7433346509933472    0.2455954104661942    0.9948122501373291 O
   0.7433346509933472    0.7544046044349670    0.9948122501373291 O
   0.2566653490066528    0.7544046044349670    0.9948122501373291 O
   0.2566653490066528    0.2455954104661942    0.9948122501373291 O
   0.2671813070774078    0.5266893506050110    0.3609844744205475 O
   0.7328187227249146    0.4733106493949890    0.3609844744205475 O
   0.7671812772750854    0.0266892910003662    0.3609844744205475 O
   0.2328186929225922    0.9733106493949890    0.3609844744205475 O
   0.2559066414833069    0.0015521282330155    0.1340303421020508 N
   0.7440933585166931    0.9984478950500488    0.1340303421020508 N
   0.7559066414833069    0.5015521049499512    0.1340303421020508 N
   0.2440933585166931    0.4984478652477264    0.1340303421020508 N
