B4 P2 S10                               
   1.00000000000000     
     6.8870649337768555    0.0000000000000000    0.0000000000000000
     0.0000000000000000    6.8870649337768555    0.0000000000000000
     0.0000000000000000    0.0000000000000000    8.0275917053222656
   B    P    S 
     4     2    10
Direct
  0.7187525033950806  0.5667496323585510  0.3833906352519989
  0.4332503676414490  0.7187525033950806  0.3833906352519989
  0.2812474966049194  0.5667496323585510  0.8833906650543213
  0.5667496323585510  0.7187525033950806  0.8833906650543213
  0.9199421405792236  0.2118859291076660  0.9152193665504456
  0.0800578594207764  0.2118859291076660  0.4152193069458008
  0.5099616646766663  0.5666897296905518  0.0125742591917515
  0.4900383353233337  0.5666897296905518  0.5125742554664612
  0.6707271933555603  0.1501409858465195  0.7917193770408630
  0.3292728066444397  0.8498589992523193  0.7917193770408630
  0.8498589992523193  0.6707271933555603  0.7917193770408630
  0.1501409858465195  0.3292728066444397  0.7917193770408630
  0.6707271933555603  0.8498589992523193  0.2917194366455078
  0.3292728066444397  0.1501409858465195  0.2917194366455078
  0.8498589992523193  0.3292728066444397  0.2917194366455078
  0.1501409858465195  0.6707271933555603  0.2917194366455078
 
  0.00000000E+00  0.00000000E+00  0.00000000E+00
  0.00000000E+00  0.00000000E+00  0.00000000E+00
  0.00000000E+00  0.00000000E+00  0.00000000E+00
  0.00000000E+00  0.00000000E+00  0.00000000E+00
  0.00000000E+00  0.00000000E+00  0.00000000E+00
  0.00000000E+00  0.00000000E+00  0.00000000E+00
  0.00000000E+00  0.00000000E+00  0.00000000E+00
  0.00000000E+00  0.00000000E+00  0.00000000E+00
  0.00000000E+00  0.00000000E+00  0.00000000E+00
  0.00000000E+00  0.00000000E+00  0.00000000E+00
  0.00000000E+00  0.00000000E+00  0.00000000E+00
  0.00000000E+00  0.00000000E+00  0.00000000E+00
  0.00000000E+00  0.00000000E+00  0.00000000E+00
  0.00000000E+00  0.00000000E+00  0.00000000E+00
  0.00000000E+00  0.00000000E+00  0.00000000E+00
  0.00000000E+00  0.00000000E+00  0.00000000E+00
