   16   16    1    2
  0.2379763E+02  0.6887065E-09  0.6887065E-09  0.8027592E-09  0.3000000E-15
  1.000000000000000E-004
  CAR 
 unknown system                          
     82     92     55
 
  0.0000000E+00  0.0000000E+00  0.0000000E+00  0.5555556E-02
      1        -14.052140      -14.003105   1.000000   1.000000
      2        -13.728364      -13.682210   1.000000   1.000000
      3        -12.936531      -12.891717   1.000000   1.000000
      4        -12.765797      -12.717471   1.000000   1.000000
      5        -11.191871      -11.123664   1.000000   1.000000
      6        -11.119310      -11.051690   1.000000   1.000000
      7        -10.783488      -10.736783   1.000000   1.000000
      8        -10.492673      -10.439512   1.000000   1.000000
      9        -10.176564       -9.537693   1.000000   1.000000
     10        -10.099292       -9.448722   1.000000   1.000000
     11         -7.279505       -7.243816   1.000000   1.000000
     12         -7.154077       -7.119011   1.000000   1.000000
     13         -5.510417       -5.477208   1.000000   1.000000
     14         -5.337122       -5.300505   1.000000   1.000000
     15         -4.909156       -4.852552   1.000000   1.000000
     16         -4.224475       -4.193606   1.000000   1.000000
     17         -3.716924       -3.666398   1.000000   1.000000
     18         -3.490438       -3.432004   1.000000   1.000000
     19         -3.231275       -3.179421   1.000000   1.000000
     20         -2.953316       -2.880164   1.000000   1.000000
     21         -2.697715       -2.607954   1.000000   1.000000
     22         -2.476659       -2.344250   1.000000   1.000000
     23         -2.229039       -2.099707   1.000000   1.000000
     24         -2.144107       -2.055652   1.000000   1.000000
     25         -1.926343       -1.840059   1.000000   1.000000
     26         -1.669440       -1.589891   1.000000   1.000000
     27         -1.353966       -1.282384   1.000000   1.000000
     28         -1.078480       -0.970610   1.000000   1.000000
     29         -0.777282       -0.736337   1.000000   1.000000
     30         -0.639825       -0.464406   1.000000   1.000000
     31         -0.338611       -0.277079   1.000000   1.000000
     32         -0.236761       -0.096268   1.000000   1.000000
     33          0.131324        0.256450   1.000000   1.000000
     34          0.359544        0.499118   1.000000   1.000000
     35          0.391263        0.509208   1.000000   1.000000
     36          0.664309        0.784966   1.000000   1.000000
     37          0.802503        1.102488   1.000000   1.000000
     38          0.899009        1.196885   1.000000   1.000000
     39          0.945447        1.288008   1.000000   1.000000
     40          1.068148        1.382757   1.000000   0.999942
     41          1.075587        1.910085   1.000000   0.000000
     42          1.435133        2.012198   0.991139   0.000000
     43          2.584513        2.654125   0.000000   0.000000
     44          2.664843        2.722351   0.000000   0.000000
     45          3.251645        3.291789   0.000000   0.000000
     46          3.647756        3.685561   0.000000   0.000000
     47          3.913317        3.952266   0.000000   0.000000
     48          3.927938        3.974001   0.000000   0.000000
     49          4.441694        4.506018   0.000000   0.000000
     50          4.900270        4.976093   0.000000   0.000000
     51          5.373859        5.472292   0.000000   0.000000
     52          5.822233        5.849219   0.000000   0.000000
     53          6.190914        6.221455   0.000000   0.000000
     54          6.517309        6.546924   0.000000   0.000000
     55          6.566623        6.594588   0.000000   0.000000
 
  0.1666667E+00  0.0000000E+00  0.0000000E+00  0.1111111E-01
      1        -14.042735      -13.994565   1.000000   1.000000
      2        -13.722563      -13.677117   1.000000   1.000000
      3        -12.948665      -12.902333   1.000000   1.000000
      4        -12.768379      -12.718839   1.000000   1.000000
      5        -11.208777      -11.141748   1.000000   1.000000
      6        -11.144389      -11.078313   1.000000   1.000000
      7        -10.764575      -10.712585   1.000000   1.000000
      8        -10.512929      -10.443323   1.000000   1.000000
      9        -10.182264       -9.554095   1.000000   1.000000
     10        -10.065126       -9.427655   1.000000   1.000000
     11         -7.268978       -7.233030   1.000000   1.000000
     12         -7.150158       -7.113779   1.000000   1.000000
     13         -5.486166       -5.452641   1.000000   1.000000
     14         -5.240534       -5.202005   1.000000   1.000000
     15         -4.903422       -4.843381   1.000000   1.000000
     16         -4.238996       -4.206003   1.000000   1.000000
     17         -3.739877       -3.693510   1.000000   1.000000
     18         -3.561558       -3.510385   1.000000   1.000000
     19         -3.174751       -3.099939   1.000000   1.000000
     20         -2.979470       -2.913780   1.000000   1.000000
     21         -2.723210       -2.626100   1.000000   1.000000
     22         -2.541692       -2.405544   1.000000   1.000000
     23         -2.210786       -2.117589   1.000000   1.000000
     24         -2.095353       -2.022722   1.000000   1.000000
     25         -1.929556       -1.825393   1.000000   1.000000
     26         -1.620365       -1.565077   1.000000   1.000000
     27         -1.462208       -1.337608   1.000000   1.000000
     28         -1.026006       -0.915997   1.000000   1.000000
     29         -0.754052       -0.724118   1.000000   1.000000
     30         -0.503976       -0.416640   1.000000   1.000000
     31         -0.449662       -0.305437   1.000000   1.000000
     32         -0.244943       -0.112759   1.000000   1.000000
     33          0.070823        0.185852   1.000000   1.000000
     34          0.371809        0.491721   1.000000   1.000000
     35          0.386961        0.509176   1.000000   1.000000
     36          0.569043        0.691344   1.000000   1.000000
     37          0.781480        1.040292   1.000000   1.000000
     38          0.828928        1.143877   1.000000   1.000000
     39          0.878230        1.320768   1.000000   1.000000
     40          1.018571        1.396774   1.000000   0.999726
     41          1.164688        1.926450   1.000000   0.000000
     42          1.475459        2.015079   0.890791   0.000000
     43          2.541167        2.614786   0.000000   0.000000
     44          2.583294        2.644263   0.000000   0.000000
     45          3.284958        3.324815   0.000000   0.000000
     46          3.566887        3.610036   0.000000   0.000000
     47          3.942082        3.982668   0.000000   0.000000
     48          4.168576        4.205581   0.000000   0.000000
     49          4.546570        4.605757   0.000000   0.000000
     50          4.908900        4.976129   0.000000   0.000000
     51          5.496874        5.598039   0.000000   0.000000
     52          5.866155        5.897572   0.000000   0.000000
     53          6.142414        6.169687   0.000000   0.000000
     54          6.374206        6.405668   0.000000   0.000000
     55          6.526116        6.561997   0.000000   0.000000
 
  0.0000000E+00  0.1666667E+00  0.0000000E+00  0.1111111E-01
      1        -14.046918      -13.998038   1.000000   1.000000
      2        -13.725018      -13.678989   1.000000   1.000000
      3        -12.943737      -12.899086   1.000000   1.000000
      4        -12.767649      -12.719709   1.000000   1.000000
      5        -11.205595      -11.138407   1.000000   1.000000
      6        -11.127368      -11.059244   1.000000   1.000000
      7        -10.767507      -10.719102   1.000000   1.000000
      8        -10.480921      -10.426937   1.000000   1.000000
      9        -10.182501       -9.544073   1.000000   1.000000
     10        -10.101971       -9.452583   1.000000   1.000000
     11         -7.313863       -7.278304   1.000000   1.000000
     12         -7.185432       -7.150473   1.000000   1.000000
     13         -5.448954       -5.413459   1.000000   1.000000
     14         -5.274035       -5.236326   1.000000   1.000000
     15         -4.908840       -4.855677   1.000000   1.000000
     16         -4.233285       -4.202345   1.000000   1.000000
     17         -3.672280       -3.623418   1.000000   1.000000
     18         -3.549637       -3.488269   1.000000   1.000000
     19         -3.184780       -3.134196   1.000000   1.000000
     20         -2.903613       -2.840357   1.000000   1.000000
     21         -2.738536       -2.661554   1.000000   1.000000
     22         -2.458006       -2.328783   1.000000   1.000000
     23         -2.223448       -2.145574   1.000000   1.000000
     24         -2.141882       -2.007864   1.000000   1.000000
     25         -1.835738       -1.749019   1.000000   1.000000
     26         -1.661448       -1.576352   1.000000   1.000000
     27         -1.412510       -1.336327   1.000000   1.000000
     28         -1.038597       -0.930976   1.000000   1.000000
     29         -0.782700       -0.748727   1.000000   1.000000
     30         -0.653809       -0.501711   1.000000   1.000000
     31         -0.400063       -0.329972   1.000000   1.000000
     32         -0.263229       -0.103659   1.000000   1.000000
     33          0.068166        0.236961   1.000000   1.000000
     34          0.349326        0.523489   1.000000   1.000000
     35          0.423337        0.525625   1.000000   1.000000
     36          0.598109        0.755178   1.000000   1.000000
     37          0.678466        1.052117   1.000000   1.000000
     38          0.869283        1.147997   1.000000   1.000000
     39          0.907598        1.263602   1.000000   1.000000
     40          1.071353        1.385418   1.000000   0.999921
     41          1.091616        1.824111   1.000000   0.000000
     42          1.424991        1.925250   0.996072   0.000000
     43          2.546623        2.614261   0.000000   0.000000
     44          2.586956        2.651655   0.000000   0.000000
     45          3.185721        3.232068   0.000000   0.000000
     46          3.639354        3.676502   0.000000   0.000000
     47          4.022705        4.068803   0.000000   0.000000
     48          4.126829        4.175881   0.000000   0.000000
     49          4.513683        4.566122   0.000000   0.000000
     50          4.863513        4.939507   0.000000   0.000000
     51          5.404372        5.509271   0.000000   0.000000
     52          5.891928        5.920036   0.000000   0.000000
     53          6.103896        6.137752   0.000000   0.000000
     54          6.336830        6.368964   0.000000   0.000000
     55          6.568524        6.605159   0.000000   0.000000
 
  0.3333333E+00  0.0000000E+00  0.0000000E+00  0.1111111E-01
      1        -14.023186      -13.976889   1.000000   1.000000
      2        -13.710769      -13.666805   1.000000   1.000000
      3        -12.973726      -12.924113   1.000000   1.000000
      4        -12.774128      -12.722098   1.000000   1.000000
      5        -11.237902      -11.172321   1.000000   1.000000
      6        -11.192385      -11.128042   1.000000   1.000000
      7        -10.733473      -10.672255   1.000000   1.000000
      8        -10.535417      -10.447090   1.000000   1.000000
      9        -10.196672       -9.582211   1.000000   1.000000
     10        -10.014404       -9.398847   1.000000   1.000000
     11         -7.233637       -7.195401   1.000000   1.000000
     12         -7.141597       -7.101855   1.000000   1.000000
     13         -5.452356       -5.416323   1.000000   1.000000
     14         -5.060161       -5.023143   1.000000   1.000000
     15         -4.872339       -4.803718   1.000000   1.000000
     16         -4.271558       -4.235607   1.000000   1.000000
     17         -3.787649       -3.745286   1.000000   1.000000
     18         -3.619234       -3.573259   1.000000   1.000000
     19         -3.125947       -2.998818   1.000000   1.000000
     20         -2.960054       -2.930430   1.000000   1.000000
     21         -2.783616       -2.703223   1.000000   1.000000
     22         -2.641177       -2.493489   1.000000   1.000000
     23         -2.399224       -2.316048   1.000000   1.000000
     24         -1.969107       -1.878302   1.000000   1.000000
     25         -1.889826       -1.813588   1.000000   1.000000
     26         -1.663628       -1.597703   1.000000   1.000000
     27         -1.368194       -1.256623   1.000000   1.000000
     28         -0.948009       -0.873993   1.000000   1.000000
     29         -0.724291       -0.665521   1.000000   1.000000
     30         -0.647401       -0.523245   1.000000   1.000000
     31         -0.458834       -0.329154   1.000000   1.000000
     32         -0.338481       -0.260037   1.000000   1.000000
     33          0.269199        0.377213   1.000000   1.000000
     34          0.295538        0.408977   1.000000   1.000000
     35          0.392508        0.521895   1.000000   1.000000
     36          0.455586        0.570163   1.000000   1.000000
     37          0.662863        0.887518   1.000000   1.000000
     38          0.800314        1.111516   1.000000   1.000000
     39          0.850813        1.337864   1.000000   1.000000
     40          0.889277        1.461615   1.000000   0.947634
     41          1.246938        1.930756   1.000000   0.000000
     42          1.490500        1.951530   0.789688   0.000000
     43          2.354710        2.434605   0.000000   0.000000
     44          2.434338        2.521095   0.000000   0.000000
     45          3.348653        3.390360   0.000000   0.000000
     46          3.541496        3.574520   0.000000   0.000000
     47          4.113698        4.162605   0.000000   0.000000
     48          4.447856        4.482169   0.000000   0.000000
     49          4.708402        4.749516   0.000000   0.000000
     50          4.922240        4.971215   0.000000   0.000000
     51          5.590169        5.663524   0.000000   0.000000
     52          5.952991        5.983467   0.000000   0.000000
     53          6.190159        6.235361   0.000000   0.000000
     54          6.312217        6.362829   0.000000   0.000000
     55          6.500157        6.551723   0.000000   0.000000
 
  0.0000000E+00  0.3333333E+00  0.0000000E+00  0.1111111E-01
      1        -14.036266      -13.987704   1.000000   1.000000
      2        -13.718260      -13.672484   1.000000   1.000000
      3        -12.958415      -12.914064   1.000000   1.000000
      4        -12.771437      -12.724272   1.000000   1.000000
      5        -11.231347      -11.165221   1.000000   1.000000
      6        -11.142818      -11.073558   1.000000   1.000000
      7        -10.735747      -10.685837   1.000000   1.000000
      8        -10.456445      -10.402038   1.000000   1.000000
      9        -10.196006       -9.557594   1.000000   1.000000
     10        -10.109086       -9.461008   1.000000   1.000000
     11         -7.376576       -7.341096   1.000000   1.000000
     12         -7.243892       -7.209039   1.000000   1.000000
     13         -5.344456       -5.302091   1.000000   1.000000
     14         -5.146885       -5.106780   1.000000   1.000000
     15         -4.887491       -4.844048   1.000000   1.000000
     16         -4.247591       -4.217973   1.000000   1.000000
     17         -3.643157       -3.577793   1.000000   1.000000
     18         -3.572804       -3.526539   1.000000   1.000000
     19         -3.111181       -3.060734   1.000000   1.000000
     20         -2.854344       -2.789007   1.000000   1.000000
     21         -2.823293       -2.777965   1.000000   1.000000
     22         -2.393188       -2.277509   1.000000   1.000000
     23         -2.226121       -2.158613   1.000000   1.000000
     24         -2.065201       -1.970278   1.000000   1.000000
     25         -1.690954       -1.612872   1.000000   1.000000
     26         -1.677702       -1.577358   1.000000   1.000000
     27         -1.489412       -1.386304   1.000000   1.000000
     28         -0.951036       -0.847871   1.000000   1.000000
     29         -0.819582       -0.777827   1.000000   1.000000
     30         -0.725034       -0.637672   1.000000   1.000000
     31         -0.422916       -0.312408   1.000000   1.000000
     32         -0.363704       -0.163075   1.000000   1.000000
     33         -0.030097        0.224154   1.000000   1.000000
     34          0.240197        0.523305   1.000000   1.000000
     35          0.429558        0.531270   1.000000   1.000000
     36          0.492115        0.735946   1.000000   1.000000
     37          0.585360        0.903380   1.000000   1.000000
     38          0.758083        1.082751   1.000000   1.000000
     39          0.843124        1.203286   1.000000   1.000000
     40          1.053366        1.390097   1.000000   0.999866
     41          1.133110        1.647193   1.000000   0.000144
     42          1.380540        1.788284   0.999955   0.000000
     43          2.456232        2.521033   0.000000   0.000000
     44          2.473385        2.533247   0.000000   0.000000
     45          3.095546        3.160871   0.000000   0.000000
     46          3.668620        3.704611   0.000000   0.000000
     47          4.190761        4.244354   0.000000   0.000000
     48          4.473874        4.523134   0.000000   0.000000
     49          4.705131        4.742094   0.000000   0.000000
     50          4.800404        4.877769   0.000000   0.000000
     51          5.431392        5.527301   0.000000   0.000000
     52          5.949754        5.976671   0.000000   0.000000
     53          5.951305        6.013585   0.000000   0.000000
     54          6.139217        6.175529   0.000000   0.000000
     55          6.575684        6.633786   0.000000   0.000000
 
  0.5000000E+00  0.0000000E+00  0.0000000E+00  0.5555556E-02
      1        -14.013008      -13.967729   1.000000   1.000000
      2        -13.704772      -13.661585   1.000000   1.000000
      3        -12.986700      -12.935318   1.000000   1.000000
      4        -12.777297      -12.723984   1.000000   1.000000
      5        -11.247727      -11.182502   1.000000   1.000000
      6        -11.218654      -11.154908   1.000000   1.000000
      7        -10.720369      -10.654612   1.000000   1.000000
      8        -10.539904      -10.447263   1.000000   1.000000
      9        -10.205639       -9.595895   1.000000   1.000000
     10         -9.995261       -9.388913   1.000000   1.000000
     11         -7.203810       -7.163192   1.000000   1.000000
     12         -7.142247       -7.100888   1.000000   1.000000
     13         -5.444539       -5.406817   1.000000   1.000000
     14         -4.980939       -4.946802   1.000000   1.000000
     15         -4.844271       -4.770731   1.000000   1.000000
     16         -4.292261       -4.255481   1.000000   1.000000
     17         -3.811121       -3.771135   1.000000   1.000000
     18         -3.573964       -3.527177   1.000000   1.000000
     19         -3.129306       -2.994914   1.000000   1.000000
     20         -2.985820       -2.956787   1.000000   1.000000
     21         -2.868564       -2.801513   1.000000   1.000000
     22         -2.654917       -2.483305   1.000000   1.000000
     23         -2.373571       -2.286758   1.000000   1.000000
     24         -2.182645       -2.118997   1.000000   1.000000
     25         -1.721121       -1.635799   1.000000   1.000000
     26         -1.520694       -1.439610   1.000000   1.000000
     27         -1.423270       -1.363097   1.000000   1.000000
     28         -0.987648       -0.926723   1.000000   1.000000
     29         -0.812890       -0.628582   1.000000   1.000000
     30         -0.660651       -0.573013   1.000000   1.000000
     31         -0.501305       -0.437210   1.000000   1.000000
     32         -0.243164       -0.178831   1.000000   1.000000
     33          0.223004        0.351558   1.000000   1.000000
     34          0.379434        0.444350   1.000000   1.000000
     35          0.423911        0.556804   1.000000   1.000000
     36          0.430533        0.559302   1.000000   1.000000
     37          0.660587        0.877293   1.000000   1.000000
     38          0.771093        1.052642   1.000000   1.000000
     39          0.811280        1.346968   1.000000   0.999999
     40          0.833780        1.497524   1.000000   0.727965
     41          1.248192        1.870246   1.000000   0.000000
     42          1.481880        1.918295   0.852947   0.000000
     43          2.244951        2.343898   0.000000   0.000000
     44          2.352247        2.458618   0.000000   0.000000
     45          3.368713        3.406996   0.000000   0.000000
     46          3.551798        3.576899   0.000000   0.000000
     47          4.202913        4.255102   0.000000   0.000000
     48          4.629756        4.671430   0.000000   0.000000
     49          4.723021        4.753704   0.000000   0.000000
     50          4.960704        4.998156   0.000000   0.000000
     51          5.497883        5.561003   0.000000   0.000000
     52          5.904512        5.925353   0.000000   0.000000
     53          6.277888        6.316651   0.000000   0.000000
     54          6.548583        6.599943   0.000000   0.000000
     55          6.564486        6.619321   0.000000   0.000000
 
  0.0000000E+00  0.5000000E+00  0.0000000E+00  0.5555556E-02
      1        -14.030829      -13.982431   1.000000   1.000000
      2        -13.714849      -13.669199   1.000000   1.000000
      3        -12.965899      -12.921684   1.000000   1.000000
      4        -12.773387      -12.726611   1.000000   1.000000
      5        -11.243539      -11.177597   1.000000   1.000000
      6        -11.150232      -11.080356   1.000000   1.000000
      7        -10.719702      -10.669935   1.000000   1.000000
      8        -10.443563      -10.389660   1.000000   1.000000
      9        -10.203684       -9.564755   1.000000   1.000000
     10        -10.113649       -9.465587   1.000000   1.000000
     11         -7.405422       -7.369907   1.000000   1.000000
     12         -7.271297       -7.236452   1.000000   1.000000
     13         -5.304549       -5.257652   1.000000   1.000000
     14         -5.082014       -5.040510   1.000000   1.000000
     15         -4.862083       -4.824975   1.000000   1.000000
     16         -4.253757       -4.225518   1.000000   1.000000
     17         -3.684713       -3.617460   1.000000   1.000000
     18         -3.512647       -3.467737   1.000000   1.000000
     19         -3.077924       -3.027396   1.000000   1.000000
     20         -2.927899       -2.864329   1.000000   1.000000
     21         -2.800231       -2.759167   1.000000   1.000000
     22         -2.325090       -2.227516   1.000000   1.000000
     23         -2.209017       -2.141568   1.000000   1.000000
     24         -2.061888       -1.993054   1.000000   1.000000
     25         -1.726322       -1.611141   1.000000   1.000000
     26         -1.628862       -1.574913   1.000000   1.000000
     27         -1.451470       -1.339403   1.000000   1.000000
     28         -0.921833       -0.821468   1.000000   1.000000
     29         -0.874460       -0.801914   1.000000   1.000000
     30         -0.702457       -0.656906   1.000000   1.000000
     31         -0.459124       -0.298728   1.000000   1.000000
     32         -0.434935       -0.220901   1.000000   1.000000
     33         -0.036093        0.236158   1.000000   1.000000
     34          0.129953        0.513050   1.000000   1.000000
     35          0.411857        0.514369   1.000000   1.000000
     36          0.433860        0.737056   1.000000   1.000000
     37          0.599405        0.816993   1.000000   1.000000
     38          0.695455        1.048662   1.000000   1.000000
     39          0.815300        1.161867   1.000000   1.000000
     40          1.044506        1.395229   1.000000   0.999767
     41          1.157523        1.567584   1.000000   0.084575
     42          1.348193        1.740976   0.999999   0.000000
     43          2.398262        2.455582   0.000000   0.000000
     44          2.434788        2.488777   0.000000   0.000000
     45          3.065714        3.141246   0.000000   0.000000
     46          3.689852        3.724730   0.000000   0.000000
     47          4.252153        4.305877   0.000000   0.000000
     48          4.627588        4.675971   0.000000   0.000000
     49          4.801679        4.874412   0.000000   0.000000
     50          4.838934        4.880126   0.000000   0.000000
     51          5.418967        5.491186   0.000000   0.000000
     52          5.841275        5.868293   0.000000   0.000000
     53          5.880260        5.974537   0.000000   0.000000
     54          6.180702        6.217819   0.000000   0.000000
     55          6.581838        6.632755   0.000000   0.000000
 
  0.1666667E+00  0.1666667E+00  0.0000000E+00  0.1111111E-01
      1        -14.038235      -13.990199   1.000000   1.000000
      2        -13.719766      -13.674418   1.000000   1.000000
      3        -12.953051      -12.907046   1.000000   1.000000
      4        -12.768653      -12.719611   1.000000   1.000000
      5        -11.224069      -11.157372   1.000000   1.000000
      6        -11.148975      -11.080920   1.000000   1.000000
      7        -10.759859      -10.707665   1.000000   1.000000
      8        -10.503803      -10.432414   1.000000   1.000000
      9        -10.186016       -9.559134   1.000000   1.000000
     10        -10.066821       -9.430943   1.000000   1.000000
     11         -7.302719       -7.266613   1.000000   1.000000
     12         -7.146241       -7.110159   1.000000   1.000000
     13         -5.466051       -5.431566   1.000000   1.000000
     14         -5.183542       -5.142777   1.000000   1.000000
     15         -4.905520       -4.849244   1.000000   1.000000
     16         -4.240056       -4.208005   1.000000   1.000000
     17         -3.721337       -3.672757   1.000000   1.000000
     18         -3.567616       -3.515502   1.000000   1.000000
     19         -3.156548       -3.088504   1.000000   1.000000
     20         -2.941175       -2.890024   1.000000   1.000000
     21         -2.731945       -2.634595   1.000000   1.000000
     22         -2.519815       -2.402125   1.000000   1.000000
     23         -2.219532       -2.118874   1.000000   1.000000
     24         -2.142562       -2.053794   1.000000   1.000000
     25         -1.830873       -1.737222   1.000000   1.000000
     26         -1.601093       -1.540622   1.000000   1.000000
     27         -1.439974       -1.323493   1.000000   1.000000
     28         -1.015162       -0.911385   1.000000   1.000000
     29         -0.816971       -0.766967   1.000000   1.000000
     30         -0.597015       -0.491260   1.000000   1.000000
     31         -0.366801       -0.266241   1.000000   1.000000
     32         -0.248876       -0.132236   1.000000   1.000000
     33         -0.009118        0.179192   1.000000   1.000000
     34          0.328884        0.486951   1.000000   1.000000
     35          0.416277        0.518282   1.000000   1.000000
     36          0.529229        0.688062   1.000000   1.000000
     37          0.661271        0.997927   1.000000   1.000000
     38          0.793109        1.109914   1.000000   1.000000
     39          0.868465        1.271839   1.000000   1.000000
     40          1.020983        1.385222   1.000000   0.999923
     41          1.162615        1.847953   1.000000   0.000000
     42          1.449977        1.925155   0.974501   0.000000
     43          2.475043        2.558202   0.000000   0.000000
     44          2.549877        2.612297   0.000000   0.000000
     45          3.252585        3.293587   0.000000   0.000000
     46          3.608859        3.655055   0.000000   0.000000
     47          3.942248        3.982607   0.000000   0.000000
     48          4.293575        4.342023   0.000000   0.000000
     49          4.635170        4.686158   0.000000   0.000000
     50          4.903590        4.970031   0.000000   0.000000
     51          5.532142        5.635909   0.000000   0.000000
     52          5.841135        5.881398   0.000000   0.000000
     53          6.020338        6.044032   0.000000   0.000000
     54          6.413904        6.445953   0.000000   0.000000
     55          6.568568        6.607313   0.000000   0.000000
 
 -0.1666667E+00  0.1666667E+00  0.0000000E+00  0.1111111E-01
      1        -14.038235      -13.990199   1.000000   1.000000
      2        -13.719766      -13.674418   1.000000   1.000000
      3        -12.953051      -12.907046   1.000000   1.000000
      4        -12.768653      -12.719611   1.000000   1.000000
      5        -11.224069      -11.157372   1.000000   1.000000
      6        -11.148975      -11.080919   1.000000   1.000000
      7        -10.759859      -10.707665   1.000000   1.000000
      8        -10.503803      -10.432414   1.000000   1.000000
      9        -10.186016       -9.559134   1.000000   1.000000
     10        -10.066821       -9.430943   1.000000   1.000000
     11         -7.302719       -7.266614   1.000000   1.000000
     12         -7.146241       -7.110159   1.000000   1.000000
     13         -5.466051       -5.431566   1.000000   1.000000
     14         -5.183542       -5.142776   1.000000   1.000000
     15         -4.905520       -4.849244   1.000000   1.000000
     16         -4.240056       -4.208005   1.000000   1.000000
     17         -3.721337       -3.672758   1.000000   1.000000
     18         -3.567616       -3.515502   1.000000   1.000000
     19         -3.156548       -3.088504   1.000000   1.000000
     20         -2.941175       -2.890025   1.000000   1.000000
     21         -2.731945       -2.634595   1.000000   1.000000
     22         -2.519815       -2.402125   1.000000   1.000000
     23         -2.219532       -2.118874   1.000000   1.000000
     24         -2.142562       -2.053794   1.000000   1.000000
     25         -1.830873       -1.737222   1.000000   1.000000
     26         -1.601093       -1.540622   1.000000   1.000000
     27         -1.439974       -1.323493   1.000000   1.000000
     28         -1.015162       -0.911385   1.000000   1.000000
     29         -0.816972       -0.766967   1.000000   1.000000
     30         -0.597015       -0.491260   1.000000   1.000000
     31         -0.366801       -0.266240   1.000000   1.000000
     32         -0.248876       -0.132236   1.000000   1.000000
     33         -0.009118        0.179192   1.000000   1.000000
     34          0.328884        0.486951   1.000000   1.000000
     35          0.416277        0.518282   1.000000   1.000000
     36          0.529230        0.688062   1.000000   1.000000
     37          0.661271        0.997927   1.000000   1.000000
     38          0.793109        1.109914   1.000000   1.000000
     39          0.868466        1.271839   1.000000   1.000000
     40          1.020982        1.385222   1.000000   0.999923
     41          1.162615        1.847953   1.000000   0.000000
     42          1.449977        1.925155   0.974501   0.000000
     43          2.475043        2.558202   0.000000   0.000000
     44          2.549876        2.612297   0.000000   0.000000
     45          3.252585        3.293587   0.000000   0.000000
     46          3.608859        3.655055   0.000000   0.000000
     47          3.942248        3.982607   0.000000   0.000000
     48          4.293575        4.342022   0.000000   0.000000
     49          4.635170        4.686158   0.000000   0.000000
     50          4.903591        4.970031   0.000000   0.000000
     51          5.532142        5.635910   0.000000   0.000000
     52          5.841135        5.881398   0.000000   0.000000
     53          6.020338        6.044032   0.000000   0.000000
     54          6.413707        6.445699   0.000000   0.000000
     55          6.557212        6.593266   0.000000   0.000000
 
  0.3333333E+00  0.1666667E+00  0.0000000E+00  0.1111111E-01
      1        -14.020261      -13.974036   1.000000   1.000000
      2        -13.709105      -13.665175   1.000000   1.000000
      3        -12.972342      -12.923390   1.000000   1.000000
      4        -12.771262      -12.719929   1.000000   1.000000
      5        -11.254978      -11.188710   1.000000   1.000000
      6        -11.191792      -11.124985   1.000000   1.000000
      7        -10.751078      -10.688693   1.000000   1.000000
      8        -10.534685      -10.442428   1.000000   1.000000
      9        -10.195489       -9.583361   1.000000   1.000000
     10        -10.009796       -9.398142   1.000000   1.000000
     11         -7.240782       -7.202396   1.000000   1.000000
     12         -7.103180       -7.064649   1.000000   1.000000
     13         -5.460550       -5.424416   1.000000   1.000000
     14         -5.069353       -5.031286   1.000000   1.000000
     15         -4.876165       -4.809307   1.000000   1.000000
     16         -4.257728       -4.223825   1.000000   1.000000
     17         -3.783597       -3.738917   1.000000   1.000000
     18         -3.601320       -3.555779   1.000000   1.000000
     19         -3.092844       -3.000971   1.000000   1.000000
     20         -2.986831       -2.939562   1.000000   1.000000
     21         -2.772846       -2.685929   1.000000   1.000000
     22         -2.589217       -2.454300   1.000000   1.000000
     23         -2.389858       -2.301618   1.000000   1.000000
     24         -1.937161       -1.861442   1.000000   1.000000
     25         -1.884469       -1.789012   1.000000   1.000000
     26         -1.622874       -1.555964   1.000000   1.000000
     27         -1.376553       -1.271521   1.000000   1.000000
     28         -0.974585       -0.898903   1.000000   1.000000
     29         -0.810933       -0.724134   1.000000   1.000000
     30         -0.588054       -0.496409   1.000000   1.000000
     31         -0.465699       -0.341103   1.000000   1.000000
     32         -0.271159       -0.198077   1.000000   1.000000
     33          0.110957        0.277541   1.000000   1.000000
     34          0.250629        0.405700   1.000000   1.000000
     35          0.417962        0.536583   1.000000   1.000000
     36          0.460707        0.584017   1.000000   1.000000
     37          0.647482        0.874984   1.000000   1.000000
     38          0.686010        1.089898   1.000000   1.000000
     39          0.821705        1.278469   1.000000   1.000000
     40          0.916386        1.436592   1.000000   0.990099
     41          1.242966        1.831391   1.000000   0.000000
     42          1.454689        1.884664   0.965485   0.000000
     43          2.327119        2.441853   0.000000   0.000000
     44          2.418500        2.492794   0.000000   0.000000
     45          3.355395        3.391271   0.000000   0.000000
     46          3.540110        3.583160   0.000000   0.000000
     47          4.025263        4.064943   0.000000   0.000000
     48          4.476438        4.524050   0.000000   0.000000
     49          4.745723        4.787879   0.000000   0.000000
     50          4.965357        5.012571   0.000000   0.000000
     51          5.589099        5.650859   0.000000   0.000000
     52          6.006904        6.075975   0.000000   0.000000
     53          6.130635        6.165073   0.000000   0.000000
     54          6.434739        6.476656   0.000000   0.000000
     55          6.542569        6.597851   0.000000   0.000000
 
 -0.1666667E+00  0.3333333E+00  0.0000000E+00  0.1111111E-01
      1        -14.029095      -13.981329   1.000000   1.000000
      2        -13.714125      -13.668975   1.000000   1.000000
      3        -12.961942      -12.916579   1.000000   1.000000
      4        -12.769354      -12.721306   1.000000   1.000000
      5        -11.252575      -11.185540   1.000000   1.000000
      6        -11.158812      -11.087852   1.000000   1.000000
      7        -10.749802      -10.696910   1.000000   1.000000
      8        -10.486383      -10.412558   1.000000   1.000000
      9        -10.193838       -9.569150   1.000000   1.000000
     10        -10.071326       -9.438147   1.000000   1.000000
     11         -7.336582       -7.300571   1.000000   1.000000
     12         -7.173686       -7.137699   1.000000   1.000000
     13         -5.392167       -5.354798   1.000000   1.000000
     14         -5.108158       -5.061587   1.000000   1.000000
     15         -4.899347       -4.853210   1.000000   1.000000
     16         -4.241663       -4.211790   1.000000   1.000000
     17         -3.713715       -3.655966   1.000000   1.000000
     18         -3.527142       -3.479800   1.000000   1.000000
     19         -3.126493       -3.065693   1.000000   1.000000
     20         -2.945024       -2.905414   1.000000   1.000000
     21         -2.739452       -2.670640   1.000000   1.000000
     22         -2.458107       -2.352316   1.000000   1.000000
     23         -2.177764       -2.088657   1.000000   1.000000
     24         -2.112664       -2.011796   1.000000   1.000000
     25         -1.706378       -1.620889   1.000000   1.000000
     26         -1.585068       -1.522047   1.000000   1.000000
     27         -1.478266       -1.363717   1.000000   1.000000
     28         -1.009933       -0.936425   1.000000   1.000000
     29         -0.835564       -0.749711   1.000000   1.000000
     30         -0.632005       -0.560061   1.000000   1.000000
     31         -0.508589       -0.350807   1.000000   1.000000
     32         -0.274600       -0.148235   1.000000   1.000000
     33         -0.074156        0.189155   1.000000   1.000000
     34          0.267587        0.492279   1.000000   1.000000
     35          0.412332        0.540336   1.000000   1.000000
     36          0.469261        0.687792   1.000000   1.000000
     37          0.530195        0.895080   1.000000   1.000000
     38          0.737494        1.063661   1.000000   1.000000
     39          0.817257        1.158651   1.000000   1.000000
     40          0.987804        1.369133   1.000000   0.999989
     41          1.170777        1.680762   1.000000   0.000002
     42          1.382465        1.774607   0.999944   0.000000
     43          2.384837        2.464166   0.000000   0.000000
     44          2.448345        2.523568   0.000000   0.000000
     45          3.182061        3.233358   0.000000   0.000000
     46          3.657845        3.702027   0.000000   0.000000
     47          4.109650        4.159684   0.000000   0.000000
     48          4.450895        4.502612   0.000000   0.000000
     49          4.716924        4.769645   0.000000   0.000000
     50          4.921973        4.976263   0.000000   0.000000
     51          5.534291        5.612388   0.000000   0.000000
     52          5.805487        5.882742   0.000000   0.000000
     53          6.105604        6.127840   0.000000   0.000000
     54          6.339604        6.380584   0.000000   0.000000
     55          6.587067        6.633460   0.000000   0.000000
 
 -0.3333333E+00  0.1666667E+00  0.0000000E+00  0.1111111E-01
      1        -14.020261      -13.974036   1.000000   1.000000
      2        -13.709105      -13.665175   1.000000   1.000000
      3        -12.972342      -12.923390   1.000000   1.000000
      4        -12.771262      -12.719929   1.000000   1.000000
      5        -11.254978      -11.188711   1.000000   1.000000
      6        -11.191792      -11.124984   1.000000   1.000000
      7        -10.751078      -10.688693   1.000000   1.000000
      8        -10.534685      -10.442428   1.000000   1.000000
      9        -10.195489       -9.583361   1.000000   1.000000
     10        -10.009796       -9.398142   1.000000   1.000000
     11         -7.240783       -7.202397   1.000000   1.000000
     12         -7.103179       -7.064649   1.000000   1.000000
     13         -5.460551       -5.424416   1.000000   1.000000
     14         -5.069352       -5.031285   1.000000   1.000000
     15         -4.876165       -4.809307   1.000000   1.000000
     16         -4.257728       -4.223825   1.000000   1.000000
     17         -3.783597       -3.738917   1.000000   1.000000
     18         -3.601320       -3.555779   1.000000   1.000000
     19         -3.092844       -3.000971   1.000000   1.000000
     20         -2.986832       -2.939562   1.000000   1.000000
     21         -2.772845       -2.685929   1.000000   1.000000
     22         -2.589217       -2.454300   1.000000   1.000000
     23         -2.389858       -2.301618   1.000000   1.000000
     24         -1.937161       -1.861442   1.000000   1.000000
     25         -1.884469       -1.789012   1.000000   1.000000
     26         -1.622874       -1.555964   1.000000   1.000000
     27         -1.376553       -1.271521   1.000000   1.000000
     28         -0.974585       -0.898903   1.000000   1.000000
     29         -0.810933       -0.724134   1.000000   1.000000
     30         -0.588054       -0.496409   1.000000   1.000000
     31         -0.465698       -0.341103   1.000000   1.000000
     32         -0.271160       -0.198078   1.000000   1.000000
     33          0.110957        0.277541   1.000000   1.000000
     34          0.250629        0.405700   1.000000   1.000000
     35          0.417962        0.536583   1.000000   1.000000
     36          0.460707        0.584017   1.000000   1.000000
     37          0.647482        0.874984   1.000000   1.000000
     38          0.686011        1.089898   1.000000   1.000000
     39          0.821705        1.278469   1.000000   1.000000
     40          0.916386        1.436592   1.000000   0.990099
     41          1.242966        1.831391   1.000000   0.000000
     42          1.454689        1.884664   0.965485   0.000000
     43          2.327119        2.441853   0.000000   0.000000
     44          2.418500        2.492794   0.000000   0.000000
     45          3.355394        3.391271   0.000000   0.000000
     46          3.540110        3.583160   0.000000   0.000000
     47          4.025263        4.064943   0.000000   0.000000
     48          4.476438        4.524049   0.000000   0.000000
     49          4.745723        4.787879   0.000000   0.000000
     50          4.965358        5.012571   0.000000   0.000000
     51          5.589099        5.650859   0.000000   0.000000
     52          6.006904        6.075975   0.000000   0.000000
     53          6.130636        6.165073   0.000000   0.000000
     54          6.434759        6.476394   0.000000   0.000000
     55          6.543741        6.596821   0.000000   0.000000
 
  0.1666667E+00  0.3333333E+00  0.0000000E+00  0.1111111E-01
      1        -14.029095      -13.981329   1.000000   1.000000
      2        -13.714125      -13.668975   1.000000   1.000000
      3        -12.961941      -12.916579   1.000000   1.000000
      4        -12.769354      -12.721306   1.000000   1.000000
      5        -11.252575      -11.185540   1.000000   1.000000
      6        -11.158813      -11.087853   1.000000   1.000000
      7        -10.749802      -10.696910   1.000000   1.000000
      8        -10.486383      -10.412558   1.000000   1.000000
      9        -10.193838       -9.569150   1.000000   1.000000
     10        -10.071326       -9.438147   1.000000   1.000000
     11         -7.336582       -7.300570   1.000000   1.000000
     12         -7.173687       -7.137699   1.000000   1.000000
     13         -5.392167       -5.354798   1.000000   1.000000
     14         -5.108159       -5.061587   1.000000   1.000000
     15         -4.899347       -4.853210   1.000000   1.000000
     16         -4.241663       -4.211790   1.000000   1.000000
     17         -3.713715       -3.655965   1.000000   1.000000
     18         -3.527142       -3.479800   1.000000   1.000000
     19         -3.126493       -3.065693   1.000000   1.000000
     20         -2.945024       -2.905413   1.000000   1.000000
     21         -2.739452       -2.670641   1.000000   1.000000
     22         -2.458107       -2.352316   1.000000   1.000000
     23         -2.177764       -2.088657   1.000000   1.000000
     24         -2.112664       -2.011796   1.000000   1.000000
     25         -1.706378       -1.620889   1.000000   1.000000
     26         -1.585068       -1.522047   1.000000   1.000000
     27         -1.478266       -1.363717   1.000000   1.000000
     28         -1.009933       -0.936425   1.000000   1.000000
     29         -0.835564       -0.749711   1.000000   1.000000
     30         -0.632006       -0.560061   1.000000   1.000000
     31         -0.508589       -0.350807   1.000000   1.000000
     32         -0.274600       -0.148235   1.000000   1.000000
     33         -0.074156        0.189155   1.000000   1.000000
     34          0.267587        0.492279   1.000000   1.000000
     35          0.412332        0.540336   1.000000   1.000000
     36          0.469261        0.687792   1.000000   1.000000
     37          0.530195        0.895080   1.000000   1.000000
     38          0.737494        1.063661   1.000000   1.000000
     39          0.817257        1.158651   1.000000   1.000000
     40          0.987804        1.369133   1.000000   0.999989
     41          1.170777        1.680762   1.000000   0.000002
     42          1.382465        1.774607   0.999944   0.000000
     43          2.384836        2.464166   0.000000   0.000000
     44          2.448345        2.523568   0.000000   0.000000
     45          3.182061        3.233358   0.000000   0.000000
     46          3.657845        3.702027   0.000000   0.000000
     47          4.109650        4.159684   0.000000   0.000000
     48          4.450896        4.502613   0.000000   0.000000
     49          4.716924        4.769645   0.000000   0.000000
     50          4.921972        4.976262   0.000000   0.000000
     51          5.534291        5.612388   0.000000   0.000000
     52          5.805488        5.882742   0.000000   0.000000
     53          6.105604        6.127840   0.000000   0.000000
     54          6.339584        6.380607   0.000000   0.000000
     55          6.583505        6.628707   0.000000   0.000000
 
  0.5000000E+00  0.1666667E+00  0.0000000E+00  0.1111111E-01
      1        -14.010941      -13.965692   1.000000   1.000000
      2        -13.703699      -13.660508   1.000000   1.000000
      3        -12.982360      -12.931809   1.000000   1.000000
      4        -12.772863      -12.720340   1.000000   1.000000
      5        -11.265999      -11.199957   1.000000   1.000000
      6        -11.215300      -11.149242   1.000000   1.000000
      7        -10.748143      -10.679981   1.000000   1.000000
      8        -10.546385      -10.447651   1.000000   1.000000
      9        -10.200552       -9.594180   1.000000   1.000000
     10         -9.986018       -9.385022   1.000000   1.000000
     11         -7.182272       -7.142745   1.000000   1.000000
     12         -7.106723       -7.066241   1.000000   1.000000
     13         -5.453376       -5.415603   1.000000   1.000000
     14         -5.038211       -5.003891   1.000000   1.000000
     15         -4.842669       -4.769330   1.000000   1.000000
     16         -4.270708       -4.236113   1.000000   1.000000
     17         -3.822284       -3.781352   1.000000   1.000000
     18         -3.557960       -3.512408   1.000000   1.000000
     19         -3.096983       -2.991933   1.000000   1.000000
     20         -3.021015       -2.982488   1.000000   1.000000
     21         -2.835394       -2.756616   1.000000   1.000000
     22         -2.600780       -2.442777   1.000000   1.000000
     23         -2.318318       -2.228765   1.000000   1.000000
     24         -2.137327       -2.066278   1.000000   1.000000
     25         -1.777954       -1.699342   1.000000   1.000000
     26         -1.513253       -1.430410   1.000000   1.000000
     27         -1.404298       -1.327070   1.000000   1.000000
     28         -1.010080       -0.947324   1.000000   1.000000
     29         -0.805222       -0.643701   1.000000   1.000000
     30         -0.682493       -0.614982   1.000000   1.000000
     31         -0.462771       -0.385256   1.000000   1.000000
     32         -0.230572       -0.154315   1.000000   1.000000
     33          0.183559        0.338214   1.000000   1.000000
     34          0.201091        0.356358   1.000000   1.000000
     35          0.437814        0.565311   1.000000   1.000000
     36          0.471966        0.583421   1.000000   1.000000
     37          0.634275        0.838798   1.000000   1.000000
     38          0.733296        1.032452   1.000000   1.000000
     39          0.749106        1.333205   1.000000   1.000000
     40          0.840986        1.468000   1.000000   0.925311
     41          1.247298        1.759491   1.000000   0.000000
     42          1.450542        1.856063   0.973536   0.000000
     43          2.265315        2.380705   0.000000   0.000000
     44          2.311876        2.422434   0.000000   0.000000
     45          3.385343        3.423466   0.000000   0.000000
     46          3.535826        3.566530   0.000000   0.000000
     47          4.120805        4.167719   0.000000   0.000000
     48          4.515599        4.552663   0.000000   0.000000
     49          4.738761        4.778592   0.000000   0.000000
     50          4.978955        5.020444   0.000000   0.000000
     51          5.646955        5.707200   0.000000   0.000000
     52          6.070363        6.095774   0.000000   0.000000
     53          6.258003        6.317328   0.000000   0.000000
     54          6.530691        6.601454   0.000000   0.000000
     55          6.633715        6.673776   0.000000   0.000000
 
 -0.1666667E+00  0.5000000E+00  0.0000000E+00  0.1111111E-01
      1        -14.024447      -13.976819   1.000000   1.000000
      2        -13.711291      -13.666239   1.000000   1.000000
      3        -12.966452      -12.921405   1.000000   1.000000
      4        -12.769793      -12.722242   1.000000   1.000000
      5        -11.266052      -11.198611   1.000000   1.000000
      6        -11.163855      -11.091688   1.000000   1.000000
      7        -10.744560      -10.691208   1.000000   1.000000
      8        -10.477896      -10.403460   1.000000   1.000000
      9        -10.197947       -9.574144   1.000000   1.000000
     10        -10.074177       -9.442065   1.000000   1.000000
     11         -7.341075       -7.305292   1.000000   1.000000
     12         -7.200137       -7.163970   1.000000   1.000000
     13         -5.343243       -5.303223   1.000000   1.000000
     14         -5.083384       -5.034786   1.000000   1.000000
     15         -4.893837       -4.853286   1.000000   1.000000
     16         -4.241173       -4.212524   1.000000   1.000000
     17         -3.721768       -3.660078   1.000000   1.000000
     18         -3.478841       -3.433655   1.000000   1.000000
     19         -3.119910       -3.062651   1.000000   1.000000
     20         -2.968588       -2.927854   1.000000   1.000000
     21         -2.788428       -2.726865   1.000000   1.000000
     22         -2.345431       -2.259347   1.000000   1.000000
     23         -2.162895       -2.076122   1.000000   1.000000
     24         -2.021098       -1.928245   1.000000   1.000000
     25         -1.762403       -1.679706   1.000000   1.000000
     26         -1.583090       -1.510172   1.000000   1.000000
     27         -1.459965       -1.355595   1.000000   1.000000
     28         -1.042188       -0.981570   1.000000   1.000000
     29         -0.808822       -0.709875   1.000000   1.000000
     30         -0.622209       -0.552433   1.000000   1.000000
     31         -0.572451       -0.411371   1.000000   1.000000
     32         -0.386545       -0.186209   1.000000   1.000000
     33         -0.064398        0.201318   1.000000   1.000000
     34          0.231670        0.484602   1.000000   1.000000
     35          0.380131        0.570336   1.000000   1.000000
     36          0.443891        0.701717   1.000000   1.000000
     37          0.554105        0.841234   1.000000   1.000000
     38          0.667345        1.042434   1.000000   1.000000
     39          0.800283        1.082268   1.000000   1.000000
     40          0.965938        1.359581   1.000000   0.999997
     41          1.188014        1.602146   1.000000   0.009324
     42          1.339325        1.716228   1.000000   0.000000
     43          2.325100        2.389730   0.000000   0.000000
     44          2.411634        2.497990   0.000000   0.000000
     45          3.150215        3.208089   0.000000   0.000000
     46          3.672949        3.716355   0.000000   0.000000
     47          4.249864        4.307302   0.000000   0.000000
     48          4.562652        4.610798   0.000000   0.000000
     49          4.685879        4.736436   0.000000   0.000000
     50          4.861271        4.913513   0.000000   0.000000
     51          5.523430        5.605691   0.000000   0.000000
     52          5.988227        6.062956   0.000000   0.000000
     53          6.102159        6.126372   0.000000   0.000000
     54          6.237805        6.287062   0.000000   0.000000
     55          6.597913        6.647690   0.000000   0.000000
 
  0.3333333E+00  0.3333333E+00  0.0000000E+00  0.1111111E-01
      1        -14.014361      -13.968281   1.000000   1.000000
      2        -13.705777      -13.661915   1.000000   1.000000
      3        -12.969508      -12.921899   1.000000   1.000000
      4        -12.765562      -12.715649   1.000000   1.000000
      5        -11.288004      -11.220030   1.000000   1.000000
      6        -11.190477      -11.118722   1.000000   1.000000
      7        -10.783865      -10.720157   1.000000   1.000000
      8        -10.536449      -10.436178   1.000000   1.000000
      9        -10.193471       -9.585525   1.000000   1.000000
     10        -10.000832       -9.396951   1.000000   1.000000
     11         -7.221079       -7.183850   1.000000   1.000000
     12         -7.063679       -7.025984   1.000000   1.000000
     13         -5.455365       -5.418864   1.000000   1.000000
     14         -5.106754       -5.067986   1.000000   1.000000
     15         -4.883920       -4.819621   1.000000   1.000000
     16         -4.231835       -4.201111   1.000000   1.000000
     17         -3.784809       -3.736323   1.000000   1.000000
     18         -3.539774       -3.496027   1.000000   1.000000
     19         -3.103217       -3.043566   1.000000   1.000000
     20         -3.038313       -2.986604   1.000000   1.000000
     21         -2.717653       -2.635625   1.000000   1.000000
     22         -2.409807       -2.306618   1.000000   1.000000
     23         -2.311362       -2.211071   1.000000   1.000000
     24         -2.001747       -1.910130   1.000000   1.000000
     25         -1.770624       -1.671014   1.000000   1.000000
     26         -1.546151       -1.482138   1.000000   1.000000
     27         -1.433869       -1.334871   1.000000   1.000000
     28         -1.114246       -1.043096   1.000000   1.000000
     29         -0.800120       -0.714692   1.000000   1.000000
     30         -0.604459       -0.495387   1.000000   1.000000
     31         -0.439708       -0.346041   1.000000   1.000000
     32         -0.265124       -0.140633   1.000000   1.000000
     33         -0.106343        0.137087   1.000000   1.000000
     34          0.225236        0.393411   1.000000   1.000000
     35          0.359727        0.545065   1.000000   1.000000
     36          0.417687        0.571075   1.000000   1.000000
     37          0.575269        0.849906   1.000000   1.000000
     38          0.641658        1.065823   1.000000   1.000000
     39          0.785298        1.159033   1.000000   1.000000
     40          0.909849        1.409023   1.000000   0.999064
     41          1.218353        1.651180   1.000000   0.000092
     42          1.401427        1.780427   0.999557   0.000000
     43          2.292145        2.407999   0.000000   0.000000
     44          2.393120        2.492154   0.000000   0.000000
     45          3.329994        3.356911   0.000000   0.000000
     46          3.581247        3.631829   0.000000   0.000000
     47          3.936431        3.976965   0.000000   0.000000
     48          4.440804        4.485624   0.000000   0.000000
     49          4.728797        4.779003   0.000000   0.000000
     50          4.964323        5.013787   0.000000   0.000000
     51          5.756432        5.828802   0.000000   0.000000
     52          6.090601        6.165546   0.000000   0.000000
     53          6.264050        6.298141   0.000000   0.000000
     54          6.457302        6.496607   0.000000   0.000000
     55          6.585860        6.643425   0.000000   0.000000
 
 -0.3333333E+00  0.3333333E+00  0.0000000E+00  0.1111111E-01
      1        -14.014361      -13.968281   1.000000   1.000000
      2        -13.705777      -13.661915   1.000000   1.000000
      3        -12.969508      -12.921899   1.000000   1.000000
      4        -12.765562      -12.715649   1.000000   1.000000
      5        -11.288004      -11.220030   1.000000   1.000000
      6        -11.190477      -11.118721   1.000000   1.000000
      7        -10.783865      -10.720157   1.000000   1.000000
      8        -10.536449      -10.436178   1.000000   1.000000
      9        -10.193471       -9.585525   1.000000   1.000000
     10        -10.000832       -9.396951   1.000000   1.000000
     11         -7.221079       -7.183851   1.000000   1.000000
     12         -7.063678       -7.025984   1.000000   1.000000
     13         -5.455365       -5.418864   1.000000   1.000000
     14         -5.106753       -5.067986   1.000000   1.000000
     15         -4.883920       -4.819621   1.000000   1.000000
     16         -4.231835       -4.201111   1.000000   1.000000
     17         -3.784809       -3.736323   1.000000   1.000000
     18         -3.539774       -3.496027   1.000000   1.000000
     19         -3.103217       -3.043566   1.000000   1.000000
     20         -3.038313       -2.986604   1.000000   1.000000
     21         -2.717653       -2.635625   1.000000   1.000000
     22         -2.409807       -2.306618   1.000000   1.000000
     23         -2.311363       -2.211072   1.000000   1.000000
     24         -2.001747       -1.910130   1.000000   1.000000
     25         -1.770624       -1.671014   1.000000   1.000000
     26         -1.546151       -1.482137   1.000000   1.000000
     27         -1.433868       -1.334870   1.000000   1.000000
     28         -1.114246       -1.043096   1.000000   1.000000
     29         -0.800120       -0.714692   1.000000   1.000000
     30         -0.604459       -0.495387   1.000000   1.000000
     31         -0.439708       -0.346042   1.000000   1.000000
     32         -0.265124       -0.140633   1.000000   1.000000
     33         -0.106343        0.137087   1.000000   1.000000
     34          0.225236        0.393411   1.000000   1.000000
     35          0.359727        0.545065   1.000000   1.000000
     36          0.417688        0.571074   1.000000   1.000000
     37          0.575269        0.849906   1.000000   1.000000
     38          0.641658        1.065823   1.000000   1.000000
     39          0.785299        1.159033   1.000000   1.000000
     40          0.909849        1.409023   1.000000   0.999064
     41          1.218353        1.651180   1.000000   0.000092
     42          1.401427        1.780427   0.999557   0.000000
     43          2.292145        2.407999   0.000000   0.000000
     44          2.393120        2.492154   0.000000   0.000000
     45          3.329995        3.356911   0.000000   0.000000
     46          3.581247        3.631829   0.000000   0.000000
     47          3.936431        3.976964   0.000000   0.000000
     48          4.440804        4.485624   0.000000   0.000000
     49          4.728796        4.779003   0.000000   0.000000
     50          4.964323        5.013787   0.000000   0.000000
     51          5.756432        5.828802   0.000000   0.000000
     52          6.090601        6.165547   0.000000   0.000000
     53          6.264049        6.298140   0.000000   0.000000
     54          6.457330        6.496610   0.000000   0.000000
     55          6.585423        6.646615   0.000000   0.000000
 
  0.5000000E+00  0.3333333E+00  0.0000000E+00  0.1111111E-01
      1        -14.006784      -13.961597   1.000000   1.000000
      2        -13.701565      -13.658366   1.000000   1.000000
      3        -12.973560      -12.924711   1.000000   1.000000
      4        -12.763858      -12.712962   1.000000   1.000000
      5        -11.301639      -11.233955   1.000000   1.000000
      6        -11.207529      -11.135968   1.000000   1.000000
      7        -10.802063      -10.731641   1.000000   1.000000
      8        -10.559792      -10.449447   1.000000   1.000000
      9        -10.193004       -9.591784   1.000000   1.000000
     10         -9.968138       -9.377280   1.000000   1.000000
     11         -7.137935       -7.100571   1.000000   1.000000
     12         -7.031687       -6.992830   1.000000   1.000000
     13         -5.472786       -5.434904   1.000000   1.000000
     14         -5.151846       -5.117546   1.000000   1.000000
     15         -4.840316       -4.767060   1.000000   1.000000
     16         -4.232050       -4.201026   1.000000   1.000000
     17         -3.835645       -3.793152   1.000000   1.000000
     18         -3.534137       -3.490804   1.000000   1.000000
     19         -3.094348       -3.065376   1.000000   1.000000
     20         -3.076880       -2.987303   1.000000   1.000000
     21         -2.694552       -2.612705   1.000000   1.000000
     22         -2.456141       -2.345273   1.000000   1.000000
     23         -2.178875       -2.088723   1.000000   1.000000
     24         -2.068252       -1.962714   1.000000   1.000000
     25         -1.863311       -1.777585   1.000000   1.000000
     26         -1.493505       -1.402642   1.000000   1.000000
     27         -1.413502       -1.329210   1.000000   1.000000
     28         -1.155917       -1.085798   1.000000   1.000000
     29         -0.746819       -0.633410   1.000000   1.000000
     30         -0.697626       -0.632951   1.000000   1.000000
     31         -0.353663       -0.277599   1.000000   1.000000
     32         -0.269963       -0.119905   1.000000   1.000000
     33         -0.064487        0.164510   1.000000   1.000000
     34          0.140014        0.299837   1.000000   1.000000
     35          0.328141        0.520698   1.000000   1.000000
     36          0.391182        0.537913   1.000000   1.000000
     37          0.622655        0.812678   1.000000   1.000000
     38          0.685542        1.022237   1.000000   1.000000
     39          0.722610        1.249900   1.000000   1.000000
     40          0.852897        1.453676   1.000000   0.967617
     41          1.219907        1.607666   1.000000   0.006060
     42          1.439645        1.789952   0.987575   0.000000
     43          2.305734        2.421484   0.000000   0.000000
     44          2.316123        2.438084   0.000000   0.000000
     45          3.398395        3.428019   0.000000   0.000000
     46          3.524823        3.562319   0.000000   0.000000
     47          3.908375        3.947784   0.000000   0.000000
     48          4.295180        4.327227   0.000000   0.000000
     49          4.763825        4.815362   0.000000   0.000000
     50          4.992293        5.040037   0.000000   0.000000
     51          5.954679        6.024687   0.000000   0.000000
     52          6.272659        6.344145   0.000000   0.000000
     53          6.339502        6.369776   0.000000   0.000000
     54          6.499005        6.581353   0.000000   0.000000
     55          6.695992        6.733641   0.000000   0.000000
 
 -0.3333333E+00  0.5000000E+00  0.0000000E+00  0.1111111E-01
      1        -14.011380      -13.965372   1.000000   1.000000
      2        -13.704117      -13.660289   1.000000   1.000000
      3        -12.968045      -12.921119   1.000000   1.000000
      4        -12.762731      -12.713540   1.000000   1.000000
      5        -11.304003      -11.235146   1.000000   1.000000
      6        -11.189710      -11.115291   1.000000   1.000000
      7        -10.799519      -10.735569   1.000000   1.000000
      8        -10.538368      -10.434206   1.000000   1.000000
      9        -10.192747       -9.586577   1.000000   1.000000
     10         -9.996443       -9.396438   1.000000   1.000000
     11         -7.198230       -7.162133   1.000000   1.000000
     12         -7.058926       -7.021023   1.000000   1.000000
     13         -5.438324       -5.401467   1.000000   1.000000
     14         -5.137889       -5.099657   1.000000   1.000000
     15         -4.888526       -4.824919   1.000000   1.000000
     16         -4.219038       -4.189491   1.000000   1.000000
     17         -3.786569       -3.736728   1.000000   1.000000
     18         -3.497852       -3.455296   1.000000   1.000000
     19         -3.131447       -3.058911   1.000000   1.000000
     20         -3.075642       -3.043316   1.000000   1.000000
     21         -2.674452       -2.603245   1.000000   1.000000
     22         -2.304951       -2.228276   1.000000   1.000000
     23         -2.158835       -2.080809   1.000000   1.000000
     24         -2.059872       -1.927910   1.000000   1.000000
     25         -1.766414       -1.661280   1.000000   1.000000
     26         -1.503899       -1.453368   1.000000   1.000000
     27         -1.467104       -1.342906   1.000000   1.000000
     28         -1.240669       -1.185770   1.000000   1.000000
     29         -0.720704       -0.658485   1.000000   1.000000
     30         -0.666502       -0.526809   1.000000   1.000000
     31         -0.418816       -0.340689   1.000000   1.000000
     32         -0.354787       -0.147831   1.000000   1.000000
     33         -0.150933        0.096264   1.000000   1.000000
     34          0.254578        0.389260   1.000000   1.000000
     35          0.288938        0.532804   1.000000   1.000000
     36          0.381142        0.546976   1.000000   1.000000
     37          0.535373        0.844379   1.000000   1.000000
     38          0.647776        1.063101   1.000000   1.000000
     39          0.784871        1.111019   1.000000   1.000000
     40          0.911249        1.409701   1.000000   0.999002
     41          1.190795        1.559640   1.000000   0.125024
     42          1.384151        1.739463   0.999931   0.000000
     43          2.290356        2.375354   0.000000   0.000000
     44          2.372366        2.505656   0.000000   0.000000
     45          3.304992        3.331222   0.000000   0.000000
     46          3.615198        3.663813   0.000000   0.000000
     47          3.955338        4.001600   0.000000   0.000000
     48          4.327015        4.363436   0.000000   0.000000
     49          4.726094        4.781558   0.000000   0.000000
     50          4.943927        4.995083   0.000000   0.000000
     51          5.867186        5.969129   0.000000   0.000000
     52          6.200579        6.236734   0.000000   0.000000
     53          6.340448        6.380168   0.000000   0.000000
     54          6.442503        6.492912   0.000000   0.000000
     55          6.602710        6.665752   0.000000   0.000000
 
  0.5000000E+00  0.5000000E+00  0.0000000E+00  0.5555556E-02
      1        -14.004693      -13.959537   1.000000   1.000000
      2        -13.700497      -13.657295   1.000000   1.000000
      3        -12.969108      -12.921132   1.000000   1.000000
      4        -12.759265      -12.709206   1.000000   1.000000
      5        -11.319062      -11.250552   1.000000   1.000000
      6        -11.202955      -11.128034   1.000000   1.000000
      7        -10.828607      -10.758285   1.000000   1.000000
      8        -10.566672      -10.450796   1.000000   1.000000
      9        -10.190289       -9.591052   1.000000   1.000000
     10         -9.959475       -9.373417   1.000000   1.000000
     11         -7.115078       -7.078789   1.000000   1.000000
     12         -6.991787       -6.953685   1.000000   1.000000
     13         -5.483429       -5.445485   1.000000   1.000000
     14         -5.209188       -5.174954   1.000000   1.000000
     15         -4.839307       -4.766071   1.000000   1.000000
     16         -4.215415       -4.185659   1.000000   1.000000
     17         -3.837452       -3.794391   1.000000   1.000000
     18         -3.525015       -3.482819   1.000000   1.000000
     19         -3.131817       -3.103207   1.000000   1.000000
     20         -3.083037       -2.998193   1.000000   1.000000
     21         -2.585565       -2.514438   1.000000   1.000000
     22         -2.344205       -2.284923   1.000000   1.000000
     23         -2.086780       -2.003167   1.000000   1.000000
     24         -2.081959       -1.933839   1.000000   1.000000
     25         -1.882503       -1.778259   1.000000   1.000000
     26         -1.432752       -1.361753   1.000000   1.000000
     27         -1.431245       -1.328627   1.000000   1.000000
     28         -1.346483       -1.263036   1.000000   1.000000
     29         -0.689644       -0.622653   1.000000   1.000000
     30         -0.682131       -0.605202   1.000000   1.000000
     31         -0.347545       -0.203618   1.000000   1.000000
     32         -0.269854       -0.115417   1.000000   1.000000
     33         -0.183103        0.058706   1.000000   1.000000
     34          0.131757        0.270244   1.000000   1.000000
     35          0.248455        0.445834   1.000000   1.000000
     36          0.280544        0.481838   1.000000   1.000000
     37          0.626214        0.825346   1.000000   1.000000
     38          0.666025        1.066856   1.000000   1.000000
     39          0.758235        1.164361   1.000000   1.000000
     40          0.861435        1.447794   1.000000   0.977955
     41          1.189515        1.569113   1.000000   0.078070
     42          1.453463        1.780053   0.968051   0.000000
     43          2.335864        2.451874   0.000000   0.000000
     44          2.357607        2.477306   0.000000   0.000000
     45          3.393461        3.414668   0.000000   0.000000
     46          3.527518        3.565974   0.000000   0.000000
     47          3.771382        3.808836   0.000000   0.000000
     48          4.186107        4.217383   0.000000   0.000000
     49          4.784086        4.838989   0.000000   0.000000
     50          4.992750        5.042743   0.000000   0.000000
     51          6.079753        6.172430   0.000000   0.000000
     52          6.343034        6.404315   0.000000   0.000000
     53          6.427326        6.460815   0.000000   0.000000
     54          6.492472        6.579648   0.000000   0.000000
     55          6.649551        6.693914   0.000000   0.000000
 
  0.0000000E+00  0.0000000E+00  0.2000000E+00  0.1111111E-01
      1        -14.024885      -13.976044   1.000000   1.000000
      2        -13.763785      -13.717243   1.000000   1.000000
      3        -12.920369      -12.875303   1.000000   1.000000
      4        -12.781925      -12.734051   1.000000   1.000000
      5        -11.184080      -11.115853   1.000000   1.000000
      6        -11.125502      -11.057799   1.000000   1.000000
      7        -10.751627      -10.704686   1.000000   1.000000
      8        -10.516875      -10.464561   1.000000   1.000000
      9        -10.168733       -9.528292   1.000000   1.000000
     10        -10.106092       -9.456316   1.000000   1.000000
     11         -7.266001       -7.230290   1.000000   1.000000
     12         -7.165023       -7.129803   1.000000   1.000000
     13         -5.490813       -5.456527   1.000000   1.000000
     14         -5.349625       -5.312636   1.000000   1.000000
     15         -4.858902       -4.805789   1.000000   1.000000
     16         -4.303251       -4.270938   1.000000   1.000000
     17         -3.688679       -3.637554   1.000000   1.000000
     18         -3.484096       -3.425821   1.000000   1.000000
     19         -3.223111       -3.166228   1.000000   1.000000
     20         -2.910834       -2.843789   1.000000   1.000000
     21         -2.770720       -2.693659   1.000000   1.000000
     22         -2.471633       -2.337245   1.000000   1.000000
     23         -2.417559       -2.260719   1.000000   1.000000
     24         -2.203154       -2.163475   1.000000   1.000000
     25         -1.822710       -1.712155   1.000000   1.000000
     26         -1.669596       -1.589745   1.000000   1.000000
     27         -1.238875       -1.157507   1.000000   1.000000
     28         -1.068077       -0.959996   1.000000   1.000000
     29         -0.761348       -0.722271   1.000000   1.000000
     30         -0.609641       -0.447922   1.000000   1.000000
     31         -0.374186       -0.299607   1.000000   1.000000
     32         -0.303155       -0.149119   1.000000   1.000000
     33          0.185196        0.303839   1.000000   1.000000
     34          0.349091        0.480174   1.000000   1.000000
     35          0.493532        0.596099   1.000000   1.000000
     36          0.691475        0.874084   1.000000   1.000000
     37          0.786043        1.042869   1.000000   1.000000
     38          0.917884        1.218291   1.000000   1.000000
     39          0.950009        1.300495   1.000000   1.000000
     40          1.055137        1.359012   1.000000   0.999997
     41          1.076522        1.903635   1.000000   0.000000
     42          1.414402        2.003944   0.998450   0.000000
     43          2.579840        2.646919   0.000000   0.000000
     44          2.641242        2.699282   0.000000   0.000000
     45          3.289348        3.327111   0.000000   0.000000
     46          3.600342        3.633819   0.000000   0.000000
     47          3.915140        3.954048   0.000000   0.000000
     48          3.934725        3.981647   0.000000   0.000000
     49          4.422617        4.482764   0.000000   0.000000
     50          4.826121        4.895786   0.000000   0.000000
     51          5.404614        5.498803   0.000000   0.000000
     52          5.780030        5.817144   0.000000   0.000000
     53          6.237515        6.270081   0.000000   0.000000
     54          6.484075        6.516176   0.000000   0.000000
     55          6.564510        6.597478   0.000000   0.000000
 
  0.1666667E+00  0.0000000E+00  0.2000000E+00  0.1111111E-01
      1        -14.015708      -13.967726   1.000000   1.000000
      2        -13.757488      -13.711681   1.000000   1.000000
      3        -12.931827      -12.885251   1.000000   1.000000
      4        -12.785785      -12.736644   1.000000   1.000000
      5        -11.200770      -11.133669   1.000000   1.000000
      6        -11.148106      -11.081765   1.000000   1.000000
      7        -10.737804      -10.684949   1.000000   1.000000
      8        -10.533936      -10.466675   1.000000   1.000000
      9        -10.171040       -9.541156   1.000000   1.000000
     10        -10.075865       -9.438806   1.000000   1.000000
     11         -7.255806       -7.219768   1.000000   1.000000
     12         -7.160103       -7.123700   1.000000   1.000000
     13         -5.459843       -5.424908   1.000000   1.000000
     14         -5.259674       -5.220417   1.000000   1.000000
     15         -4.854991       -4.798955   1.000000   1.000000
     16         -4.317241       -4.282972   1.000000   1.000000
     17         -3.721286       -3.674446   1.000000   1.000000
     18         -3.566995       -3.515536   1.000000   1.000000
     19         -3.157998       -3.076803   1.000000   1.000000
     20         -2.938804       -2.882067   1.000000   1.000000
     21         -2.747710       -2.650918   1.000000   1.000000
     22         -2.575286       -2.437260   1.000000   1.000000
     23         -2.332453       -2.232991   1.000000   1.000000
     24         -2.201020       -2.154406   1.000000   1.000000
     25         -1.849390       -1.733926   1.000000   1.000000
     26         -1.613740       -1.535605   1.000000   1.000000
     27         -1.350988       -1.238132   1.000000   1.000000
     28         -1.045451       -0.947165   1.000000   1.000000
     29         -0.728748       -0.683030   1.000000   1.000000
     30         -0.495609       -0.434007   1.000000   1.000000
     31         -0.462189       -0.294407   1.000000   1.000000
     32         -0.260707       -0.129660   1.000000   1.000000
     33          0.080120        0.199123   1.000000   1.000000
     34          0.320237        0.437394   1.000000   1.000000
     35          0.514588        0.629238   1.000000   1.000000
     36          0.632667        0.783384   1.000000   1.000000
     37          0.775074        1.016947   1.000000   1.000000
     38          0.814593        1.151043   1.000000   1.000000
     39          0.900536        1.312558   1.000000   1.000000
     40          1.024292        1.373657   1.000000   0.999980
     41          1.148357        1.922890   1.000000   0.000000
     42          1.448896        2.012819   0.976264   0.000000
     43          2.535829        2.606590   0.000000   0.000000
     44          2.570066        2.632369   0.000000   0.000000
     45          3.322959        3.360358   0.000000   0.000000
     46          3.547075        3.585176   0.000000   0.000000
     47          3.960510        4.001182   0.000000   0.000000
     48          4.150635        4.188811   0.000000   0.000000
     49          4.512145        4.567729   0.000000   0.000000
     50          4.831736        4.893085   0.000000   0.000000
     51          5.522027        5.618680   0.000000   0.000000
     52          5.850983        5.893681   0.000000   0.000000
     53          6.148644        6.177335   0.000000   0.000000
     54          6.360427        6.393195   0.000000   0.000000
     55          6.524741        6.559416   0.000000   0.000000
 
  0.0000000E+00  0.1666667E+00  0.2000000E+00  0.1111111E-01
      1        -14.019908      -13.971224   1.000000   1.000000
      2        -13.760014      -13.713600   1.000000   1.000000
      3        -12.927039      -12.882159   1.000000   1.000000
      4        -12.784686      -12.737149   1.000000   1.000000
      5        -11.197341      -11.130143   1.000000   1.000000
      6        -11.133221      -11.064950   1.000000   1.000000
      7        -10.735707      -10.687429   1.000000   1.000000
      8        -10.506008      -10.452496   1.000000   1.000000
      9        -10.175324       -9.535044   1.000000   1.000000
     10        -10.108028       -9.459803   1.000000   1.000000
     11         -7.294238       -7.258384   1.000000   1.000000
     12         -7.200458       -7.165531   1.000000   1.000000
     13         -5.437070       -5.402056   1.000000   1.000000
     14         -5.283798       -5.245169   1.000000   1.000000
     15         -4.858299       -4.806274   1.000000   1.000000
     16         -4.311976       -4.281700   1.000000   1.000000
     17         -3.661384       -3.610627   1.000000   1.000000
     18         -3.534131       -3.474172   1.000000   1.000000
     19         -3.168132       -3.112474   1.000000   1.000000
     20         -2.876423       -2.820682   1.000000   1.000000
     21         -2.743539       -2.665559   1.000000   1.000000
     22         -2.465676       -2.337118   1.000000   1.000000
     23         -2.412473       -2.289172   1.000000   1.000000
     24         -2.143500       -2.093873   1.000000   1.000000
     25         -1.882725       -1.775589   1.000000   1.000000
     26         -1.643841       -1.557071   1.000000   1.000000
     27         -1.304485       -1.212998   1.000000   1.000000
     28         -1.023111       -0.914499   1.000000   1.000000
     29         -0.723199       -0.682573   1.000000   1.000000
     30         -0.646859       -0.523049   1.000000   1.000000
     31         -0.439461       -0.336290   1.000000   1.000000
     32         -0.270310       -0.115702   1.000000   1.000000
     33          0.101858        0.264996   1.000000   1.000000
     34          0.372627        0.540913   1.000000   1.000000
     35          0.471698        0.616695   1.000000   1.000000
     36          0.628138        0.805576   1.000000   1.000000
     37          0.644835        0.976718   1.000000   1.000000
     38          0.905419        1.164161   1.000000   1.000000
     39          0.915974        1.280220   1.000000   1.000000
     40          1.054853        1.344351   1.000000   1.000000
     41          1.076900        1.822688   1.000000   0.000000
     42          1.415284        1.931654   0.998320   0.000000
     43          2.535883        2.601866   0.000000   0.000000
     44          2.563377        2.626076   0.000000   0.000000
     45          3.201105        3.246544   0.000000   0.000000
     46          3.628891        3.667036   0.000000   0.000000
     47          4.035039        4.080441   0.000000   0.000000
     48          4.092224        4.135583   0.000000   0.000000
     49          4.537286        4.590352   0.000000   0.000000
     50          4.817124        4.885795   0.000000   0.000000
     51          5.446266        5.545678   0.000000   0.000000
     52          5.823734        5.863414   0.000000   0.000000
     53          6.075497        6.112188   0.000000   0.000000
     54          6.335870        6.371958   0.000000   0.000000
     55          6.655304        6.680797   0.000000   0.000000
 
 -0.1666667E+00  0.0000000E+00  0.2000000E+00  0.1111111E-01
      1        -14.015708      -13.967726   1.000000   1.000000
      2        -13.757488      -13.711681   1.000000   1.000000
      3        -12.931827      -12.885251   1.000000   1.000000
      4        -12.785785      -12.736644   1.000000   1.000000
      5        -11.200770      -11.133669   1.000000   1.000000
      6        -11.148106      -11.081765   1.000000   1.000000
      7        -10.737804      -10.684949   1.000000   1.000000
      8        -10.533936      -10.466675   1.000000   1.000000
      9        -10.171040       -9.541156   1.000000   1.000000
     10        -10.075865       -9.438806   1.000000   1.000000
     11         -7.255806       -7.219768   1.000000   1.000000
     12         -7.160103       -7.123700   1.000000   1.000000
     13         -5.459843       -5.424908   1.000000   1.000000
     14         -5.259674       -5.220417   1.000000   1.000000
     15         -4.854991       -4.798955   1.000000   1.000000
     16         -4.317241       -4.282972   1.000000   1.000000
     17         -3.721285       -3.674446   1.000000   1.000000
     18         -3.566995       -3.515537   1.000000   1.000000
     19         -3.157998       -3.076802   1.000000   1.000000
     20         -2.938803       -2.882067   1.000000   1.000000
     21         -2.747710       -2.650918   1.000000   1.000000
     22         -2.575285       -2.437260   1.000000   1.000000
     23         -2.332453       -2.232992   1.000000   1.000000
     24         -2.201020       -2.154406   1.000000   1.000000
     25         -1.849390       -1.733926   1.000000   1.000000
     26         -1.613739       -1.535604   1.000000   1.000000
     27         -1.350988       -1.238132   1.000000   1.000000
     28         -1.045451       -0.947165   1.000000   1.000000
     29         -0.728748       -0.683030   1.000000   1.000000
     30         -0.495609       -0.434007   1.000000   1.000000
     31         -0.462189       -0.294408   1.000000   1.000000
     32         -0.260707       -0.129660   1.000000   1.000000
     33          0.080120        0.199123   1.000000   1.000000
     34          0.320237        0.437393   1.000000   1.000000
     35          0.514588        0.629238   1.000000   1.000000
     36          0.632667        0.783384   1.000000   1.000000
     37          0.775074        1.016948   1.000000   1.000000
     38          0.814593        1.151043   1.000000   1.000000
     39          0.900537        1.312558   1.000000   1.000000
     40          1.024292        1.373657   1.000000   0.999980
     41          1.148357        1.922890   1.000000   0.000000
     42          1.448896        2.012819   0.976264   0.000000
     43          2.535829        2.606590   0.000000   0.000000
     44          2.570066        2.632369   0.000000   0.000000
     45          3.322960        3.360358   0.000000   0.000000
     46          3.547074        3.585176   0.000000   0.000000
     47          3.960510        4.001182   0.000000   0.000000
     48          4.150635        4.188811   0.000000   0.000000
     49          4.512146        4.567729   0.000000   0.000000
     50          4.831736        4.893085   0.000000   0.000000
     51          5.522027        5.618680   0.000000   0.000000
     52          5.850983        5.893681   0.000000   0.000000
     53          6.148644        6.177335   0.000000   0.000000
     54          6.360415        6.393196   0.000000   0.000000
     55          6.524743        6.559429   0.000000   0.000000
 
  0.0000000E+00 -0.1666667E+00  0.2000000E+00  0.1111111E-01
      1        -14.019656      -13.970966   1.000000   1.000000
      2        -13.760356      -13.713948   1.000000   1.000000
      3        -12.927357      -12.882457   1.000000   1.000000
      4        -12.784261      -12.736757   1.000000   1.000000
      5        -11.196364      -11.128817   1.000000   1.000000
      6        -11.134476      -11.066594   1.000000   1.000000
      7        -10.736923      -10.688142   1.000000   1.000000
      8        -10.503711      -10.450827   1.000000   1.000000
      9        -10.173450       -9.533891   1.000000   1.000000
     10        -10.110222       -9.461124   1.000000   1.000000
     11         -7.305967       -7.270598   1.000000   1.000000
     12         -7.193097       -7.157759   1.000000   1.000000
     13         -5.421209       -5.383410   1.000000   1.000000
     14         -5.287150       -5.249526   1.000000   1.000000
     15         -4.857079       -4.809207   1.000000   1.000000
     16         -4.308571       -4.275251   1.000000   1.000000
     17         -3.648299       -3.599163   1.000000   1.000000
     18         -3.549868       -3.488560   1.000000   1.000000
     19         -3.186978       -3.132063   1.000000   1.000000
     20         -2.865685       -2.796809   1.000000   1.000000
     21         -2.848609       -2.786644   1.000000   1.000000
     22         -2.427199       -2.296326   1.000000   1.000000
     23         -2.335248       -2.226012   1.000000   1.000000
     24         -2.226928       -2.148625   1.000000   1.000000
     25         -1.709232       -1.607355   1.000000   1.000000
     26         -1.691341       -1.577326   1.000000   1.000000
     27         -1.261085       -1.204658   1.000000   1.000000
     28         -1.036868       -0.931368   1.000000   1.000000
     29         -0.838705       -0.793827   1.000000   1.000000
     30         -0.630579       -0.491575   1.000000   1.000000
     31         -0.402482       -0.324445   1.000000   1.000000
     32         -0.339196       -0.181623   1.000000   1.000000
     33          0.148428        0.317747   1.000000   1.000000
     34          0.301683        0.465066   1.000000   1.000000
     35          0.475860        0.566212   1.000000   1.000000
     36          0.652658        0.898302   1.000000   1.000000
     37          0.674975        1.026163   1.000000   1.000000
     38          0.902694        1.165220   1.000000   1.000000
     39          0.953616        1.269858   1.000000   1.000000
     40          1.050465        1.377043   1.000000   0.999970
     41          1.080517        1.805727   1.000000   0.000000
     42          1.380659        1.894648   0.999954   0.000000
     43          2.552498        2.618443   0.000000   0.000000
     44          2.585681        2.650375   0.000000   0.000000
     45          3.263024        3.305316   0.000000   0.000000
     46          3.572119        3.605683   0.000000   0.000000
     47          4.004606        4.047470   0.000000   0.000000
     48          4.138980        4.192010   0.000000   0.000000
     49          4.463466        4.512816   0.000000   0.000000
     50          4.785001        4.856612   0.000000   0.000000
     51          5.419343        5.519527   0.000000   0.000000
     52          5.858999        5.896562   0.000000   0.000000
     53          6.195345        6.229958   0.000000   0.000000
     54          6.258137        6.288170   0.000000   0.000000
     55          6.563977        6.606758   0.000000   0.000000
 
  0.3333333E+00  0.0000000E+00  0.2000000E+00  0.1111111E-01
      1        -13.996674      -13.950546   1.000000   1.000000
      2        -13.744622      -13.700366   1.000000   1.000000
      3        -12.955549      -12.905723   1.000000   1.000000
      4        -12.794131      -12.742370   1.000000   1.000000
      5        -11.230380      -11.164676   1.000000   1.000000
      6        -11.192353      -11.127599   1.000000   1.000000
      7        -10.713944      -10.650794   1.000000   1.000000
      8        -10.552980      -10.467594   1.000000   1.000000
      9        -10.178808       -9.563837   1.000000   1.000000
     10        -10.030833       -9.415401   1.000000   1.000000
     11         -7.221962       -7.183510   1.000000   1.000000
     12         -7.148013       -7.108319   1.000000   1.000000
     13         -5.414983       -5.377466   1.000000   1.000000
     14         -5.096462       -5.056620   1.000000   1.000000
     15         -4.829193       -4.766776   1.000000   1.000000
     16         -4.347267       -4.310106   1.000000   1.000000
     17         -3.759781       -3.717060   1.000000   1.000000
     18         -3.623551       -3.578035   1.000000   1.000000
     19         -3.138379       -3.016548   1.000000   1.000000
     20         -2.933198       -2.901058   1.000000   1.000000
     21         -2.737685       -2.641292   1.000000   1.000000
     22         -2.705929       -2.576124   1.000000   1.000000
     23         -2.433121       -2.357739   1.000000   1.000000
     24         -2.037443       -1.957398   1.000000   1.000000
     25         -1.927321       -1.838329   1.000000   1.000000
     26         -1.629332       -1.544627   1.000000   1.000000
     27         -1.300325       -1.201764   1.000000   1.000000
     28         -1.012468       -0.922146   1.000000   1.000000
     29         -0.690021       -0.629692   1.000000   1.000000
     30         -0.628422       -0.512949   1.000000   1.000000
     31         -0.445896       -0.323877   1.000000   1.000000
     32         -0.352973       -0.274936   1.000000   1.000000
     33          0.203312        0.334360   1.000000   1.000000
     34          0.255402        0.376685   1.000000   1.000000
     35          0.511822        0.638171   1.000000   1.000000
     36          0.554240        0.673299   1.000000   1.000000
     37          0.690546        0.929385   1.000000   1.000000
     38          0.804297        1.084926   1.000000   1.000000
     39          0.864095        1.329143   1.000000   1.000000
     40          0.902001        1.419954   1.000000   0.997450
     41          1.226387        1.933487   1.000000   0.000000
     42          1.450677        1.963044   0.973301   0.000000
     43          2.357739        2.436498   0.000000   0.000000
     44          2.424991        2.511760   0.000000   0.000000
     45          3.393502        3.431016   0.000000   0.000000
     46          3.552908        3.583643   0.000000   0.000000
     47          4.129298        4.176404   0.000000   0.000000
     48          4.413136        4.448932   0.000000   0.000000
     49          4.670393        4.710157   0.000000   0.000000
     50          4.853017        4.896605   0.000000   0.000000
     51          5.595518        5.666454   0.000000   0.000000
     52          5.940143        5.977882   0.000000   0.000000
     53          6.207780        6.258906   0.000000   0.000000
     54          6.314349        6.363212   0.000000   0.000000
     55          6.507482        6.550681   0.000000   0.000000
 
  0.0000000E+00  0.3333333E+00  0.2000000E+00  0.1111111E-01
      1        -14.009521      -13.961154   1.000000   1.000000
      2        -13.752714      -13.706567   1.000000   1.000000
      3        -12.940962      -12.896412   1.000000   1.000000
      4        -12.789921      -12.743089   1.000000   1.000000
      5        -11.221432      -11.155093   1.000000   1.000000
      6        -11.149249      -11.080079   1.000000   1.000000
      7        -10.704970      -10.655359   1.000000   1.000000
      8        -10.481087      -10.426962   1.000000   1.000000
      9        -10.188370       -9.548188   1.000000   1.000000
     10        -10.115733       -9.468788   1.000000   1.000000
     11         -7.357192       -7.321395   1.000000   1.000000
     12         -7.259230       -7.224351   1.000000   1.000000
     13         -5.326206       -5.285715   1.000000   1.000000
     14         -5.156296       -5.115072   1.000000   1.000000
     15         -4.842430       -4.798328   1.000000   1.000000
     16         -4.325509       -4.296981   1.000000   1.000000
     17         -3.624715       -3.561694   1.000000   1.000000
     18         -3.581978       -3.533710   1.000000   1.000000
     19         -3.093631       -3.039166   1.000000   1.000000
     20         -2.841236       -2.772036   1.000000   1.000000
     21         -2.802153       -2.758724   1.000000   1.000000
     22         -2.392465       -2.283146   1.000000   1.000000
     23         -2.335719       -2.252537   1.000000   1.000000
     24         -2.133443       -2.065832   1.000000   1.000000
     25         -1.791240       -1.705176   1.000000   1.000000
     26         -1.657600       -1.556333   1.000000   1.000000
     27         -1.345146       -1.243790   1.000000   1.000000
     28         -0.923219       -0.832074   1.000000   1.000000
     29         -0.777972       -0.725720   1.000000   1.000000
     30         -0.777108       -0.688512   1.000000   1.000000
     31         -0.434587       -0.302646   1.000000   1.000000
     32         -0.298881       -0.142647   1.000000   1.000000
     33         -0.041779        0.246933   1.000000   1.000000
     34          0.238467        0.547435   1.000000   1.000000
     35          0.446184        0.595546   1.000000   1.000000
     36          0.483389        0.795766   1.000000   1.000000
     37          0.632960        0.852690   1.000000   1.000000
     38          0.829176        1.069167   1.000000   1.000000
     39          0.835110        1.219831   1.000000   1.000000
     40          1.050254        1.353676   1.000000   0.999999
     41          1.091909        1.638080   1.000000   0.000377
     42          1.360654        1.786348   0.999996   0.000000
     43          2.454655        2.516500   0.000000   0.000000
     44          2.466492        2.526032   0.000000   0.000000
     45          3.132702        3.196003   0.000000   0.000000
     46          3.641797        3.679818   0.000000   0.000000
     47          4.179523        4.226751   0.000000   0.000000
     48          4.444170        4.488604   0.000000   0.000000
     49          4.758640        4.804574   0.000000   0.000000
     50          4.761041        4.830916   0.000000   0.000000
     51          5.469927        5.550644   0.000000   0.000000
     52          5.872170        5.904179   0.000000   0.000000
     53          5.902265        5.973753   0.000000   0.000000
     54          6.162812        6.215813   0.000000   0.000000
     55          6.660822        6.697715   0.000000   0.000000
 
 -0.3333333E+00  0.0000000E+00  0.2000000E+00  0.1111111E-01
      1        -13.996674      -13.950546   1.000000   1.000000
      2        -13.744622      -13.700366   1.000000   1.000000
      3        -12.955549      -12.905723   1.000000   1.000000
      4        -12.794131      -12.742370   1.000000   1.000000
      5        -11.230380      -11.164676   1.000000   1.000000
      6        -11.192353      -11.127599   1.000000   1.000000
      7        -10.713944      -10.650794   1.000000   1.000000
      8        -10.552980      -10.467594   1.000000   1.000000
      9        -10.178808       -9.563837   1.000000   1.000000
     10        -10.030833       -9.415401   1.000000   1.000000
     11         -7.221962       -7.183510   1.000000   1.000000
     12         -7.148013       -7.108319   1.000000   1.000000
     13         -5.414983       -5.377466   1.000000   1.000000
     14         -5.096462       -5.056620   1.000000   1.000000
     15         -4.829193       -4.766776   1.000000   1.000000
     16         -4.347267       -4.310106   1.000000   1.000000
     17         -3.759780       -3.717059   1.000000   1.000000
     18         -3.623552       -3.578036   1.000000   1.000000
     19         -3.138379       -3.016548   1.000000   1.000000
     20         -2.933198       -2.901058   1.000000   1.000000
     21         -2.737685       -2.641292   1.000000   1.000000
     22         -2.705929       -2.576123   1.000000   1.000000
     23         -2.433121       -2.357739   1.000000   1.000000
     24         -2.037443       -1.957398   1.000000   1.000000
     25         -1.927321       -1.838329   1.000000   1.000000
     26         -1.629332       -1.544627   1.000000   1.000000
     27         -1.300325       -1.201764   1.000000   1.000000
     28         -1.012468       -0.922146   1.000000   1.000000
     29         -0.690021       -0.629693   1.000000   1.000000
     30         -0.628422       -0.512949   1.000000   1.000000
     31         -0.445896       -0.323877   1.000000   1.000000
     32         -0.352973       -0.274936   1.000000   1.000000
     33          0.203312        0.334360   1.000000   1.000000
     34          0.255401        0.376685   1.000000   1.000000
     35          0.511822        0.638171   1.000000   1.000000
     36          0.554240        0.673299   1.000000   1.000000
     37          0.690546        0.929385   1.000000   1.000000
     38          0.804297        1.084926   1.000000   1.000000
     39          0.864095        1.329143   1.000000   1.000000
     40          0.902001        1.419954   1.000000   0.997450
     41          1.226387        1.933487   1.000000   0.000000
     42          1.450677        1.963045   0.973301   0.000000
     43          2.357739        2.436498   0.000000   0.000000
     44          2.424991        2.511760   0.000000   0.000000
     45          3.393502        3.431016   0.000000   0.000000
     46          3.552908        3.583643   0.000000   0.000000
     47          4.129298        4.176404   0.000000   0.000000
     48          4.413136        4.448932   0.000000   0.000000
     49          4.670393        4.710158   0.000000   0.000000
     50          4.853017        4.896605   0.000000   0.000000
     51          5.595518        5.666455   0.000000   0.000000
     52          5.940143        5.977882   0.000000   0.000000
     53          6.207785        6.258906   0.000000   0.000000
     54          6.314363        6.363214   0.000000   0.000000
     55          6.508458        6.551072   0.000000   0.000000
 
  0.0000000E+00 -0.3333333E+00  0.2000000E+00  0.1111111E-01
      1        -14.009263      -13.960890   1.000000   1.000000
      2        -13.753065      -13.706923   1.000000   1.000000
      3        -12.941291      -12.896720   1.000000   1.000000
      4        -12.789483      -12.742685   1.000000   1.000000
      5        -11.220524      -11.153877   1.000000   1.000000
      6        -11.150436      -11.081625   1.000000   1.000000
      7        -10.706254      -10.655991   1.000000   1.000000
      8        -10.478635      -10.425351   1.000000   1.000000
      9        -10.186353       -9.547002   1.000000   1.000000
     10        -10.118168       -9.470167   1.000000   1.000000
     11         -7.367801       -7.332444   1.000000   1.000000
     12         -7.252480       -7.217222   1.000000   1.000000
     13         -5.317338       -5.273094   1.000000   1.000000
     14         -5.156404       -5.116296   1.000000   1.000000
     15         -4.831334       -4.792630   1.000000   1.000000
     16         -4.322608       -4.291551   1.000000   1.000000
     17         -3.645328       -3.580890   1.000000   1.000000
     18         -3.576176       -3.528377   1.000000   1.000000
     19         -3.111566       -3.057574   1.000000   1.000000
     20         -2.943155       -2.878942   1.000000   1.000000
     21         -2.764566       -2.720218   1.000000   1.000000
     22         -2.359018       -2.241995   1.000000   1.000000
     23         -2.305108       -2.225824   1.000000   1.000000
     24         -2.123399       -2.067332   1.000000   1.000000
     25         -1.720328       -1.620774   1.000000   1.000000
     26         -1.689150       -1.548755   1.000000   1.000000
     27         -1.297277       -1.243186   1.000000   1.000000
     28         -0.953028       -0.856065   1.000000   1.000000
     29         -0.851428       -0.788536   1.000000   1.000000
     30         -0.711895       -0.615776   1.000000   1.000000
     31         -0.436675       -0.331295   1.000000   1.000000
     32         -0.424742       -0.257699   1.000000   1.000000
     33          0.035947        0.300859   1.000000   1.000000
     34          0.211004        0.475890   1.000000   1.000000
     35          0.416476        0.546839   1.000000   1.000000
     36          0.481820        0.915309   1.000000   1.000000
     37          0.672092        0.930077   1.000000   1.000000
     38          0.836666        1.075361   1.000000   1.000000
     39          0.875913        1.190992   1.000000   1.000000
     40          1.020453        1.375635   1.000000   0.999975
     41          1.122583        1.624920   1.000000   0.001365
     42          1.325373        1.734653   1.000000   0.000000
     43          2.468830        2.535733   0.000000   0.000000
     44          2.485750        2.548711   0.000000   0.000000
     45          3.168501        3.224243   0.000000   0.000000
     46          3.622786        3.659217   0.000000   0.000000
     47          4.195509        4.246190   0.000000   0.000000
     48          4.423447        4.474388   0.000000   0.000000
     49          4.640221        4.675811   0.000000   0.000000
     50          4.780974        4.856000   0.000000   0.000000
     51          5.442193        5.537178   0.000000   0.000000
     52          5.904719        5.930287   0.000000   0.000000
     53          6.036553        6.095887   0.000000   0.000000
     54          6.075181        6.120274   0.000000   0.000000
     55          6.565053        6.611114   0.000000   0.000000
 
  0.5000000E+00  0.0000000E+00  0.2000000E+00  0.1111111E-01
      1        -13.986768      -13.941645   1.000000   1.000000
      2        -13.738043      -13.694604   1.000000   1.000000
      3        -12.967850      -12.916278   1.000000   1.000000
      4        -12.798604      -12.745484   1.000000   1.000000
      5        -11.241473      -11.176164   1.000000   1.000000
      6        -11.216251      -11.151993   1.000000   1.000000
      7        -10.703468      -10.635464   1.000000   1.000000
      8        -10.556749      -10.466573   1.000000   1.000000
      9        -10.184494       -9.575232   1.000000   1.000000
     10        -10.013913       -9.407685   1.000000   1.000000
     11         -7.194077       -7.153251   1.000000   1.000000
     12         -7.145304       -7.103883   1.000000   1.000000
     13         -5.403357       -5.364323   1.000000   1.000000
     14         -5.028421       -4.989615   1.000000   1.000000
     15         -4.804375       -4.738995   1.000000   1.000000
     16         -4.363614       -4.325540   1.000000   1.000000
     17         -3.768569       -3.728333   1.000000   1.000000
     18         -3.575769       -3.530195   1.000000   1.000000
     19         -3.154855       -3.029084   1.000000   1.000000
     20         -2.977036       -2.947146   1.000000   1.000000
     21         -2.818778       -2.749143   1.000000   1.000000
     22         -2.757235       -2.597164   1.000000   1.000000
     23         -2.347651       -2.255745   1.000000   1.000000
     24         -2.138738       -2.066405   1.000000   1.000000
     25         -1.841604       -1.758192   1.000000   1.000000
     26         -1.618093       -1.545935   1.000000   1.000000
     27         -1.260536       -1.185821   1.000000   1.000000
     28         -1.040517       -0.955927   1.000000   1.000000
     29         -0.797527       -0.630272   1.000000   1.000000
     30         -0.633828       -0.564717   1.000000   1.000000
     31         -0.491138       -0.415435   1.000000   1.000000
     32         -0.282746       -0.222572   1.000000   1.000000
     33          0.162207        0.302651   1.000000   1.000000
     34          0.330174        0.460852   1.000000   1.000000
     35          0.536646        0.635157   1.000000   1.000000
     36          0.537656        0.666765   1.000000   1.000000
     37          0.715995        0.941341   1.000000   1.000000
     38          0.767690        1.019682   1.000000   1.000000
     39          0.816828        1.344858   1.000000   1.000000
     40          0.869687        1.438254   1.000000   0.988787
     41          1.231811        1.887389   1.000000   0.000000
     42          1.428513        1.928369   0.994745   0.000000
     43          2.252099        2.348153   0.000000   0.000000
     44          2.343078        2.451016   0.000000   0.000000
     45          3.418371        3.451857   0.000000   0.000000
     46          3.573244        3.597223   0.000000   0.000000
     47          4.214927        4.264417   0.000000   0.000000
     48          4.562400        4.604094   0.000000   0.000000
     49          4.701903        4.732648   0.000000   0.000000
     50          4.914245        4.948306   0.000000   0.000000
     51          5.512813        5.575323   0.000000   0.000000
     52          5.861745        5.887682   0.000000   0.000000
     53          6.333649        6.372486   0.000000   0.000000
     54          6.546232        6.614029   0.000000   0.000000
     55          6.564205        6.631643   0.000000   0.000000
 
  0.0000000E+00  0.5000000E+00  0.2000000E+00  0.1111111E-01
      1        -14.004087      -13.955880   1.000000   1.000000
      2        -13.749187      -13.703177   1.000000   1.000000
      3        -12.948223      -12.903815   1.000000   1.000000
      4        -12.792370      -12.745907   1.000000   1.000000
      5        -11.232435      -11.166080   1.000000   1.000000
      6        -11.157512      -11.087997   1.000000   1.000000
      7        -10.689982      -10.640208   1.000000   1.000000
      8        -10.466711      -10.413478   1.000000   1.000000
      9        -10.194780       -9.554556   1.000000   1.000000
     10        -10.121860       -9.474347   1.000000   1.000000
     11         -7.391247       -7.355614   1.000000   1.000000
     12         -7.283498       -7.248413   1.000000   1.000000
     13         -5.278697       -5.232469   1.000000   1.000000
     14         -5.090491       -5.048302   1.000000   1.000000
     15         -4.813452       -4.777533   1.000000   1.000000
     16         -4.331420       -4.303196   1.000000   1.000000
     17         -3.676872       -3.611683   1.000000   1.000000
     18         -3.533617       -3.486559   1.000000   1.000000
     19         -3.067037       -3.013056   1.000000   1.000000
     20         -2.946089       -2.881594   1.000000   1.000000
     21         -2.760158       -2.719757   1.000000   1.000000
     22         -2.310583       -2.216621   1.000000   1.000000
     23         -2.285251       -2.203812   1.000000   1.000000
     24         -2.124520       -2.083947   1.000000   1.000000
     25         -1.734080       -1.619110   1.000000   1.000000
     26         -1.714906       -1.618769   1.000000   1.000000
     27         -1.280131       -1.203312   1.000000   1.000000
     28         -0.907733       -0.824643   1.000000   1.000000
     29         -0.842266       -0.766299   1.000000   1.000000
     30         -0.734074       -0.668460   1.000000   1.000000
     31         -0.477953       -0.315135   1.000000   1.000000
     32         -0.449668       -0.265188   1.000000   1.000000
     33         -0.014993        0.278743   1.000000   1.000000
     34          0.126096        0.499968   1.000000   1.000000
     35          0.406405        0.561412   1.000000   1.000000
     36          0.431034        0.829018   1.000000   1.000000
     37          0.659137        0.870674   1.000000   1.000000
     38          0.802884        1.023813   1.000000   1.000000
     39          0.807771        1.155080   1.000000   1.000000
     40          1.022737        1.367122   1.000000   0.999991
     41          1.128550        1.549138   1.000000   0.196777
     42          1.307364        1.703059   1.000000   0.000000
     43          2.412228        2.471701   0.000000   0.000000
     44          2.441208        2.498587   0.000000   0.000000
     45          3.123021        3.190475   0.000000   0.000000
     46          3.654697        3.691733   0.000000   0.000000
     47          4.248328        4.296444   0.000000   0.000000
     48          4.554195        4.601940   0.000000   0.000000
     49          4.806783        4.876909   0.000000   0.000000
     50          4.835624        4.879870   0.000000   0.000000
     51          5.441222        5.505900   0.000000   0.000000
     52          5.797707        5.820308   0.000000   0.000000
     53          5.898841        5.994900   0.000000   0.000000
     54          6.154330        6.214494   0.000000   0.000000
     55          6.593278        6.644346   0.000000   0.000000
 
  0.1666667E+00  0.1666667E+00  0.2000000E+00  0.1111111E-01
      1        -14.011446      -13.963597   1.000000   1.000000
      2        -13.754300      -13.708598   1.000000   1.000000
      3        -12.935800      -12.889570   1.000000   1.000000
      4        -12.786793      -12.738112   1.000000   1.000000
      5        -11.214523      -11.147762   1.000000   1.000000
      6        -11.154451      -11.086187   1.000000   1.000000
      7        -10.732154      -10.679063   1.000000   1.000000
      8        -10.525539      -10.456621   1.000000   1.000000
      9        -10.174573       -9.545963   1.000000   1.000000
     10        -10.077891       -9.442289   1.000000   1.000000
     11         -7.287849       -7.251412   1.000000   1.000000
     12         -7.156681       -7.120759   1.000000   1.000000
     13         -5.447627       -5.412523   1.000000   1.000000
     14         -5.199004       -5.157685   1.000000   1.000000
     15         -4.851049       -4.796599   1.000000   1.000000
     16         -4.320162       -4.288500   1.000000   1.000000
     17         -3.713606       -3.665088   1.000000   1.000000
     18         -3.572169       -3.519923   1.000000   1.000000
     19         -3.146296       -3.069962   1.000000   1.000000
     20         -2.916938       -2.871287   1.000000   1.000000
     21         -2.673200       -2.569689   1.000000   1.000000
     22         -2.531726       -2.407787   1.000000   1.000000
     23         -2.361587       -2.277398   1.000000   1.000000
     24         -2.236603       -2.169584   1.000000   1.000000
     25         -1.867161       -1.766535   1.000000   1.000000
     26         -1.561965       -1.488739   1.000000   1.000000
     27         -1.343160       -1.226773   1.000000   1.000000
     28         -1.013340       -0.903959   1.000000   1.000000
     29         -0.782578       -0.733689   1.000000   1.000000
     30         -0.615841       -0.516044   1.000000   1.000000
     31         -0.378266       -0.264269   1.000000   1.000000
     32         -0.224079       -0.104734   1.000000   1.000000
     33          0.021371        0.187119   1.000000   1.000000
     34          0.289776        0.445983   1.000000   1.000000
     35          0.493538        0.657601   1.000000   1.000000
     36          0.586424        0.761265   1.000000   1.000000
     37          0.645979        0.972144   1.000000   1.000000
     38          0.793319        1.081701   1.000000   1.000000
     39          0.919801        1.262017   1.000000   1.000000
     40          1.008241        1.365976   1.000000   0.999992
     41          1.135518        1.837022   1.000000   0.000000
     42          1.432594        1.938991   0.992721   0.000000
     43          2.470215        2.552733   0.000000   0.000000
     44          2.521706        2.584762   0.000000   0.000000
     45          3.280915        3.319163   0.000000   0.000000
     46          3.590657        3.635115   0.000000   0.000000
     47          3.991314        4.031616   0.000000   0.000000
     48          4.231159        4.277666   0.000000   0.000000
     49          4.644130        4.693457   0.000000   0.000000
     50          4.847656        4.908177   0.000000   0.000000
     51          5.569083        5.668491   0.000000   0.000000
     52          5.804609        5.851957   0.000000   0.000000
     53          5.966488        5.996034   0.000000   0.000000
     54          6.493896        6.529038   0.000000   0.000000
     55          6.580619        6.620964   0.000000   0.000000
 
 -0.1666667E+00  0.1666667E+00  0.2000000E+00  0.1111111E-01
      1        -14.011446      -13.963597   1.000000   1.000000
      2        -13.754300      -13.708598   1.000000   1.000000
      3        -12.935800      -12.889570   1.000000   1.000000
      4        -12.786793      -12.738112   1.000000   1.000000
      5        -11.214523      -11.147762   1.000000   1.000000
      6        -11.154451      -11.086186   1.000000   1.000000
      7        -10.732154      -10.679063   1.000000   1.000000
      8        -10.525539      -10.456622   1.000000   1.000000
      9        -10.174573       -9.545963   1.000000   1.000000
     10        -10.077891       -9.442289   1.000000   1.000000
     11         -7.287849       -7.251412   1.000000   1.000000
     12         -7.156680       -7.120759   1.000000   1.000000
     13         -5.447628       -5.412524   1.000000   1.000000
     14         -5.199003       -5.157684   1.000000   1.000000
     15         -4.851049       -4.796599   1.000000   1.000000
     16         -4.320162       -4.288500   1.000000   1.000000
     17         -3.713606       -3.665088   1.000000   1.000000
     18         -3.572169       -3.519923   1.000000   1.000000
     19         -3.146296       -3.069962   1.000000   1.000000
     20         -2.916938       -2.871287   1.000000   1.000000
     21         -2.673201       -2.569689   1.000000   1.000000
     22         -2.531726       -2.407787   1.000000   1.000000
     23         -2.361587       -2.277398   1.000000   1.000000
     24         -2.236603       -2.169584   1.000000   1.000000
     25         -1.867161       -1.766535   1.000000   1.000000
     26         -1.561964       -1.488738   1.000000   1.000000
     27         -1.343159       -1.226773   1.000000   1.000000
     28         -1.013340       -0.903959   1.000000   1.000000
     29         -0.782579       -0.733690   1.000000   1.000000
     30         -0.615840       -0.516043   1.000000   1.000000
     31         -0.378266       -0.264269   1.000000   1.000000
     32         -0.224079       -0.104734   1.000000   1.000000
     33          0.021371        0.187119   1.000000   1.000000
     34          0.289776        0.445983   1.000000   1.000000
     35          0.493538        0.657600   1.000000   1.000000
     36          0.586424        0.761265   1.000000   1.000000
     37          0.645979        0.972144   1.000000   1.000000
     38          0.793319        1.081701   1.000000   1.000000
     39          0.919801        1.262017   1.000000   1.000000
     40          1.008241        1.365976   1.000000   0.999992
     41          1.135518        1.837022   1.000000   0.000000
     42          1.432594        1.938991   0.992721   0.000000
     43          2.470216        2.552733   0.000000   0.000000
     44          2.521705        2.584762   0.000000   0.000000
     45          3.280915        3.319163   0.000000   0.000000
     46          3.590658        3.635115   0.000000   0.000000
     47          3.991314        4.031616   0.000000   0.000000
     48          4.231159        4.277666   0.000000   0.000000
     49          4.644130        4.693457   0.000000   0.000000
     50          4.847657        4.908177   0.000000   0.000000
     51          5.569083        5.668491   0.000000   0.000000
     52          5.804609        5.851957   0.000000   0.000000
     53          5.966488        5.996034   0.000000   0.000000
     54          6.494562        6.528455   0.000000   0.000000
     55          6.594030        6.614898   0.000000   0.000000
 
 -0.1666667E+00 -0.1666667E+00  0.2000000E+00  0.1111111E-01
      1        -14.011222      -13.963370   1.000000   1.000000
      2        -13.754608      -13.708907   1.000000   1.000000
      3        -12.936120      -12.889870   1.000000   1.000000
      4        -12.786326      -12.737675   1.000000   1.000000
      5        -11.215629      -11.148604   1.000000   1.000000
      6        -11.153560      -11.085598   1.000000   1.000000
      7        -10.733007      -10.679971   1.000000   1.000000
      8        -10.524029      -10.454915   1.000000   1.000000
      9        -10.174804       -9.546209   1.000000   1.000000
     10        -10.077697       -9.442204   1.000000   1.000000
     11         -7.296145       -7.260094   1.000000   1.000000
     12         -7.150949       -7.114670   1.000000   1.000000
     13         -5.438478       -5.401997   1.000000   1.000000
     14         -5.199200       -5.157827   1.000000   1.000000
     15         -4.860082       -4.809185   1.000000   1.000000
     16         -4.313490       -4.279148   1.000000   1.000000
     17         -3.709948       -3.660055   1.000000   1.000000
     18         -3.562176       -3.511355   1.000000   1.000000
     19         -3.136286       -3.066375   1.000000   1.000000
     20         -2.910060       -2.857455   1.000000   1.000000
     21         -2.809530       -2.726399   1.000000   1.000000
     22         -2.561074       -2.438743   1.000000   1.000000
     23         -2.298116       -2.179483   1.000000   1.000000
     24         -2.182227       -2.126068   1.000000   1.000000
     25         -1.764499       -1.661258   1.000000   1.000000
     26         -1.582023       -1.479179   1.000000   1.000000
     27         -1.354003       -1.267702   1.000000   1.000000
     28         -1.041965       -0.959124   1.000000   1.000000
     29         -0.827887       -0.744013   1.000000   1.000000
     30         -0.562887       -0.466237   1.000000   1.000000
     31         -0.372656       -0.273277   1.000000   1.000000
     32         -0.312611       -0.196777   1.000000   1.000000
     33          0.041420        0.221438   1.000000   1.000000
     34          0.286633        0.433232   1.000000   1.000000
     35          0.456425        0.573760   1.000000   1.000000
     36          0.594983        0.790836   1.000000   1.000000
     37          0.679015        0.993345   1.000000   1.000000
     38          0.807175        1.158165   1.000000   1.000000
     39          0.882476        1.277954   1.000000   1.000000
     40          1.030969        1.357123   1.000000   0.999998
     41          1.164784        1.841044   1.000000   0.000000
     42          1.414808        1.905788   0.998392   0.000000
     43          2.476338        2.553633   0.000000   0.000000
     44          2.555822        2.619583   0.000000   0.000000
     45          3.315643        3.356867   0.000000   0.000000
     46          3.585599        3.625453   0.000000   0.000000
     47          3.907205        3.946926   0.000000   0.000000
     48          4.315661        4.364325   0.000000   0.000000
     49          4.551212        4.601861   0.000000   0.000000
     50          4.843245        4.904141   0.000000   0.000000
     51          5.543866        5.641810   0.000000   0.000000
     52          5.896914        5.943682   0.000000   0.000000
     53          5.989983        6.020624   0.000000   0.000000
     54          6.366356        6.399075   0.000000   0.000000
     55          6.568626        6.608047   0.000000   0.000000
 
  0.1666667E+00 -0.1666667E+00  0.2000000E+00  0.1111111E-01
      1        -14.011222      -13.963370   1.000000   1.000000
      2        -13.754608      -13.708907   1.000000   1.000000
      3        -12.936120      -12.889870   1.000000   1.000000
      4        -12.786326      -12.737675   1.000000   1.000000
      5        -11.215629      -11.148604   1.000000   1.000000
      6        -11.153560      -11.085598   1.000000   1.000000
      7        -10.733007      -10.679971   1.000000   1.000000
      8        -10.524029      -10.454915   1.000000   1.000000
      9        -10.174804       -9.546209   1.000000   1.000000
     10        -10.077697       -9.442204   1.000000   1.000000
     11         -7.296145       -7.260095   1.000000   1.000000
     12         -7.150948       -7.114670   1.000000   1.000000
     13         -5.438478       -5.401997   1.000000   1.000000
     14         -5.199200       -5.157827   1.000000   1.000000
     15         -4.860082       -4.809185   1.000000   1.000000
     16         -4.313490       -4.279148   1.000000   1.000000
     17         -3.709949       -3.660056   1.000000   1.000000
     18         -3.562175       -3.511355   1.000000   1.000000
     19         -3.136286       -3.066375   1.000000   1.000000
     20         -2.910060       -2.857455   1.000000   1.000000
     21         -2.809530       -2.726398   1.000000   1.000000
     22         -2.561074       -2.438743   1.000000   1.000000
     23         -2.298116       -2.179483   1.000000   1.000000
     24         -2.182227       -2.126068   1.000000   1.000000
     25         -1.764499       -1.661258   1.000000   1.000000
     26         -1.582023       -1.479178   1.000000   1.000000
     27         -1.354003       -1.267702   1.000000   1.000000
     28         -1.041966       -0.959124   1.000000   1.000000
     29         -0.827887       -0.744013   1.000000   1.000000
     30         -0.562886       -0.466237   1.000000   1.000000
     31         -0.372656       -0.273276   1.000000   1.000000
     32         -0.312611       -0.196777   1.000000   1.000000
     33          0.041420        0.221438   1.000000   1.000000
     34          0.286633        0.433232   1.000000   1.000000
     35          0.456425        0.573760   1.000000   1.000000
     36          0.594983        0.790836   1.000000   1.000000
     37          0.679015        0.993345   1.000000   1.000000
     38          0.807175        1.158165   1.000000   1.000000
     39          0.882476        1.277954   1.000000   1.000000
     40          1.030969        1.357123   1.000000   0.999998
     41          1.164784        1.841044   1.000000   0.000000
     42          1.414808        1.905787   0.998392   0.000000
     43          2.476338        2.553633   0.000000   0.000000
     44          2.555822        2.619583   0.000000   0.000000
     45          3.315643        3.356867   0.000000   0.000000
     46          3.585599        3.625453   0.000000   0.000000
     47          3.907204        3.946926   0.000000   0.000000
     48          4.315661        4.364325   0.000000   0.000000
     49          4.551212        4.601861   0.000000   0.000000
     50          4.843245        4.904141   0.000000   0.000000
     51          5.543866        5.641810   0.000000   0.000000
     52          5.896913        5.943681   0.000000   0.000000
     53          5.989983        6.020624   0.000000   0.000000
     54          6.366356        6.399078   0.000000   0.000000
     55          6.568699        6.607988   0.000000   0.000000
 
  0.3333333E+00  0.1666667E+00  0.2000000E+00  0.1111111E-01
      1        -13.993920      -13.947860   1.000000   1.000000
      2        -13.742673      -13.698461   1.000000   1.000000
      3        -12.953955      -12.904800   1.000000   1.000000
      4        -12.791671      -12.740595   1.000000   1.000000
      5        -11.244637      -11.178286   1.000000   1.000000
      6        -11.195549      -11.128336   1.000000   1.000000
      7        -10.729928      -10.664758   1.000000   1.000000
      8        -10.553238      -10.464845   1.000000   1.000000
      9        -10.175468       -9.563524   1.000000   1.000000
     10        -10.028366       -9.416016   1.000000   1.000000
     11         -7.228744       -7.189889   1.000000   1.000000
     12         -7.110310       -7.072104   1.000000   1.000000
     13         -5.430705       -5.393448   1.000000   1.000000
     14         -5.093590       -5.051397   1.000000   1.000000
     15         -4.819730       -4.759607   1.000000   1.000000
     16         -4.338070       -4.303486   1.000000   1.000000
     17         -3.780502       -3.736181   1.000000   1.000000
     18         -3.614221       -3.569737   1.000000   1.000000
     19         -3.114890       -3.000752   1.000000   1.000000
     20         -2.950770       -2.914742   1.000000   1.000000
     21         -2.716756       -2.645801   1.000000   1.000000
     22         -2.581627       -2.444450   1.000000   1.000000
     23         -2.440900       -2.349134   1.000000   1.000000
     24         -2.113956       -2.046919   1.000000   1.000000
     25         -1.865477       -1.762471   1.000000   1.000000
     26         -1.639243       -1.568673   1.000000   1.000000
     27         -1.277112       -1.180101   1.000000   1.000000
     28         -1.031653       -0.941848   1.000000   1.000000
     29         -0.732723       -0.654976   1.000000   1.000000
     30         -0.589179       -0.500475   1.000000   1.000000
     31         -0.474816       -0.344389   1.000000   1.000000
     32         -0.273960       -0.199140   1.000000   1.000000
     33          0.119295        0.287057   1.000000   1.000000
     34          0.193070        0.346263   1.000000   1.000000
     35          0.521420        0.665867   1.000000   1.000000
     36          0.561688        0.702271   1.000000   1.000000
     37          0.609612        0.906697   1.000000   1.000000
     38          0.738697        1.015998   1.000000   1.000000
     39          0.824471        1.262986   1.000000   1.000000
     40          0.927696        1.420391   1.000000   0.997351
     41          1.227946        1.819000   1.000000   0.000000
     42          1.416944        1.907898   0.998048   0.000000
     43          2.320791        2.434622   0.000000   0.000000
     44          2.404159        2.480554   0.000000   0.000000
     45          3.397987        3.429542   0.000000   0.000000
     46          3.535164        3.578001   0.000000   0.000000
     47          4.059877        4.098413   0.000000   0.000000
     48          4.406737        4.453200   0.000000   0.000000
     49          4.726163        4.767851   0.000000   0.000000
     50          4.921133        4.963619   0.000000   0.000000
     51          5.558810        5.618250   0.000000   0.000000
     52          5.987490        6.036448   0.000000   0.000000
     53          6.132826        6.201205   0.000000   0.000000
     54          6.477915        6.520462   0.000000   0.000000
     55          6.574932        6.621941   0.000000   0.000000
 
 -0.1666667E+00  0.3333333E+00  0.2000000E+00  0.1111111E-01
      1        -14.002539      -13.954958   1.000000   1.000000
      2        -13.748183      -13.702692   1.000000   1.000000
      3        -12.944125      -12.898560   1.000000   1.000000
      4        -12.788585      -12.740848   1.000000   1.000000
      5        -11.241445      -11.174146   1.000000   1.000000
      6        -11.166586      -11.095778   1.000000   1.000000
      7        -10.720674      -10.666752   1.000000   1.000000
      8        -10.508424      -10.437286   1.000000   1.000000
      9        -10.182239       -9.555759   1.000000   1.000000
     10        -10.082855       -9.449819   1.000000   1.000000
     11         -7.321016       -7.284626   1.000000   1.000000
     12         -7.185042       -7.149182   1.000000   1.000000
     13         -5.374058       -5.336687   1.000000   1.000000
     14         -5.120115       -5.074031   1.000000   1.000000
     15         -4.844328       -4.797903   1.000000   1.000000
     16         -4.324345       -4.295112   1.000000   1.000000
     17         -3.702518       -3.647563   1.000000   1.000000
     18         -3.544934       -3.495364   1.000000   1.000000
     19         -3.111119       -3.044598   1.000000   1.000000
     20         -2.935417       -2.894307   1.000000   1.000000
     21         -2.669057       -2.601939   1.000000   1.000000
     22         -2.437204       -2.333283   1.000000   1.000000
     23         -2.345148       -2.260209   1.000000   1.000000
     24         -2.170783       -2.083450   1.000000   1.000000
     25         -1.814938       -1.730868   1.000000   1.000000
     26         -1.563753       -1.474730   1.000000   1.000000
     27         -1.336459       -1.236806   1.000000   1.000000
     28         -0.983695       -0.910028   1.000000   1.000000
     29         -0.826410       -0.727993   1.000000   1.000000
     30         -0.670753       -0.600831   1.000000   1.000000
     31         -0.452385       -0.308455   1.000000   1.000000
     32         -0.282938       -0.154898   1.000000   1.000000
     33         -0.056420        0.215910   1.000000   1.000000
     34          0.261705        0.453506   1.000000   1.000000
     35          0.386367        0.641409   1.000000   1.000000
     36          0.455624        0.736862   1.000000   1.000000
     37          0.634420        0.914033   1.000000   1.000000
     38          0.750054        1.031924   1.000000   1.000000
     39          0.887812        1.154815   1.000000   1.000000
     40          0.958299        1.362889   1.000000   0.999995
     41          1.141844        1.649625   1.000000   0.000110
     42          1.369188        1.789046   0.999989   0.000000
     43          2.374231        2.447829   0.000000   0.000000
     44          2.443029        2.523296   0.000000   0.000000
     45          3.221828        3.271929   0.000000   0.000000
     46          3.631733        3.676700   0.000000   0.000000
     47          4.160694        4.208449   0.000000   0.000000
     48          4.368373        4.415152   0.000000   0.000000
     49          4.725582        4.777231   0.000000   0.000000
     50          4.889472        4.942914   0.000000   0.000000
     51          5.546141        5.610453   0.000000   0.000000
     52          5.808119        5.893163   0.000000   0.000000
     53          6.030821        6.067227   0.000000   0.000000
     54          6.398595        6.449541   0.000000   0.000000
     55          6.607339        6.639795   0.000000   0.000000
 
 -0.3333333E+00 -0.1666667E+00  0.2000000E+00  0.1111111E-01
      1        -13.993759      -13.947703   1.000000   1.000000
      2        -13.742907      -13.698688   1.000000   1.000000
      3        -12.954223      -12.905052   1.000000   1.000000
      4        -12.791185      -12.740128   1.000000   1.000000
      5        -11.248061      -11.181522   1.000000   1.000000
      6        -11.192700      -11.125708   1.000000   1.000000
      7        -10.729158      -10.665349   1.000000   1.000000
      8        -10.552935      -10.463148   1.000000   1.000000
      9        -10.179353       -9.566211   1.000000   1.000000
     10        -10.024709       -9.413577   1.000000   1.000000
     11         -7.233490       -7.194977   1.000000   1.000000
     12         -7.104597       -7.066007   1.000000   1.000000
     13         -5.424506       -5.386530   1.000000   1.000000
     14         -5.108048       -5.068649   1.000000   1.000000
     15         -4.841263       -4.779747   1.000000   1.000000
     16         -4.325676       -4.289698   1.000000   1.000000
     17         -3.740306       -3.695774   1.000000   1.000000
     18         -3.603608       -3.557986   1.000000   1.000000
     19         -3.083409       -3.000815   1.000000   1.000000
     20         -2.957674       -2.910568   1.000000   1.000000
     21         -2.810656       -2.702408   1.000000   1.000000
     22         -2.662592       -2.542683   1.000000   1.000000
     23         -2.385143       -2.307763   1.000000   1.000000
     24         -1.997251       -1.916875   1.000000   1.000000
     25         -1.886134       -1.799781   1.000000   1.000000
     26         -1.585409       -1.486884   1.000000   1.000000
     27         -1.335345       -1.247662   1.000000   1.000000
     28         -1.031076       -0.945966   1.000000   1.000000
     29         -0.783930       -0.672096   1.000000   1.000000
     30         -0.584960       -0.512555   1.000000   1.000000
     31         -0.450791       -0.344200   1.000000   1.000000
     32         -0.286693       -0.213900   1.000000   1.000000
     33          0.090941        0.267532   1.000000   1.000000
     34          0.224998        0.385023   1.000000   1.000000
     35          0.440783        0.560377   1.000000   1.000000
     36          0.538016        0.669160   1.000000   1.000000
     37          0.672426        0.937475   1.000000   1.000000
     38          0.716846        1.109104   1.000000   1.000000
     39          0.833616        1.288153   1.000000   1.000000
     40          0.944575        1.378747   1.000000   0.999963
     41          1.230796        1.845177   1.000000   0.000000
     42          1.423544        1.885615   0.996524   0.000000
     43          2.337200        2.441348   0.000000   0.000000
     44          2.431103        2.512170   0.000000   0.000000
     45          3.395383        3.433245   0.000000   0.000000
     46          3.558802        3.592182   0.000000   0.000000
     47          4.013113        4.050930   0.000000   0.000000
     48          4.464858        4.512126   0.000000   0.000000
     49          4.662897        4.706621   0.000000   0.000000
     50          4.920408        4.963163   0.000000   0.000000
     51          5.636575        5.696454   0.000000   0.000000
     52          5.982536        6.056724   0.000000   0.000000
     53          6.179474        6.220631   0.000000   0.000000
     54          6.409814        6.452750   0.000000   0.000000
     55          6.568013        6.611389   0.000000   0.000000
 
  0.1666667E+00 -0.3333333E+00  0.2000000E+00  0.1111111E-01
      1        -14.002310      -13.954726   1.000000   1.000000
      2        -13.748496      -13.703006   1.000000   1.000000
      3        -12.944446      -12.898861   1.000000   1.000000
      4        -12.788118      -12.740411   1.000000   1.000000
      5        -11.242377      -11.174815   1.000000   1.000000
      6        -11.165831      -11.095336   1.000000   1.000000
      7        -10.721552      -10.667613   1.000000   1.000000
      8        -10.506900      -10.435649   1.000000   1.000000
      9        -10.182492       -9.556005   1.000000   1.000000
     10        -10.082679       -9.449747   1.000000   1.000000
     11         -7.328157       -7.292164   1.000000   1.000000
     12         -7.180467       -7.144238   1.000000   1.000000
     13         -5.361788       -5.322323   1.000000   1.000000
     14         -5.124415       -5.078754   1.000000   1.000000
     15         -4.853341       -4.810903   1.000000   1.000000
     16         -4.312325       -4.280765   1.000000   1.000000
     17         -3.707127       -3.649425   1.000000   1.000000
     18         -3.529218       -3.482071   1.000000   1.000000
     19         -3.113499       -3.052336   1.000000   1.000000
     20         -2.931482       -2.880980   1.000000   1.000000
     21         -2.798726       -2.740601   1.000000   1.000000
     22         -2.478566       -2.376008   1.000000   1.000000
     23         -2.245708       -2.140853   1.000000   1.000000
     24         -2.105656       -2.041221   1.000000   1.000000
     25         -1.725345       -1.623445   1.000000   1.000000
     26         -1.586914       -1.474529   1.000000   1.000000
     27         -1.357900       -1.288645   1.000000   1.000000
     28         -1.028905       -0.959716   1.000000   1.000000
     29         -0.818101       -0.719228   1.000000   1.000000
     30         -0.638312       -0.564881   1.000000   1.000000
     31         -0.546560       -0.383445   1.000000   1.000000
     32         -0.307131       -0.195771   1.000000   1.000000
     33         -0.008876        0.234316   1.000000   1.000000
     34          0.249482        0.494969   1.000000   1.000000
     35          0.384838        0.521696   1.000000   1.000000
     36          0.486947        0.802504   1.000000   1.000000
     37          0.603315        0.921453   1.000000   1.000000
     38          0.762943        1.109986   1.000000   1.000000
     39          0.842876        1.153702   1.000000   1.000000
     40          0.994394        1.334991   1.000000   1.000000
     41          1.176669        1.673836   1.000000   0.000006
     42          1.339807        1.745519   1.000000   0.000000
     43          2.403818        2.486738   0.000000   0.000000
     44          2.461753        2.528338   0.000000   0.000000
     45          3.243915        3.293058   0.000000   0.000000
     46          3.631559        3.674556   0.000000   0.000000
     47          4.067880        4.114691   0.000000   0.000000
     48          4.457861        4.510644   0.000000   0.000000
     49          4.628282        4.679295   0.000000   0.000000
     50          4.905286        4.957761   0.000000   0.000000
     51          5.562991        5.643810   0.000000   0.000000
     52          5.820102        5.882657   0.000000   0.000000
     53          6.074741        6.115340   0.000000   0.000000
     54          6.302105        6.342909   0.000000   0.000000
     55          6.588490        6.638069   0.000000   0.000000
 
 -0.3333333E+00  0.1666667E+00 -0.2000000E+00  0.1111111E-01
      1        -13.993759      -13.947703   1.000000   1.000000
      2        -13.742907      -13.698688   1.000000   1.000000
      3        -12.954224      -12.905053   1.000000   1.000000
      4        -12.791184      -12.740128   1.000000   1.000000
      5        -11.248061      -11.181523   1.000000   1.000000
      6        -11.192700      -11.125707   1.000000   1.000000
      7        -10.729158      -10.665349   1.000000   1.000000
      8        -10.552936      -10.463148   1.000000   1.000000
      9        -10.179353       -9.566211   1.000000   1.000000
     10        -10.024709       -9.413577   1.000000   1.000000
     11         -7.233490       -7.194977   1.000000   1.000000
     12         -7.104596       -7.066006   1.000000   1.000000
     13         -5.424506       -5.386530   1.000000   1.000000
     14         -5.108047       -5.068648   1.000000   1.000000
     15         -4.841263       -4.779747   1.000000   1.000000
     16         -4.325676       -4.289698   1.000000   1.000000
     17         -3.740306       -3.695775   1.000000   1.000000
     18         -3.603607       -3.557985   1.000000   1.000000
     19         -3.083409       -3.000816   1.000000   1.000000
     20         -2.957675       -2.910568   1.000000   1.000000
     21         -2.810656       -2.702408   1.000000   1.000000
     22         -2.662592       -2.542683   1.000000   1.000000
     23         -2.385143       -2.307763   1.000000   1.000000
     24         -1.997250       -1.916874   1.000000   1.000000
     25         -1.886134       -1.799782   1.000000   1.000000
     26         -1.585409       -1.486884   1.000000   1.000000
     27         -1.335345       -1.247662   1.000000   1.000000
     28         -1.031076       -0.945966   1.000000   1.000000
     29         -0.783930       -0.672096   1.000000   1.000000
     30         -0.584960       -0.512555   1.000000   1.000000
     31         -0.450791       -0.344200   1.000000   1.000000
     32         -0.286693       -0.213900   1.000000   1.000000
     33          0.090941        0.267533   1.000000   1.000000
     34          0.224998        0.385023   1.000000   1.000000
     35          0.440784        0.560377   1.000000   1.000000
     36          0.538016        0.669160   1.000000   1.000000
     37          0.672426        0.937475   1.000000   1.000000
     38          0.716846        1.109104   1.000000   1.000000
     39          0.833616        1.288153   1.000000   1.000000
     40          0.944575        1.378747   1.000000   0.999963
     41          1.230796        1.845177   1.000000   0.000000
     42          1.423544        1.885615   0.996524   0.000000
     43          2.337200        2.441348   0.000000   0.000000
     44          2.431102        2.512170   0.000000   0.000000
     45          3.395383        3.433244   0.000000   0.000000
     46          3.558802        3.592182   0.000000   0.000000
     47          4.013113        4.050929   0.000000   0.000000
     48          4.464858        4.512126   0.000000   0.000000
     49          4.662897        4.706621   0.000000   0.000000
     50          4.920408        4.963163   0.000000   0.000000
     51          5.636575        5.696454   0.000000   0.000000
     52          5.982536        6.056724   0.000000   0.000000
     53          6.179474        6.220631   0.000000   0.000000
     54          6.409812        6.452721   0.000000   0.000000
     55          6.569012        6.611399   0.000000   0.000000
 
  0.1666667E+00  0.3333333E+00 -0.2000000E+00  0.1111111E-01
      1        -14.002310      -13.954726   1.000000   1.000000
      2        -13.748496      -13.703006   1.000000   1.000000
      3        -12.944446      -12.898861   1.000000   1.000000
      4        -12.788118      -12.740411   1.000000   1.000000
      5        -11.242377      -11.174815   1.000000   1.000000
      6        -11.165831      -11.095336   1.000000   1.000000
      7        -10.721552      -10.667613   1.000000   1.000000
      8        -10.506900      -10.435649   1.000000   1.000000
      9        -10.182492       -9.556005   1.000000   1.000000
     10        -10.082679       -9.449747   1.000000   1.000000
     11         -7.328156       -7.292163   1.000000   1.000000
     12         -7.180467       -7.144238   1.000000   1.000000
     13         -5.361788       -5.322323   1.000000   1.000000
     14         -5.124416       -5.078754   1.000000   1.000000
     15         -4.853341       -4.810903   1.000000   1.000000
     16         -4.312325       -4.280765   1.000000   1.000000
     17         -3.707126       -3.649425   1.000000   1.000000
     18         -3.529218       -3.482071   1.000000   1.000000
     19         -3.113499       -3.052336   1.000000   1.000000
     20         -2.931482       -2.880980   1.000000   1.000000
     21         -2.798726       -2.740602   1.000000   1.000000
     22         -2.478566       -2.376008   1.000000   1.000000
     23         -2.245708       -2.140853   1.000000   1.000000
     24         -2.105656       -2.041221   1.000000   1.000000
     25         -1.725344       -1.623445   1.000000   1.000000
     26         -1.586915       -1.474529   1.000000   1.000000
     27         -1.357901       -1.288646   1.000000   1.000000
     28         -1.028905       -0.959717   1.000000   1.000000
     29         -0.818101       -0.719228   1.000000   1.000000
     30         -0.638312       -0.564881   1.000000   1.000000
     31         -0.546560       -0.383446   1.000000   1.000000
     32         -0.307130       -0.195770   1.000000   1.000000
     33         -0.008876        0.234316   1.000000   1.000000
     34          0.249482        0.494969   1.000000   1.000000
     35          0.384837        0.521695   1.000000   1.000000
     36          0.486947        0.802504   1.000000   1.000000
     37          0.603315        0.921453   1.000000   1.000000
     38          0.762943        1.109986   1.000000   1.000000
     39          0.842876        1.153702   1.000000   1.000000
     40          0.994394        1.334991   1.000000   1.000000
     41          1.176669        1.673836   1.000000   0.000006
     42          1.339807        1.745519   1.000000   0.000000
     43          2.403817        2.486738   0.000000   0.000000
     44          2.461753        2.528338   0.000000   0.000000
     45          3.243915        3.293058   0.000000   0.000000
     46          3.631559        3.674556   0.000000   0.000000
     47          4.067880        4.114691   0.000000   0.000000
     48          4.457862        4.510644   0.000000   0.000000
     49          4.628282        4.679296   0.000000   0.000000
     50          4.905286        4.957761   0.000000   0.000000
     51          5.562991        5.643810   0.000000   0.000000
     52          5.820102        5.882657   0.000000   0.000000
     53          6.074741        6.115340   0.000000   0.000000
     54          6.302136        6.342901   0.000000   0.000000
     55          6.592063        6.636183   0.000000   0.000000
 
  0.3333333E+00 -0.1666667E+00 -0.2000000E+00  0.1111111E-01
      1        -13.993920      -13.947860   1.000000   1.000000
      2        -13.742673      -13.698460   1.000000   1.000000
      3        -12.953955      -12.904800   1.000000   1.000000
      4        -12.791671      -12.740595   1.000000   1.000000
      5        -11.244638      -11.178287   1.000000   1.000000
      6        -11.195549      -11.128336   1.000000   1.000000
      7        -10.729928      -10.664758   1.000000   1.000000
      8        -10.553238      -10.464845   1.000000   1.000000
      9        -10.175468       -9.563524   1.000000   1.000000
     10        -10.028366       -9.416016   1.000000   1.000000
     11         -7.228745       -7.189890   1.000000   1.000000
     12         -7.110310       -7.072103   1.000000   1.000000
     13         -5.430705       -5.393448   1.000000   1.000000
     14         -5.093589       -5.051396   1.000000   1.000000
     15         -4.819730       -4.759607   1.000000   1.000000
     16         -4.338070       -4.303486   1.000000   1.000000
     17         -3.780502       -3.736182   1.000000   1.000000
     18         -3.614221       -3.569737   1.000000   1.000000
     19         -3.114890       -3.000752   1.000000   1.000000
     20         -2.950770       -2.914743   1.000000   1.000000
     21         -2.716756       -2.645800   1.000000   1.000000
     22         -2.581627       -2.444450   1.000000   1.000000
     23         -2.440901       -2.349134   1.000000   1.000000
     24         -2.113956       -2.046919   1.000000   1.000000
     25         -1.865477       -1.762471   1.000000   1.000000
     26         -1.639243       -1.568673   1.000000   1.000000
     27         -1.277112       -1.180100   1.000000   1.000000
     28         -1.031653       -0.941848   1.000000   1.000000
     29         -0.732723       -0.654976   1.000000   1.000000
     30         -0.589179       -0.500475   1.000000   1.000000
     31         -0.474816       -0.344389   1.000000   1.000000
     32         -0.273960       -0.199140   1.000000   1.000000
     33          0.119295        0.287057   1.000000   1.000000
     34          0.193070        0.346263   1.000000   1.000000
     35          0.521420        0.665867   1.000000   1.000000
     36          0.561687        0.702271   1.000000   1.000000
     37          0.609612        0.906697   1.000000   1.000000
     38          0.738697        1.015998   1.000000   1.000000
     39          0.824471        1.262986   1.000000   1.000000
     40          0.927696        1.420391   1.000000   0.997351
     41          1.227946        1.818999   1.000000   0.000000
     42          1.416944        1.907898   0.998048   0.000000
     43          2.320791        2.434622   0.000000   0.000000
     44          2.404159        2.480554   0.000000   0.000000
     45          3.397987        3.429542   0.000000   0.000000
     46          3.535164        3.578001   0.000000   0.000000
     47          4.059877        4.098413   0.000000   0.000000
     48          4.406737        4.453200   0.000000   0.000000
     49          4.726163        4.767851   0.000000   0.000000
     50          4.921133        4.963620   0.000000   0.000000
     51          5.558810        5.618249   0.000000   0.000000
     52          5.987491        6.036448   0.000000   0.000000
     53          6.132826        6.201206   0.000000   0.000000
     54          6.477877        6.520529   0.000000   0.000000
     55          6.574689        6.621510   0.000000   0.000000
 
 -0.1666667E+00 -0.3333333E+00 -0.2000000E+00  0.1111111E-01
      1        -14.002539      -13.954958   1.000000   1.000000
      2        -13.748183      -13.702692   1.000000   1.000000
      3        -12.944125      -12.898560   1.000000   1.000000
      4        -12.788586      -12.740848   1.000000   1.000000
      5        -11.241445      -11.174146   1.000000   1.000000
      6        -11.166586      -11.095779   1.000000   1.000000
      7        -10.720674      -10.666752   1.000000   1.000000
      8        -10.508424      -10.437286   1.000000   1.000000
      9        -10.182239       -9.555759   1.000000   1.000000
     10        -10.082855       -9.449819   1.000000   1.000000
     11         -7.321015       -7.284625   1.000000   1.000000
     12         -7.185043       -7.149183   1.000000   1.000000
     13         -5.374057       -5.336687   1.000000   1.000000
     14         -5.120116       -5.074031   1.000000   1.000000
     15         -4.844328       -4.797903   1.000000   1.000000
     16         -4.324345       -4.295112   1.000000   1.000000
     17         -3.702517       -3.647562   1.000000   1.000000
     18         -3.544934       -3.495364   1.000000   1.000000
     19         -3.111119       -3.044598   1.000000   1.000000
     20         -2.935417       -2.894307   1.000000   1.000000
     21         -2.669057       -2.601939   1.000000   1.000000
     22         -2.437204       -2.333283   1.000000   1.000000
     23         -2.345148       -2.260209   1.000000   1.000000
     24         -2.170783       -2.083450   1.000000   1.000000
     25         -1.814937       -1.730868   1.000000   1.000000
     26         -1.563753       -1.474730   1.000000   1.000000
     27         -1.336459       -1.236806   1.000000   1.000000
     28         -0.983695       -0.910028   1.000000   1.000000
     29         -0.826410       -0.727993   1.000000   1.000000
     30         -0.670753       -0.600831   1.000000   1.000000
     31         -0.452385       -0.308455   1.000000   1.000000
     32         -0.282938       -0.154898   1.000000   1.000000
     33         -0.056420        0.215909   1.000000   1.000000
     34          0.261705        0.453506   1.000000   1.000000
     35          0.386367        0.641409   1.000000   1.000000
     36          0.455623        0.736863   1.000000   1.000000
     37          0.634420        0.914033   1.000000   1.000000
     38          0.750054        1.031924   1.000000   1.000000
     39          0.887812        1.154815   1.000000   1.000000
     40          0.958299        1.362889   1.000000   0.999995
     41          1.141844        1.649625   1.000000   0.000110
     42          1.369188        1.789046   0.999989   0.000000
     43          2.374231        2.447828   0.000000   0.000000
     44          2.443029        2.523296   0.000000   0.000000
     45          3.221828        3.271929   0.000000   0.000000
     46          3.631733        3.676700   0.000000   0.000000
     47          4.160694        4.208450   0.000000   0.000000
     48          4.368373        4.415152   0.000000   0.000000
     49          4.725582        4.777232   0.000000   0.000000
     50          4.889471        4.942913   0.000000   0.000000
     51          5.546141        5.610453   0.000000   0.000000
     52          5.808119        5.893163   0.000000   0.000000
     53          6.030820        6.067227   0.000000   0.000000
     54          6.398597        6.449534   0.000000   0.000000
     55          6.605595        6.639816   0.000000   0.000000
 
  0.5000000E+00  0.1666667E+00  0.2000000E+00  0.1111111E-01
      1        -13.984842      -13.939744   1.000000   1.000000
      2        -13.736763      -13.693330   1.000000   1.000000
      3        -12.963391      -12.912655   1.000000   1.000000
      4        -12.794433      -12.742103   1.000000   1.000000
      5        -11.256311      -11.190141   1.000000   1.000000
      6        -11.217294      -11.150820   1.000000   1.000000
      7        -10.729479      -10.657755   1.000000   1.000000
      8        -10.564680      -10.469696   1.000000   1.000000
      9        -10.176184       -9.571294   1.000000   1.000000
     10        -10.007737       -9.405815   1.000000   1.000000
     11         -7.169071       -7.129079   1.000000   1.000000
     12         -7.114285       -7.074065   1.000000   1.000000
     13         -5.419427       -5.380540   1.000000   1.000000
     14         -5.059972       -5.019469   1.000000   1.000000
     15         -4.794244       -4.730841   1.000000   1.000000
     16         -4.349708       -4.313637   1.000000   1.000000
     17         -3.808680       -3.766678   1.000000   1.000000
     18         -3.584813       -3.542202   1.000000   1.000000
     19         -3.115436       -2.986082   1.000000   1.000000
     20         -2.962538       -2.930756   1.000000   1.000000
     21         -2.850509       -2.794585   1.000000   1.000000
     22         -2.620434       -2.469557   1.000000   1.000000
     23         -2.299090       -2.202630   1.000000   1.000000
     24         -2.102896       -2.016997   1.000000   1.000000
     25         -1.970773       -1.897620   1.000000   1.000000
     26         -1.554016       -1.480282   1.000000   1.000000
     27         -1.282754       -1.203517   1.000000   1.000000
     28         -1.091476       -1.005698   1.000000   1.000000
     29         -0.732334       -0.592402   1.000000   1.000000
     30         -0.595109       -0.535913   1.000000   1.000000
     31         -0.493000       -0.405602   1.000000   1.000000
     32         -0.284566       -0.200631   1.000000   1.000000
     33          0.086652        0.250811   1.000000   1.000000
     34          0.245183        0.418744   1.000000   1.000000
     35          0.558634        0.665614   1.000000   1.000000
     36          0.607036        0.737201   1.000000   1.000000
     37          0.652250        0.886041   1.000000   1.000000
     38          0.685020        0.929584   1.000000   1.000000
     39          0.776125        1.331232   1.000000   1.000000
     40          0.849587        1.432127   1.000000   0.992983
     41          1.249231        1.756661   1.000000   0.000000
     42          1.394376        1.882814   0.999788   0.000000
     43          2.250569        2.363560   0.000000   0.000000
     44          2.312617        2.422863   0.000000   0.000000
     45          3.427480        3.463806   0.000000   0.000000
     46          3.551772        3.582321   0.000000   0.000000
     47          4.134014        4.179079   0.000000   0.000000
     48          4.451081        4.489301   0.000000   0.000000
     49          4.695194        4.732827   0.000000   0.000000
     50          4.954005        4.989989   0.000000   0.000000
     51          5.619062        5.678391   0.000000   0.000000
     52          5.985506        6.014305   0.000000   0.000000
     53          6.356043        6.427868   0.000000   0.000000
     54          6.523588        6.603363   0.000000   0.000000
     55          6.639410        6.680470   0.000000   0.000000
 
 -0.1666667E+00  0.5000000E+00  0.2000000E+00  0.1111111E-01
      1        -13.997898      -13.950453   1.000000   1.000000
      2        -13.745260      -13.699877   1.000000   1.000000
      3        -12.948485      -12.903240   1.000000   1.000000
      4        -12.789363      -12.742109   1.000000   1.000000
      5        -11.254647      -11.186731   1.000000   1.000000
      6        -11.172341      -11.100644   1.000000   1.000000
      7        -10.715008      -10.660467   1.000000   1.000000
      8        -10.499465      -10.427876   1.000000   1.000000
      9        -10.186429       -9.560757   1.000000   1.000000
     10        -10.085847       -9.453877   1.000000   1.000000
     11         -7.325879       -7.289925   1.000000   1.000000
     12         -7.212530       -7.176259   1.000000   1.000000
     13         -5.315375       -5.274571   1.000000   1.000000
     14         -5.098869       -5.051641   1.000000   1.000000
     15         -4.843949       -4.803997   1.000000   1.000000
     16         -4.319992       -4.290868   1.000000   1.000000
     17         -3.706787       -3.647019   1.000000   1.000000
     18         -3.503196       -3.456544   1.000000   1.000000
     19         -3.104158       -3.044555   1.000000   1.000000
     20         -2.959169       -2.912488   1.000000   1.000000
     21         -2.769097       -2.712177   1.000000   1.000000
     22         -2.376183       -2.299848   1.000000   1.000000
     23         -2.244327       -2.145731   1.000000   1.000000
     24         -2.047077       -1.985341   1.000000   1.000000
     25         -1.783865       -1.689561   1.000000   1.000000
     26         -1.658282       -1.545706   1.000000   1.000000
     27         -1.301297       -1.225713   1.000000   1.000000
     28         -1.033423       -0.972844   1.000000   1.000000
     29         -0.768134       -0.680371   1.000000   1.000000
     30         -0.651398       -0.572594   1.000000   1.000000
     31         -0.583334       -0.421762   1.000000   1.000000
     32         -0.410633       -0.212147   1.000000   1.000000
     33         -0.019432        0.237216   1.000000   1.000000
     34          0.221930        0.479377   1.000000   1.000000
     35          0.363166        0.583753   1.000000   1.000000
     36          0.425123        0.794894   1.000000   1.000000
     37          0.620875        0.880524   1.000000   1.000000
     38          0.716992        1.035874   1.000000   1.000000
     39          0.843832        1.078990   1.000000   1.000000
     40          0.952602        1.342679   1.000000   1.000000
     41          1.171779        1.575674   1.000000   0.054386
     42          1.312320        1.707777   1.000000   0.000000
     43          2.345576        2.410745   0.000000   0.000000
     44          2.413053        2.496371   0.000000   0.000000
     45          3.201719        3.257242   0.000000   0.000000
     46          3.645431        3.690081   0.000000   0.000000
     47          4.249340        4.301435   0.000000   0.000000
     48          4.493899        4.541023   0.000000   0.000000
     49          4.692063        4.742295   0.000000   0.000000
     50          4.832489        4.884576   0.000000   0.000000
     51          5.551108        5.628259   0.000000   0.000000
     52          5.960648        6.006606   0.000000   0.000000
     53          6.072798        6.129609   0.000000   0.000000
     54          6.244821        6.306904   0.000000   0.000000
     55          6.585440        6.627566   0.000000   0.000000
 
  0.5000000E+00 -0.1666667E+00  0.2000000E+00  0.1111111E-01
      1        -13.984715      -13.939623   1.000000   1.000000
      2        -13.736957      -13.693513   1.000000   1.000000
      3        -12.963611      -12.912862   1.000000   1.000000
      4        -12.793966      -12.741649   1.000000   1.000000
      5        -11.260308      -11.194025   1.000000   1.000000
      6        -11.214216      -11.147865   1.000000   1.000000
      7        -10.727566      -10.657941   1.000000   1.000000
      8        -10.564849      -10.468032   1.000000   1.000000
      9        -10.182031       -9.575302   1.000000   1.000000
     10        -10.002493       -9.402146   1.000000   1.000000
     11         -7.173104       -7.133618   1.000000   1.000000
     12         -7.107561       -7.066753   1.000000   1.000000
     13         -5.411620       -5.372279   1.000000   1.000000
     14         -5.095832       -5.059623   1.000000   1.000000
     15         -4.810130       -4.742118   1.000000   1.000000
     16         -4.332840       -4.296396   1.000000   1.000000
     17         -3.761314       -3.721859   1.000000   1.000000
     18         -3.557560       -3.510273   1.000000   1.000000
     19         -3.093948       -3.014394   1.000000   1.000000
     20         -3.045059       -2.992624   1.000000   1.000000
     21         -2.757104       -2.649785   1.000000   1.000000
     22         -2.738543       -2.609452   1.000000   1.000000
     23         -2.312613       -2.226014   1.000000   1.000000
     24         -2.111232       -2.041856   1.000000   1.000000
     25         -1.789023       -1.699123   1.000000   1.000000
     26         -1.675160       -1.594627   1.000000   1.000000
     27         -1.242620       -1.156469   1.000000   1.000000
     28         -1.026401       -0.950109   1.000000   1.000000
     29         -0.847851       -0.693415   1.000000   1.000000
     30         -0.664457       -0.607525   1.000000   1.000000
     31         -0.456442       -0.373052   1.000000   1.000000
     32         -0.248482       -0.188230   1.000000   1.000000
     33          0.163817        0.345274   1.000000   1.000000
     34          0.207642        0.380027   1.000000   1.000000
     35          0.434851        0.568843   1.000000   1.000000
     36          0.520801        0.624550   1.000000   1.000000
     37          0.698256        0.924377   1.000000   1.000000
     38          0.742517        1.056750   1.000000   1.000000
     39          0.757018        1.323674   1.000000   1.000000
     40          0.907530        1.390676   1.000000   0.999858
     41          1.221026        1.808377   1.000000   0.000000
     42          1.414537        1.851044   0.998431   0.000000
     43          2.297209        2.410412   0.000000   0.000000
     44          2.315196        2.430103   0.000000   0.000000
     45          3.427774        3.459029   0.000000   0.000000
     46          3.546184        3.571777   0.000000   0.000000
     47          4.149960        4.195302   0.000000   0.000000
     48          4.460926        4.497118   0.000000   0.000000
     49          4.715928        4.755416   0.000000   0.000000
     50          4.894264        4.934346   0.000000   0.000000
     51          5.698343        5.764155   0.000000   0.000000
     52          6.080452        6.117071   0.000000   0.000000
     53          6.292827        6.340378   0.000000   0.000000
     54          6.538472        6.612096   0.000000   0.000000
     55          6.633485        6.670847   0.000000   0.000000
 
  0.1666667E+00  0.5000000E+00  0.2000000E+00  0.1111111E-01
      1        -13.997898      -13.950453   1.000000   1.000000
      2        -13.745260      -13.699877   1.000000   1.000000
      3        -12.948485      -12.903240   1.000000   1.000000
      4        -12.789363      -12.742109   1.000000   1.000000
      5        -11.254647      -11.186731   1.000000   1.000000
      6        -11.172341      -11.100644   1.000000   1.000000
      7        -10.715008      -10.660467   1.000000   1.000000
      8        -10.499465      -10.427876   1.000000   1.000000
      9        -10.186429       -9.560757   1.000000   1.000000
     10        -10.085847       -9.453877   1.000000   1.000000
     11         -7.325879       -7.289925   1.000000   1.000000
     12         -7.212530       -7.176259   1.000000   1.000000
     13         -5.315375       -5.274570   1.000000   1.000000
     14         -5.098870       -5.051641   1.000000   1.000000
     15         -4.843949       -4.803996   1.000000   1.000000
     16         -4.319992       -4.290867   1.000000   1.000000
     17         -3.706787       -3.647019   1.000000   1.000000
     18         -3.503196       -3.456544   1.000000   1.000000
     19         -3.104158       -3.044555   1.000000   1.000000
     20         -2.959170       -2.912488   1.000000   1.000000
     21         -2.769097       -2.712178   1.000000   1.000000
     22         -2.376183       -2.299848   1.000000   1.000000
     23         -2.244327       -2.145731   1.000000   1.000000
     24         -2.047077       -1.985341   1.000000   1.000000
     25         -1.783864       -1.689560   1.000000   1.000000
     26         -1.658282       -1.545707   1.000000   1.000000
     27         -1.301297       -1.225712   1.000000   1.000000
     28         -1.033423       -0.972844   1.000000   1.000000
     29         -0.768134       -0.680371   1.000000   1.000000
     30         -0.651399       -0.572594   1.000000   1.000000
     31         -0.583334       -0.421762   1.000000   1.000000
     32         -0.410633       -0.212147   1.000000   1.000000
     33         -0.019432        0.237216   1.000000   1.000000
     34          0.221929        0.479377   1.000000   1.000000
     35          0.363167        0.583753   1.000000   1.000000
     36          0.425122        0.794894   1.000000   1.000000
     37          0.620875        0.880524   1.000000   1.000000
     38          0.716993        1.035874   1.000000   1.000000
     39          0.843832        1.078990   1.000000   1.000000
     40          0.952602        1.342679   1.000000   1.000000
     41          1.171779        1.575674   1.000000   0.054385
     42          1.312320        1.707777   1.000000   0.000000
     43          2.345576        2.410745   0.000000   0.000000
     44          2.413053        2.496372   0.000000   0.000000
     45          3.201719        3.257242   0.000000   0.000000
     46          3.645431        3.690081   0.000000   0.000000
     47          4.249340        4.301435   0.000000   0.000000
     48          4.493899        4.541023   0.000000   0.000000
     49          4.692064        4.742295   0.000000   0.000000
     50          4.832489        4.884576   0.000000   0.000000
     51          5.551108        5.628259   0.000000   0.000000
     52          5.960648        6.006606   0.000000   0.000000
     53          6.072797        6.129609   0.000000   0.000000
     54          6.244823        6.306963   0.000000   0.000000
     55          6.584338        6.669120   0.000000   0.000000
 
  0.3333333E+00  0.3333333E+00  0.2000000E+00  0.1111111E-01
      1        -13.988204      -13.942284   1.000000   1.000000
      2        -13.739015      -13.694882   1.000000   1.000000
      3        -12.950920      -12.903117   1.000000   1.000000
      4        -12.786355      -12.736687   1.000000   1.000000
      5        -11.275693      -11.207440   1.000000   1.000000
      6        -11.199363      -11.127755   1.000000   1.000000
      7        -10.757709      -10.690569   1.000000   1.000000
      8        -10.557021      -10.461129   1.000000   1.000000
      9        -10.172879       -9.565332   1.000000   1.000000
     10        -10.020169       -9.415143   1.000000   1.000000
     11         -7.206963       -7.169218   1.000000   1.000000
     12         -7.072769       -7.035462   1.000000   1.000000
     13         -5.431522       -5.393960   1.000000   1.000000
     14         -5.122872       -5.079863   1.000000   1.000000
     15         -4.823253       -4.765619   1.000000   1.000000
     16         -4.313688       -4.282366   1.000000   1.000000
     17         -3.785333       -3.737640   1.000000   1.000000
     18         -3.572072       -3.528330   1.000000   1.000000
     19         -3.084749       -3.011671   1.000000   1.000000
     20         -2.988037       -2.936802   1.000000   1.000000
     21         -2.697361       -2.631455   1.000000   1.000000
     22         -2.401534       -2.315816   1.000000   1.000000
     23         -2.323447       -2.193772   1.000000   1.000000
     24         -2.193444       -2.124322   1.000000   1.000000
     25         -1.806293       -1.700248   1.000000   1.000000
     26         -1.581361       -1.500959   1.000000   1.000000
     27         -1.330690       -1.240864   1.000000   1.000000
     28         -1.118330       -1.047532   1.000000   1.000000
     29         -0.740979       -0.641499   1.000000   1.000000
     30         -0.572923       -0.482796   1.000000   1.000000
     31         -0.452424       -0.357702   1.000000   1.000000
     32         -0.299710       -0.157242   1.000000   1.000000
     33         -0.060893        0.173733   1.000000   1.000000
     34          0.174223        0.324348   1.000000   1.000000
     35          0.363381        0.581479   1.000000   1.000000
     36          0.449563        0.740034   1.000000   1.000000
     37          0.622256        0.875533   1.000000   1.000000
     38          0.721940        1.005062   1.000000   1.000000
     39          0.796792        1.154247   1.000000   1.000000
     40          0.918358        1.414203   1.000000   0.998478
     41          1.220238        1.634985   1.000000   0.000517
     42          1.370897        1.801180   0.999986   0.000000
     43          2.298423        2.407996   0.000000   0.000000
     44          2.376218        2.480106   0.000000   0.000000
     45          3.369859        3.396873   0.000000   0.000000
     46          3.559210        3.607442   0.000000   0.000000
     47          3.986392        4.025113   0.000000   0.000000
     48          4.353428        4.398531   0.000000   0.000000
     49          4.716961        4.764064   0.000000   0.000000
     50          4.926537        4.973247   0.000000   0.000000
     51          5.714150        5.779008   0.000000   0.000000
     52          6.126918        6.203951   0.000000   0.000000
     53          6.217169        6.269059   0.000000   0.000000
     54          6.499414        6.550457   0.000000   0.000000
     55          6.625824        6.666517   0.000000   0.000000
 
 -0.3333333E+00  0.3333333E+00  0.2000000E+00  0.1111111E-01
      1        -13.988204      -13.942284   1.000000   1.000000
      2        -13.739015      -13.694882   1.000000   1.000000
      3        -12.950921      -12.903117   1.000000   1.000000
      4        -12.786355      -12.736687   1.000000   1.000000
      5        -11.275693      -11.207441   1.000000   1.000000
      6        -11.199363      -11.127754   1.000000   1.000000
      7        -10.757709      -10.690569   1.000000   1.000000
      8        -10.557022      -10.461130   1.000000   1.000000
      9        -10.172879       -9.565332   1.000000   1.000000
     10        -10.020169       -9.415143   1.000000   1.000000
     11         -7.206964       -7.169218   1.000000   1.000000
     12         -7.072769       -7.035461   1.000000   1.000000
     13         -5.431522       -5.393960   1.000000   1.000000
     14         -5.122871       -5.079863   1.000000   1.000000
     15         -4.823253       -4.765619   1.000000   1.000000
     16         -4.313688       -4.282366   1.000000   1.000000
     17         -3.785333       -3.737641   1.000000   1.000000
     18         -3.572072       -3.528330   1.000000   1.000000
     19         -3.084749       -3.011672   1.000000   1.000000
     20         -2.988037       -2.936802   1.000000   1.000000
     21         -2.697361       -2.631455   1.000000   1.000000
     22         -2.401534       -2.315816   1.000000   1.000000
     23         -2.323447       -2.193772   1.000000   1.000000
     24         -2.193444       -2.124323   1.000000   1.000000
     25         -1.806293       -1.700249   1.000000   1.000000
     26         -1.581360       -1.500959   1.000000   1.000000
     27         -1.330690       -1.240864   1.000000   1.000000
     28         -1.118330       -1.047532   1.000000   1.000000
     29         -0.740980       -0.641499   1.000000   1.000000
     30         -0.572923       -0.482796   1.000000   1.000000
     31         -0.452424       -0.357702   1.000000   1.000000
     32         -0.299710       -0.157242   1.000000   1.000000
     33         -0.060893        0.173733   1.000000   1.000000
     34          0.174223        0.324348   1.000000   1.000000
     35          0.363381        0.581479   1.000000   1.000000
     36          0.449563        0.740034   1.000000   1.000000
     37          0.622256        0.875533   1.000000   1.000000
     38          0.721940        1.005063   1.000000   1.000000
     39          0.796793        1.154247   1.000000   1.000000
     40          0.918357        1.414203   1.000000   0.998478
     41          1.220238        1.634985   1.000000   0.000517
     42          1.370897        1.801180   0.999986   0.000000
     43          2.298423        2.407997   0.000000   0.000000
     44          2.376218        2.480106   0.000000   0.000000
     45          3.369859        3.396873   0.000000   0.000000
     46          3.559210        3.607442   0.000000   0.000000
     47          3.986392        4.025113   0.000000   0.000000
     48          4.353428        4.398531   0.000000   0.000000
     49          4.716960        4.764064   0.000000   0.000000
     50          4.926538        4.973247   0.000000   0.000000
     51          5.714150        5.779008   0.000000   0.000000
     52          6.126918        6.203951   0.000000   0.000000
     53          6.217170        6.269059   0.000000   0.000000
     54          6.499416        6.550440   0.000000   0.000000
     55          6.626039        6.666224   0.000000   0.000000
 
 -0.3333333E+00 -0.3333333E+00  0.2000000E+00  0.1111111E-01
      1        -13.988040      -13.942124   1.000000   1.000000
      2        -13.739251      -13.695111   1.000000   1.000000
      3        -12.951188      -12.903368   1.000000   1.000000
      4        -12.785864      -12.736218   1.000000   1.000000
      5        -11.278856      -11.210430   1.000000   1.000000
      6        -11.196582      -11.125146   1.000000   1.000000
      7        -10.757180      -10.691301   1.000000   1.000000
      8        -10.556696      -10.459548   1.000000   1.000000
      9        -10.176794       -9.568038   1.000000   1.000000
     10        -10.016465       -9.412659   1.000000   1.000000
     11         -7.210988       -7.173647   1.000000   1.000000
     12         -7.067831       -7.030064   1.000000   1.000000
     13         -5.421546       -5.383040   1.000000   1.000000
     14         -5.141790       -5.102128   1.000000   1.000000
     15         -4.846323       -4.786940   1.000000   1.000000
     16         -4.294855       -4.261962   1.000000   1.000000
     17         -3.753771       -3.706445   1.000000   1.000000
     18         -3.548165       -3.503788   1.000000   1.000000
     19         -3.071521       -3.010330   1.000000   1.000000
     20         -3.015521       -2.970363   1.000000   1.000000
     21         -2.768589       -2.677513   1.000000   1.000000
     22         -2.499044       -2.389467   1.000000   1.000000
     23         -2.314036       -2.236672   1.000000   1.000000
     24         -1.985152       -1.907027   1.000000   1.000000
     25         -1.812933       -1.710616   1.000000   1.000000
     26         -1.573064       -1.459167   1.000000   1.000000
     27         -1.335823       -1.265256   1.000000   1.000000
     28         -1.163860       -1.086667   1.000000   1.000000
     29         -0.783210       -0.682487   1.000000   1.000000
     30         -0.575694       -0.485517   1.000000   1.000000
     31         -0.467665       -0.356167   1.000000   1.000000
     32         -0.282010       -0.169533   1.000000   1.000000
     33         -0.079629        0.137253   1.000000   1.000000
     34          0.209722        0.426366   1.000000   1.000000
     35          0.365777        0.491042   1.000000   1.000000
     36          0.459855        0.646425   1.000000   1.000000
     37          0.555940        0.920893   1.000000   1.000000
     38          0.701201        1.096927   1.000000   1.000000
     39          0.784841        1.176546   1.000000   1.000000
     40          0.971150        1.349900   1.000000   0.999999
     41          1.209495        1.672439   1.000000   0.000007
     42          1.375927        1.774515   0.999974   0.000000
     43          2.314703        2.431450   0.000000   0.000000
     44          2.418320        2.511669   0.000000   0.000000
     45          3.369496        3.398796   0.000000   0.000000
     46          3.583418        3.627169   0.000000   0.000000
     47          3.913116        3.951407   0.000000   0.000000
     48          4.418927        4.462029   0.000000   0.000000
     49          4.674576        4.726662   0.000000   0.000000
     50          4.922885        4.969075   0.000000   0.000000
     51          5.809617        5.887004   0.000000   0.000000
     52          6.066117        6.131111   0.000000   0.000000
     53          6.287712        6.338808   0.000000   0.000000
     54          6.464763        6.505008   0.000000   0.000000
     55          6.602116        6.647036   0.000000   0.000000
 
  0.3333333E+00 -0.3333333E+00  0.2000000E+00  0.1111111E-01
      1        -13.988040      -13.942124   1.000000   1.000000
      2        -13.739251      -13.695111   1.000000   1.000000
      3        -12.951188      -12.903368   1.000000   1.000000
      4        -12.785864      -12.736218   1.000000   1.000000
      5        -11.278856      -11.210430   1.000000   1.000000
      6        -11.196582      -11.125146   1.000000   1.000000
      7        -10.757180      -10.691302   1.000000   1.000000
      8        -10.556697      -10.459548   1.000000   1.000000
      9        -10.176794       -9.568038   1.000000   1.000000
     10        -10.016465       -9.412659   1.000000   1.000000
     11         -7.210989       -7.173647   1.000000   1.000000
     12         -7.067831       -7.030064   1.000000   1.000000
     13         -5.421546       -5.383040   1.000000   1.000000
     14         -5.141789       -5.102128   1.000000   1.000000
     15         -4.846323       -4.786940   1.000000   1.000000
     16         -4.294855       -4.261962   1.000000   1.000000
     17         -3.753771       -3.706446   1.000000   1.000000
     18         -3.548165       -3.503788   1.000000   1.000000
     19         -3.071521       -3.010330   1.000000   1.000000
     20         -3.015521       -2.970363   1.000000   1.000000
     21         -2.768588       -2.677512   1.000000   1.000000
     22         -2.499044       -2.389468   1.000000   1.000000
     23         -2.314036       -2.236673   1.000000   1.000000
     24         -1.985152       -1.907027   1.000000   1.000000
     25         -1.812934       -1.710617   1.000000   1.000000
     26         -1.573064       -1.459166   1.000000   1.000000
     27         -1.335823       -1.265256   1.000000   1.000000
     28         -1.163860       -1.086667   1.000000   1.000000
     29         -0.783211       -0.682487   1.000000   1.000000
     30         -0.575694       -0.485517   1.000000   1.000000
     31         -0.467665       -0.356167   1.000000   1.000000
     32         -0.282010       -0.169533   1.000000   1.000000
     33         -0.079629        0.137253   1.000000   1.000000
     34          0.209722        0.426366   1.000000   1.000000
     35          0.365777        0.491042   1.000000   1.000000
     36          0.459854        0.646425   1.000000   1.000000
     37          0.555940        0.920893   1.000000   1.000000
     38          0.701201        1.096927   1.000000   1.000000
     39          0.784842        1.176547   1.000000   1.000000
     40          0.971150        1.349900   1.000000   0.999999
     41          1.209495        1.672439   1.000000   0.000007
     42          1.375927        1.774515   0.999974   0.000000
     43          2.314703        2.431450   0.000000   0.000000
     44          2.418320        2.511669   0.000000   0.000000
     45          3.369496        3.398796   0.000000   0.000000
     46          3.583418        3.627169   0.000000   0.000000
     47          3.913116        3.951406   0.000000   0.000000
     48          4.418927        4.462029   0.000000   0.000000
     49          4.674576        4.726661   0.000000   0.000000
     50          4.922885        4.969075   0.000000   0.000000
     51          5.809617        5.887003   0.000000   0.000000
     52          6.066117        6.131111   0.000000   0.000000
     53          6.287704        6.338808   0.000000   0.000000
     54          6.464582        6.504991   0.000000   0.000000
     55          6.596359        6.647046   0.000000   0.000000
 
  0.5000000E+00  0.3333333E+00  0.2000000E+00  0.1111111E-01
      1        -13.980828      -13.935788   1.000000   1.000000
      2        -13.734377      -13.690946   1.000000   1.000000
      3        -12.954559      -12.905524   1.000000   1.000000
      4        -12.785461      -12.734767   1.000000   1.000000
      5        -11.289386      -11.221383   1.000000   1.000000
      6        -11.216007      -11.144681   1.000000   1.000000
      7        -10.777264      -10.702357   1.000000   1.000000
      8        -10.580704      -10.474829   1.000000   1.000000
      9        -10.167909       -9.568380   1.000000   1.000000
     10         -9.990771       -9.398493   1.000000   1.000000
     11         -7.121512       -7.083664   1.000000   1.000000
     12         -7.042242       -7.003744   1.000000   1.000000
     13         -5.445867       -5.406797   1.000000   1.000000
     14         -5.161839       -5.122710   1.000000   1.000000
     15         -4.790391       -4.725760   1.000000   1.000000
     16         -4.306038       -4.273484   1.000000   1.000000
     17         -3.842006       -3.798502   1.000000   1.000000
     18         -3.576472       -3.534521   1.000000   1.000000
     19         -3.042912       -2.979641   1.000000   1.000000
     20         -3.011554       -2.942602   1.000000   1.000000
     21         -2.766152       -2.702805   1.000000   1.000000
     22         -2.408637       -2.294111   1.000000   1.000000
     23         -2.192394       -2.101660   1.000000   1.000000
     24         -2.164927       -2.094680   1.000000   1.000000
     25         -1.967017       -1.842301   1.000000   1.000000
     26         -1.518166       -1.421469   1.000000   1.000000
     27         -1.334019       -1.257658   1.000000   1.000000
     28         -1.202494       -1.130435   1.000000   1.000000
     29         -0.661288       -0.567012   1.000000   1.000000
     30         -0.626494       -0.553326   1.000000   1.000000
     31         -0.374040       -0.295932   1.000000   1.000000
     32         -0.338997       -0.170257   1.000000   1.000000
     33         -0.036456        0.203391   1.000000   1.000000
     34          0.099452        0.235919   1.000000   1.000000
     35          0.406239        0.622762   1.000000   1.000000
     36          0.428306        0.644002   1.000000   1.000000
     37          0.600397        0.851532   1.000000   1.000000
     38          0.744416        0.966385   1.000000   1.000000
     39          0.790812        1.238406   1.000000   1.000000
     40          0.847330        1.434202   1.000000   0.991750
     41          1.231104        1.617035   1.000000   0.002772
     42          1.400494        1.819169   0.999598   0.000000
     43          2.305551        2.424962   0.000000   0.000000
     44          2.315480        2.428783   0.000000   0.000000
     45          3.437581        3.467150   0.000000   0.000000
     46          3.510009        3.545970   0.000000   0.000000
     47          3.940722        3.976944   0.000000   0.000000
     48          4.231174        4.264857   0.000000   0.000000
     49          4.724793        4.774647   0.000000   0.000000
     50          4.958929        5.001464   0.000000   0.000000
     51          5.879687        5.943054   0.000000   0.000000
     52          6.257294        6.300878   0.000000   0.000000
     53          6.335134        6.427657   0.000000   0.000000
     54          6.537301        6.613808   0.000000   0.000000
     55          6.763309        6.780069   0.000000   0.000000
 
 -0.3333333E+00  0.5000000E+00  0.2000000E+00  0.1111111E-01
      1        -13.985230      -13.939383   1.000000   1.000000
      2        -13.737302      -13.693205   1.000000   1.000000
      3        -12.949464      -12.902341   1.000000   1.000000
      4        -12.783496      -12.734553   1.000000   1.000000
      5        -11.292298      -11.222975   1.000000   1.000000
      6        -11.199977      -11.126202   1.000000   1.000000
      7        -10.770332      -10.703025   1.000000   1.000000
      8        -10.559835      -10.459780   1.000000   1.000000
      9        -10.173783       -9.567522   1.000000   1.000000
     10        -10.014338       -9.413568   1.000000   1.000000
     11         -7.181916       -7.145581   1.000000   1.000000
     12         -7.069810       -7.031992   1.000000   1.000000
     13         -5.408916       -5.370528   1.000000   1.000000
     14         -5.162723       -5.121882   1.000000   1.000000
     15         -4.838439       -4.780605   1.000000   1.000000
     16         -4.291393       -4.260617   1.000000   1.000000
     17         -3.775339       -3.726463   1.000000   1.000000
     18         -3.528235       -3.484676   1.000000   1.000000
     19         -3.097983       -3.030231   1.000000   1.000000
     20         -3.024225       -2.984462   1.000000   1.000000
     21         -2.685979       -2.616944   1.000000   1.000000
     22         -2.359302       -2.282042   1.000000   1.000000
     23         -2.273147       -2.185422   1.000000   1.000000
     24         -2.049809       -1.965004   1.000000   1.000000
     25         -1.777705       -1.656836   1.000000   1.000000
     26         -1.588851       -1.463833   1.000000   1.000000
     27         -1.365393       -1.293430   1.000000   1.000000
     28         -1.235641       -1.182209   1.000000   1.000000
     29         -0.705765       -0.621429   1.000000   1.000000
     30         -0.600452       -0.467752   1.000000   1.000000
     31         -0.445899       -0.377490   1.000000   1.000000
     32         -0.383068       -0.173214   1.000000   1.000000
     33         -0.106436        0.115853   1.000000   1.000000
     34          0.229434        0.357174   1.000000   1.000000
     35          0.290414        0.520956   1.000000   1.000000
     36          0.377504        0.663052   1.000000   1.000000
     37          0.554139        0.885137   1.000000   1.000000
     38          0.708238        1.077238   1.000000   1.000000
     39          0.795902        1.108386   1.000000   1.000000
     40          0.963600        1.382545   1.000000   0.999943
     41          1.189807        1.572424   1.000000   0.065288
     42          1.358937        1.742541   0.999997   0.000000
     43          2.312715        2.400560   0.000000   0.000000
     44          2.378735        2.505654   0.000000   0.000000
     45          3.342322        3.370312   0.000000   0.000000
     46          3.594372        3.640313   0.000000   0.000000
     47          3.984437        4.027757   0.000000   0.000000
     48          4.261121        4.297755   0.000000   0.000000
     49          4.702892        4.756286   0.000000   0.000000
     50          4.900932        4.949832   0.000000   0.000000
     51          5.869740        5.963358   0.000000   0.000000
     52          6.213731        6.269624   0.000000   0.000000
     53          6.291176        6.332306   0.000000   0.000000
     54          6.525908        6.578764   0.000000   0.000000
     55          6.581911        6.634507   0.000000   0.000000
 
  0.5000000E+00 -0.3333333E+00  0.2000000E+00  0.1111111E-01
      1        -13.980702      -13.935668   1.000000   1.000000
      2        -13.734570      -13.691128   1.000000   1.000000
      3        -12.954783      -12.905734   1.000000   1.000000
      4        -12.784979      -12.734301   1.000000   1.000000
      5        -11.293230      -11.225111   1.000000   1.000000
      6        -11.212847      -11.141575   1.000000   1.000000
      7        -10.775736      -10.702746   1.000000   1.000000
      8        -10.580879      -10.473335   1.000000   1.000000
      9        -10.173432       -9.572312   1.000000   1.000000
     10         -9.985703       -9.394837   1.000000   1.000000
     11         -7.125769       -7.088437   1.000000   1.000000
     12         -7.034733       -6.995609   1.000000   1.000000
     13         -5.437832       -5.398320   1.000000   1.000000
     14         -5.195343       -5.159495   1.000000   1.000000
     15         -4.806534       -4.738418   1.000000   1.000000
     16         -4.289520       -4.256126   1.000000   1.000000
     17         -3.793057       -3.752201   1.000000   1.000000
     18         -3.550510       -3.505564   1.000000   1.000000
     19         -3.092395       -3.062506   1.000000   1.000000
     20         -3.038786       -2.954308   1.000000   1.000000
     21         -2.622626       -2.540464   1.000000   1.000000
     22         -2.620962       -2.502780   1.000000   1.000000
     23         -2.191671       -2.112953   1.000000   1.000000
     24         -2.110001       -2.030937   1.000000   1.000000
     25         -1.772708       -1.668474   1.000000   1.000000
     26         -1.678059       -1.575733   1.000000   1.000000
     27         -1.299350       -1.210643   1.000000   1.000000
     28         -1.180222       -1.103041   1.000000   1.000000
     29         -0.780458       -0.657870   1.000000   1.000000
     30         -0.577857       -0.516087   1.000000   1.000000
     31         -0.422114       -0.337376   1.000000   1.000000
     32         -0.256521       -0.140597   1.000000   1.000000
     33         -0.052904        0.157468   1.000000   1.000000
     34          0.131533        0.336767   1.000000   1.000000
     35          0.331685        0.472381   1.000000   1.000000
     36          0.403623        0.591156   1.000000   1.000000
     37          0.625329        0.909510   1.000000   1.000000
     38          0.684118        1.039895   1.000000   1.000000
     39          0.749368        1.267838   1.000000   1.000000
     40          0.963381        1.375067   1.000000   0.999977
     41          1.204876        1.661587   1.000000   0.000027
     42          1.408606        1.774866   0.999101   0.000000
     43          2.321814        2.444287   0.000000   0.000000
     44          2.355353        2.479890   0.000000   0.000000
     45          3.423243        3.448189   0.000000   0.000000
     46          3.531178        3.560861   0.000000   0.000000
     47          3.937191        3.976083   0.000000   0.000000
     48          4.241036        4.270904   0.000000   0.000000
     49          4.726684        4.777710   0.000000   0.000000
     50          4.925176        4.972706   0.000000   0.000000
     51          5.989688        6.081018   0.000000   0.000000
     52          6.348379        6.411133   0.000000   0.000000
     53          6.402856        6.435238   0.000000   0.000000
     54          6.534420        6.579199   0.000000   0.000000
     55          6.658343        6.678754   0.000000   0.000000
 
  0.3333333E+00  0.5000000E+00  0.2000000E+00  0.1111111E-01
      1        -13.985230      -13.939383   1.000000   1.000000
      2        -13.737302      -13.693205   1.000000   1.000000
      3        -12.949464      -12.902341   1.000000   1.000000
      4        -12.783496      -12.734553   1.000000   1.000000
      5        -11.292298      -11.222975   1.000000   1.000000
      6        -11.199977      -11.126202   1.000000   1.000000
      7        -10.770332      -10.703025   1.000000   1.000000
      8        -10.559835      -10.459780   1.000000   1.000000
      9        -10.173783       -9.567522   1.000000   1.000000
     10        -10.014338       -9.413568   1.000000   1.000000
     11         -7.181916       -7.145581   1.000000   1.000000
     12         -7.069810       -7.031992   1.000000   1.000000
     13         -5.408916       -5.370528   1.000000   1.000000
     14         -5.162723       -5.121883   1.000000   1.000000
     15         -4.838439       -4.780605   1.000000   1.000000
     16         -4.291393       -4.260617   1.000000   1.000000
     17         -3.775339       -3.726463   1.000000   1.000000
     18         -3.528235       -3.484676   1.000000   1.000000
     19         -3.097983       -3.030231   1.000000   1.000000
     20         -3.024225       -2.984462   1.000000   1.000000
     21         -2.685979       -2.616944   1.000000   1.000000
     22         -2.359302       -2.282042   1.000000   1.000000
     23         -2.273147       -2.185422   1.000000   1.000000
     24         -2.049809       -1.965004   1.000000   1.000000
     25         -1.777705       -1.656836   1.000000   1.000000
     26         -1.588851       -1.463833   1.000000   1.000000
     27         -1.365393       -1.293430   1.000000   1.000000
     28         -1.235641       -1.182208   1.000000   1.000000
     29         -0.705765       -0.621428   1.000000   1.000000
     30         -0.600452       -0.467752   1.000000   1.000000
     31         -0.445899       -0.377491   1.000000   1.000000
     32         -0.383068       -0.173214   1.000000   1.000000
     33         -0.106436        0.115853   1.000000   1.000000
     34          0.229433        0.357175   1.000000   1.000000
     35          0.290414        0.520955   1.000000   1.000000
     36          0.377504        0.663053   1.000000   1.000000
     37          0.554140        0.885137   1.000000   1.000000
     38          0.708238        1.077238   1.000000   1.000000
     39          0.795902        1.108386   1.000000   1.000000
     40          0.963600        1.382545   1.000000   0.999943
     41          1.189807        1.572424   1.000000   0.065288
     42          1.358937        1.742541   0.999997   0.000000
     43          2.312715        2.400560   0.000000   0.000000
     44          2.378735        2.505654   0.000000   0.000000
     45          3.342322        3.370312   0.000000   0.000000
     46          3.594372        3.640313   0.000000   0.000000
     47          3.984437        4.027757   0.000000   0.000000
     48          4.261121        4.297755   0.000000   0.000000
     49          4.702892        4.756285   0.000000   0.000000
     50          4.900932        4.949832   0.000000   0.000000
     51          5.869740        5.963358   0.000000   0.000000
     52          6.213730        6.269624   0.000000   0.000000
     53          6.291175        6.332305   0.000000   0.000000
     54          6.525882        6.578819   0.000000   0.000000
     55          6.581632        6.634517   0.000000   0.000000
 
  0.5000000E+00  0.5000000E+00  0.2000000E+00  0.1111111E-01
      1        -13.978755      -13.933747   1.000000   1.000000
      2        -13.733277      -13.689842   1.000000   1.000000
      3        -12.950209      -12.902040   1.000000   1.000000
      4        -12.780656      -12.730814   1.000000   1.000000
      5        -11.307518      -11.238538   1.000000   1.000000
      6        -11.213570      -11.139471   1.000000   1.000000
      7        -10.799694      -10.725033   1.000000   1.000000
      8        -10.588810      -10.476985   1.000000   1.000000
      9        -10.167413       -9.569294   1.000000   1.000000
     10         -9.980144       -9.393067   1.000000   1.000000
     11         -7.099116       -7.062593   1.000000   1.000000
     12         -7.000109       -6.962101   1.000000   1.000000
     13         -5.456086       -5.416693   1.000000   1.000000
     14         -5.230206       -5.193079   1.000000   1.000000
     15         -4.796849       -4.730204   1.000000   1.000000
     16         -4.276609       -4.245102   1.000000   1.000000
     17         -3.833927       -3.790849   1.000000   1.000000
     18         -3.560230       -3.517583   1.000000   1.000000
     19         -3.074474       -3.044065   1.000000   1.000000
     20         -3.031860       -2.946777   1.000000   1.000000
     21         -2.610290       -2.545980   1.000000   1.000000
     22         -2.400758       -2.325588   1.000000   1.000000
     23         -2.204239       -2.104106   1.000000   1.000000
     24         -2.115563       -2.042500   1.000000   1.000000
     25         -1.820332       -1.679159   1.000000   1.000000
     26         -1.553782       -1.423907   1.000000   1.000000
     27         -1.366014       -1.300349   1.000000   1.000000
     28         -1.342348       -1.270260   1.000000   1.000000
     29         -0.652241       -0.569633   1.000000   1.000000
     30         -0.578333       -0.497725   1.000000   1.000000
     31         -0.367954       -0.260515   1.000000   1.000000
     32         -0.326656       -0.150935   1.000000   1.000000
     33         -0.165547        0.059796   1.000000   1.000000
     34          0.118981        0.233156   1.000000   1.000000
     35          0.281242        0.504215   1.000000   1.000000
     36          0.300184        0.545514   1.000000   1.000000
     37          0.574871        0.883687   1.000000   1.000000
     38          0.713783        1.057621   1.000000   1.000000
     39          0.782778        1.183887   1.000000   1.000000
     40          0.960340        1.408587   1.000000   0.999102
     41          1.190769        1.600153   1.000000   0.010834
     42          1.423806        1.783452   0.996446   0.000000
     43          2.349652        2.467838   0.000000   0.000000
     44          2.373486        2.494676   0.000000   0.000000
     45          3.421463        3.441840   0.000000   0.000000
     46          3.511810        3.545131   0.000000   0.000000
     47          3.810222        3.845432   0.000000   0.000000
     48          4.125626        4.156485   0.000000   0.000000
     49          4.744839        4.798904   0.000000   0.000000
     50          4.948705        4.996261   0.000000   0.000000
     51          6.052067        6.143981   0.000000   0.000000
     52          6.364512        6.433197   0.000000   0.000000
     53          6.397088        6.460920   0.000000   0.000000
     54          6.572746        6.631914   0.000000   0.000000
     55          6.697091        6.735211   0.000000   0.000000
 
  0.0000000E+00  0.0000000E+00  0.4000000E+00  0.1111111E-01
      1        -13.950434      -13.902162   1.000000   1.000000
      2        -13.851208      -13.803794   1.000000   1.000000
      3        -12.877727      -12.831937   1.000000   1.000000
      4        -12.824657      -12.777814   1.000000   1.000000
      5        -11.164658      -11.096509   1.000000   1.000000
      6        -11.142362      -11.074439   1.000000   1.000000
      7        -10.672715      -10.624656   1.000000   1.000000
      8        -10.583378      -10.533175   1.000000   1.000000
      9        -10.148572       -9.504561   1.000000   1.000000
     10        -10.124571       -9.477075   1.000000   1.000000
     11         -7.232572       -7.196869   1.000000   1.000000
     12         -7.194305       -7.158782   1.000000   1.000000
     13         -5.441922       -5.405623   1.000000   1.000000
     14         -5.387389       -5.350097   1.000000   1.000000
     15         -4.712270       -4.667126   1.000000   1.000000
     16         -4.499632       -4.462373   1.000000   1.000000
     17         -3.606905       -3.554014   1.000000   1.000000
     18         -3.514946       -3.459225   1.000000   1.000000
     19         -3.152610       -3.084692   1.000000   1.000000
     20         -2.976317       -2.902171   1.000000   1.000000
     21         -2.765448       -2.709651   1.000000   1.000000
     22         -2.534179       -2.466247   1.000000   1.000000
     23         -2.464369       -2.325272   1.000000   1.000000
     24         -2.437446       -2.311818   1.000000   1.000000
     25         -1.708058       -1.610597   1.000000   1.000000
     26         -1.673307       -1.589106   1.000000   1.000000
     27         -1.088971       -0.992730   1.000000   1.000000
     28         -1.054363       -0.948462   1.000000   1.000000
     29         -0.667736       -0.630469   1.000000   1.000000
     30         -0.550769       -0.484540   1.000000   1.000000
     31         -0.470593       -0.306804   1.000000   1.000000
     32         -0.413292       -0.237014   1.000000   1.000000
     33          0.276437        0.385602   1.000000   1.000000
     34          0.326174        0.441143   1.000000   1.000000
     35          0.658117        0.761580   1.000000   1.000000
     36          0.746393        0.922853   1.000000   1.000000
     37          0.756813        1.064476   1.000000   1.000000
     38          0.849972        1.207847   1.000000   1.000000
     39          0.993704        1.307875   1.000000   1.000000
     40          1.017749        1.309756   1.000000   1.000000
     41          1.174791        1.916784   1.000000   0.000000
     42          1.326830        1.967511   1.000000   0.000000
     43          2.576375        2.638169   0.000000   0.000000
     44          2.596469        2.654886   0.000000   0.000000
     45          3.398068        3.430402   0.000000   0.000000
     46          3.508354        3.537942   0.000000   0.000000
     47          3.926161        3.968078   0.000000   0.000000
     48          3.942752        3.989051   0.000000   0.000000
     49          4.438328        4.491541   0.000000   0.000000
     50          4.612029        4.668057   0.000000   0.000000
     51          5.500230        5.582255   0.000000   0.000000
     52          5.645146        5.706916   0.000000   0.000000
     53          6.368873        6.405049   0.000000   0.000000
     54          6.455710        6.492963   0.000000   0.000000
     55          6.651143        6.673966   0.000000   0.000000
 
  0.1666667E+00  0.0000000E+00  0.4000000E+00  0.1111111E-01
      1        -13.941964      -13.894528   1.000000   1.000000
      2        -13.843808      -13.797186   1.000000   1.000000
      3        -12.887277      -12.840020   1.000000   1.000000
      4        -12.831383      -12.783164   1.000000   1.000000
      5        -11.181460      -11.114363   1.000000   1.000000
      6        -11.161032      -11.094222   1.000000   1.000000
      7        -10.670015      -10.613882   1.000000   1.000000
      8        -10.592035      -10.530301   1.000000   1.000000
      9        -10.141311       -9.508079   1.000000   1.000000
     10        -10.104714       -9.468953   1.000000   1.000000
     11         -7.223524       -7.187283   1.000000   1.000000
     12         -7.187233       -7.150842   1.000000   1.000000
     13         -5.392558       -5.354713   1.000000   1.000000
     14         -5.315164       -5.275529   1.000000   1.000000
     15         -4.714158       -4.666903   1.000000   1.000000
     16         -4.509010       -4.469992   1.000000   1.000000
     17         -3.666268       -3.617964   1.000000   1.000000
     18         -3.601729       -3.551226   1.000000   1.000000
     19         -3.086016       -2.994305   1.000000   1.000000
     20         -2.940241       -2.855837   1.000000   1.000000
     21         -2.771439       -2.704947   1.000000   1.000000
     22         -2.556481       -2.480745   1.000000   1.000000
     23         -2.465174       -2.372193   1.000000   1.000000
     24         -2.402524       -2.299942   1.000000   1.000000
     25         -1.741417       -1.634467   1.000000   1.000000
     26         -1.655545       -1.557007   1.000000   1.000000
     27         -1.184511       -1.080939   1.000000   1.000000
     28         -1.087680       -0.990636   1.000000   1.000000
     29         -0.635975       -0.584552   1.000000   1.000000
     30         -0.542038       -0.487295   1.000000   1.000000
     31         -0.427272       -0.260411   1.000000   1.000000
     32         -0.339437       -0.192839   1.000000   1.000000
     33          0.148869        0.262761   1.000000   1.000000
     34          0.249970        0.360680   1.000000   1.000000
     35          0.662584        0.790097   1.000000   1.000000
     36          0.720477        0.933619   1.000000   1.000000
     37          0.774401        0.996204   1.000000   1.000000
     38          0.790523        1.154808   1.000000   1.000000
     39          0.945942        1.280514   1.000000   1.000000
     40          1.029048        1.331937   1.000000   1.000000
     41          1.181667        1.937279   1.000000   0.000000
     42          1.345299        1.983481   1.000000   0.000000
     43          2.530879        2.596168   0.000000   0.000000
     44          2.543287        2.606122   0.000000   0.000000
     45          3.420732        3.454032   0.000000   0.000000
     46          3.502296        3.535342   0.000000   0.000000
     47          4.018787        4.059265   0.000000   0.000000
     48          4.101067        4.141506   0.000000   0.000000
     49          4.497229        4.546197   0.000000   0.000000
     50          4.632027        4.682003   0.000000   0.000000
     51          5.604065        5.688259   0.000000   0.000000
     52          5.739296        5.804993   0.000000   0.000000
     53          6.221045        6.254004   0.000000   0.000000
     54          6.319976        6.354431   0.000000   0.000000
     55          6.630766        6.665905   0.000000   0.000000
 
  0.0000000E+00  0.1666667E+00  0.4000000E+00  0.1111111E-01
      1        -13.945929      -13.897812   1.000000   1.000000
      2        -13.846790      -13.799515   1.000000   1.000000
      3        -12.883204      -12.837651   1.000000   1.000000
      4        -12.829126      -12.782544   1.000000   1.000000
      5        -11.176407      -11.108993   1.000000   1.000000
      6        -11.150669      -11.082424   1.000000   1.000000
      7        -10.657500      -10.608555   1.000000   1.000000
      8        -10.572215      -10.520466   1.000000   1.000000
      9        -10.155094       -9.511175   1.000000   1.000000
     10        -10.126778       -9.480895   1.000000   1.000000
     11         -7.257589       -7.221563   1.000000   1.000000
     12         -7.234025       -7.198912   1.000000   1.000000
     13         -5.387817       -5.351619   1.000000   1.000000
     14         -5.317215       -5.277436   1.000000   1.000000
     15         -4.713139       -4.667462   1.000000   1.000000
     16         -4.501192       -4.467987   1.000000   1.000000
     17         -3.613014       -3.559032   1.000000   1.000000
     18         -3.539219       -3.483203   1.000000   1.000000
     19         -3.119706       -3.053806   1.000000   1.000000
     20         -2.956081       -2.882675   1.000000   1.000000
     21         -2.763602       -2.716220   1.000000   1.000000
     22         -2.466295       -2.384809   1.000000   1.000000
     23         -2.426695       -2.300349   1.000000   1.000000
     24         -2.398399       -2.298318   1.000000   1.000000
     25         -1.784451       -1.689614   1.000000   1.000000
     26         -1.641305       -1.547297   1.000000   1.000000
     27         -1.136710       -1.038900   1.000000   1.000000
     28         -1.018953       -0.916282   1.000000   1.000000
     29         -0.659676       -0.609095   1.000000   1.000000
     30         -0.654369       -0.591523   1.000000   1.000000
     31         -0.475199       -0.319381   1.000000   1.000000
     32         -0.363881       -0.203382   1.000000   1.000000
     33          0.181217        0.331213   1.000000   1.000000
     34          0.367395        0.511504   1.000000   1.000000
     35          0.547232        0.792539   1.000000   1.000000
     36          0.576759        0.834984   1.000000   1.000000
     37          0.783100        1.011282   1.000000   1.000000
     38          0.878140        1.169674   1.000000   1.000000
     39          0.987842        1.284535   1.000000   1.000000
     40          0.998105        1.298377   1.000000   1.000000
     41          1.120677        1.822670   1.000000   0.000000
     42          1.339727        1.887779   1.000000   0.000000
     43          2.538354        2.602200   0.000000   0.000000
     44          2.542920        2.603511   0.000000   0.000000
     45          3.315535        3.354108   0.000000   0.000000
     46          3.560170        3.597948   0.000000   0.000000
     47          4.050977        4.091488   0.000000   0.000000
     48          4.051243        4.097225   0.000000   0.000000
     49          4.549631        4.602752   0.000000   0.000000
     50          4.625658        4.678864   0.000000   0.000000
     51          5.548799        5.633301   0.000000   0.000000
     52          5.648863        5.713748   0.000000   0.000000
     53          6.154822        6.196611   0.000000   0.000000
     54          6.312592        6.349865   0.000000   0.000000
     55          6.797747        6.829323   0.000000   0.000000
 
 -0.1666667E+00  0.0000000E+00  0.4000000E+00  0.1111111E-01
      1        -13.941964      -13.894528   1.000000   1.000000
      2        -13.843808      -13.797186   1.000000   1.000000
      3        -12.887277      -12.840020   1.000000   1.000000
      4        -12.831383      -12.783164   1.000000   1.000000
      5        -11.181460      -11.114363   1.000000   1.000000
      6        -11.161032      -11.094222   1.000000   1.000000
      7        -10.670015      -10.613882   1.000000   1.000000
      8        -10.592035      -10.530301   1.000000   1.000000
      9        -10.141311       -9.508079   1.000000   1.000000
     10        -10.104714       -9.468952   1.000000   1.000000
     11         -7.223524       -7.187283   1.000000   1.000000
     12         -7.187233       -7.150842   1.000000   1.000000
     13         -5.392558       -5.354713   1.000000   1.000000
     14         -5.315164       -5.275529   1.000000   1.000000
     15         -4.714158       -4.666903   1.000000   1.000000
     16         -4.509010       -4.469992   1.000000   1.000000
     17         -3.666268       -3.617964   1.000000   1.000000
     18         -3.601729       -3.551226   1.000000   1.000000
     19         -3.086016       -2.994305   1.000000   1.000000
     20         -2.940241       -2.855837   1.000000   1.000000
     21         -2.771439       -2.704947   1.000000   1.000000
     22         -2.556481       -2.480746   1.000000   1.000000
     23         -2.465173       -2.372192   1.000000   1.000000
     24         -2.402524       -2.299943   1.000000   1.000000
     25         -1.741417       -1.634467   1.000000   1.000000
     26         -1.655544       -1.557007   1.000000   1.000000
     27         -1.184511       -1.080939   1.000000   1.000000
     28         -1.087680       -0.990636   1.000000   1.000000
     29         -0.635975       -0.584552   1.000000   1.000000
     30         -0.542038       -0.487296   1.000000   1.000000
     31         -0.427272       -0.260411   1.000000   1.000000
     32         -0.339437       -0.192839   1.000000   1.000000
     33          0.148869        0.262761   1.000000   1.000000
     34          0.249970        0.360679   1.000000   1.000000
     35          0.662584        0.790096   1.000000   1.000000
     36          0.720477        0.933620   1.000000   1.000000
     37          0.774401        0.996204   1.000000   1.000000
     38          0.790523        1.154808   1.000000   1.000000
     39          0.945942        1.280514   1.000000   1.000000
     40          1.029048        1.331937   1.000000   1.000000
     41          1.181666        1.937279   1.000000   0.000000
     42          1.345300        1.983481   1.000000   0.000000
     43          2.530879        2.596168   0.000000   0.000000
     44          2.543287        2.606122   0.000000   0.000000
     45          3.420732        3.454032   0.000000   0.000000
     46          3.502295        3.535342   0.000000   0.000000
     47          4.018787        4.059266   0.000000   0.000000
     48          4.101067        4.141506   0.000000   0.000000
     49          4.497229        4.546197   0.000000   0.000000
     50          4.632026        4.682003   0.000000   0.000000
     51          5.604065        5.688259   0.000000   0.000000
     52          5.739296        5.804993   0.000000   0.000000
     53          6.221045        6.254004   0.000000   0.000000
     54          6.319978        6.354426   0.000000   0.000000
     55          6.630666        6.666580   0.000000   0.000000
 
  0.0000000E+00 -0.1666667E+00  0.4000000E+00  0.1111111E-01
      1        -13.945483      -13.897356   1.000000   1.000000
      2        -13.847286      -13.800020   1.000000   1.000000
      3        -12.883763      -12.838172   1.000000   1.000000
      4        -12.828501      -12.781965   1.000000   1.000000
      5        -11.174655      -11.106661   1.000000   1.000000
      6        -11.152585      -11.084947   1.000000   1.000000
      7        -10.660041      -10.610209   1.000000   1.000000
      8        -10.569011      -10.518229   1.000000   1.000000
      9        -10.151875       -9.509206   1.000000   1.000000
     10        -10.130195       -9.482967   1.000000   1.000000
     11         -7.274488       -7.239219   1.000000   1.000000
     12         -7.219832       -7.184007   1.000000   1.000000
     13         -5.369695       -5.329959   1.000000   1.000000
     14         -5.327846       -5.290452   1.000000   1.000000
     15         -4.708991       -4.669187   1.000000   1.000000
     16         -4.502916       -4.464610   1.000000   1.000000
     17         -3.591349       -3.539821   1.000000   1.000000
     18         -3.559373       -3.501234   1.000000   1.000000
     19         -3.134823       -3.069990   1.000000   1.000000
     20         -3.014511       -2.944654   1.000000   1.000000
     21         -2.688033       -2.631427   1.000000   1.000000
     22         -2.556025       -2.498798   1.000000   1.000000
     23         -2.414536       -2.283438   1.000000   1.000000
     24         -2.349701       -2.230572   1.000000   1.000000
     25         -1.727400       -1.641518   1.000000   1.000000
     26         -1.653912       -1.538874   1.000000   1.000000
     27         -1.077394       -1.002375   1.000000   1.000000
     28         -1.048779       -0.945848   1.000000   1.000000
     29         -0.770962       -0.713027   1.000000   1.000000
     30         -0.599049       -0.524624   1.000000   1.000000
     31         -0.430293       -0.291590   1.000000   1.000000
     32         -0.428511       -0.267491   1.000000   1.000000
     33          0.243056        0.392436   1.000000   1.000000
     34          0.291428        0.437965   1.000000   1.000000
     35          0.491378        0.679008   1.000000   1.000000
     36          0.648580        0.949991   1.000000   1.000000
     37          0.787304        1.081354   1.000000   1.000000
     38          0.876142        1.153023   1.000000   1.000000
     39          0.965979        1.286730   1.000000   1.000000
     40          1.032960        1.305110   1.000000   1.000000
     41          1.186359        1.818280   1.000000   0.000000
     42          1.267862        1.853830   1.000000   0.000000
     43          2.546157        2.607404   0.000000   0.000000
     44          2.560452        2.625531   0.000000   0.000000
     45          3.419993        3.459016   0.000000   0.000000
     46          3.456939        3.489941   0.000000   0.000000
     47          4.016180        4.056002   0.000000   0.000000
     48          4.115539        4.166871   0.000000   0.000000
     49          4.462039        4.508914   0.000000   0.000000
     50          4.630218        4.689266   0.000000   0.000000
     51          5.503035        5.589698   0.000000   0.000000
     52          5.720122        5.783067   0.000000   0.000000
     53          6.208416        6.245503   0.000000   0.000000
     54          6.274844        6.310337   0.000000   0.000000
     55          6.664107        6.698358   0.000000   0.000000
 
  0.3333333E+00  0.0000000E+00  0.4000000E+00  0.1111111E-01
      1        -13.924424      -13.878782   1.000000   1.000000
      2        -13.828567      -13.783630   1.000000   1.000000
      3        -12.907151      -12.856767   1.000000   1.000000
      4        -12.845527      -12.794416   1.000000   1.000000
      5        -11.213258      -11.147468   1.000000   1.000000
      6        -11.198009      -11.132545   1.000000   1.000000
      7        -10.662565      -10.593369   1.000000   1.000000
      8        -10.600684      -10.522798   1.000000   1.000000
      9        -10.132003       -9.516499   1.000000   1.000000
     10        -10.075164       -9.459740   1.000000   1.000000
     11         -7.194772       -7.155807   1.000000   1.000000
     12         -7.166836       -7.127380   1.000000   1.000000
     13         -5.315309       -5.274721   1.000000   1.000000
     14         -5.192488       -5.150391   1.000000   1.000000
     15         -4.705934       -4.654729   1.000000   1.000000
     16         -4.523728       -4.481787   1.000000   1.000000
     17         -3.700191       -3.656566   1.000000   1.000000
     18         -3.648065       -3.603419   1.000000   1.000000
     19         -3.106477       -2.990767   1.000000   1.000000
     20         -2.990232       -2.900854   1.000000   1.000000
     21         -2.756884       -2.674478   1.000000   1.000000
     22         -2.649084       -2.586413   1.000000   1.000000
     23         -2.427374       -2.339549   1.000000   1.000000
     24         -2.254837       -2.170209   1.000000   1.000000
     25         -1.839020       -1.746153   1.000000   1.000000
     26         -1.712983       -1.617961   1.000000   1.000000
     27         -1.172447       -1.076509   1.000000   1.000000
     28         -1.072097       -0.965484   1.000000   1.000000
     29         -0.644365       -0.575409   1.000000   1.000000
     30         -0.585438       -0.490988   1.000000   1.000000
     31         -0.438733       -0.331751   1.000000   1.000000
     32         -0.408065       -0.326380   1.000000   1.000000
     33          0.150531        0.293012   1.000000   1.000000
     34          0.187672        0.326249   1.000000   1.000000
     35          0.630020        0.789393   1.000000   1.000000
     36          0.702263        0.906457   1.000000   1.000000
     37          0.742621        0.945103   1.000000   1.000000
     38          0.796815        1.110057   1.000000   1.000000
     39          0.928954        1.271481   1.000000   1.000000
     40          0.989033        1.334158   1.000000   1.000000
     41          1.188737        1.946953   1.000000   0.000000
     42          1.323925        1.965952   1.000000   0.000000
     43          2.373014        2.450477   0.000000   0.000000
     44          2.399402        2.481444   0.000000   0.000000
     45          3.495377        3.526933   0.000000   0.000000
     46          3.559465        3.588860   0.000000   0.000000
     47          4.189980        4.232994   0.000000   0.000000
     48          4.314284        4.354139   0.000000   0.000000
     49          4.634474        4.669189   0.000000   0.000000
     50          4.708862        4.743215   0.000000   0.000000
     51          5.658018        5.723311   0.000000   0.000000
     52          5.807894        5.861904   0.000000   0.000000
     53          6.255550        6.308610   0.000000   0.000000
     54          6.298168        6.347012   0.000000   0.000000
     55          6.614831        6.658462   0.000000   0.000000
 
  0.0000000E+00  0.3333333E+00  0.4000000E+00  0.1111111E-01
      1        -13.936292      -13.888485   1.000000   1.000000
      2        -13.838295      -13.791312   1.000000   1.000000
      3        -12.894927      -12.849791   1.000000   1.000000
      4        -12.837605      -12.791579   1.000000   1.000000
      5        -11.197064      -11.129976   1.000000   1.000000
      6        -11.168463      -11.099906   1.000000   1.000000
      7        -10.628946      -10.579015   1.000000   1.000000
      8        -10.545904      -10.493235   1.000000   1.000000
      9        -10.166751       -9.523216   1.000000   1.000000
     10        -10.136170       -9.491295   1.000000   1.000000
     11         -7.319946       -7.283917   1.000000   1.000000
     12         -7.293779       -7.258618   1.000000   1.000000
     13         -5.265734       -5.225835   1.000000   1.000000
     14         -5.192937       -5.149931   1.000000   1.000000
     15         -4.706603       -4.666304   1.000000   1.000000
     16         -4.500370       -4.470940   1.000000   1.000000
     17         -3.602268       -3.547957   1.000000   1.000000
     18         -3.601427       -3.544355   1.000000   1.000000
     19         -3.066061       -3.003915   1.000000   1.000000
     20         -2.967676       -2.898719   1.000000   1.000000
     21         -2.708492       -2.663303   1.000000   1.000000
     22         -2.407765       -2.365684   1.000000   1.000000
     23         -2.318451       -2.220250   1.000000   1.000000
     24         -2.316072       -2.211957   1.000000   1.000000
     25         -1.794675       -1.698503   1.000000   1.000000
     26         -1.679454       -1.571632   1.000000   1.000000
     27         -1.160201       -1.068474   1.000000   1.000000
     28         -0.938845       -0.885208   1.000000   1.000000
     29         -0.804153       -0.691285   1.000000   1.000000
     30         -0.717493       -0.652853   1.000000   1.000000
     31         -0.470687       -0.324726   1.000000   1.000000
     32         -0.336985       -0.223008   1.000000   1.000000
     33          0.026946        0.315041   1.000000   1.000000
     34          0.214456        0.517850   1.000000   1.000000
     35          0.449044        0.747229   1.000000   1.000000
     36          0.452726        0.760391   1.000000   1.000000
     37          0.798508        0.986084   1.000000   1.000000
     38          0.823568        1.089228   1.000000   1.000000
     39          0.946393        1.235479   1.000000   1.000000
     40          0.996691        1.286174   1.000000   1.000000
     41          1.078132        1.624981   1.000000   0.001357
     42          1.280793        1.716562   1.000000   0.000000
     43          2.470122        2.531772   0.000000   0.000000
     44          2.472113        2.536601   0.000000   0.000000
     45          3.291859        3.343249   0.000000   0.000000
     46          3.548196        3.589895   0.000000   0.000000
     47          4.190867        4.233601   0.000000   0.000000
     48          4.342894        4.383329   0.000000   0.000000
     49          4.659733        4.714419   0.000000   0.000000
     50          4.768759        4.824094   0.000000   0.000000
     51          5.551855        5.611404   0.000000   0.000000
     52          5.686916        5.741698   0.000000   0.000000
     53          5.961744        6.038710   0.000000   0.000000
     54          6.119895        6.178274   0.000000   0.000000
     55          6.823816        6.871208   0.000000   0.000000
 
 -0.3333333E+00  0.0000000E+00  0.4000000E+00  0.1111111E-01
      1        -13.924424      -13.878782   1.000000   1.000000
      2        -13.828567      -13.783630   1.000000   1.000000
      3        -12.907151      -12.856767   1.000000   1.000000
      4        -12.845527      -12.794416   1.000000   1.000000
      5        -11.213258      -11.147468   1.000000   1.000000
      6        -11.198009      -11.132545   1.000000   1.000000
      7        -10.662565      -10.593369   1.000000   1.000000
      8        -10.600684      -10.522798   1.000000   1.000000
      9        -10.132003       -9.516499   1.000000   1.000000
     10        -10.075164       -9.459740   1.000000   1.000000
     11         -7.194772       -7.155807   1.000000   1.000000
     12         -7.166836       -7.127380   1.000000   1.000000
     13         -5.315309       -5.274721   1.000000   1.000000
     14         -5.192487       -5.150391   1.000000   1.000000
     15         -4.705934       -4.654729   1.000000   1.000000
     16         -4.523728       -4.481787   1.000000   1.000000
     17         -3.700191       -3.656565   1.000000   1.000000
     18         -3.648065       -3.603419   1.000000   1.000000
     19         -3.106477       -2.990766   1.000000   1.000000
     20         -2.990232       -2.900854   1.000000   1.000000
     21         -2.756884       -2.674478   1.000000   1.000000
     22         -2.649084       -2.586413   1.000000   1.000000
     23         -2.427374       -2.339549   1.000000   1.000000
     24         -2.254837       -2.170209   1.000000   1.000000
     25         -1.839020       -1.746153   1.000000   1.000000
     26         -1.712983       -1.617961   1.000000   1.000000
     27         -1.172447       -1.076509   1.000000   1.000000
     28         -1.072097       -0.965484   1.000000   1.000000
     29         -0.644365       -0.575409   1.000000   1.000000
     30         -0.585438       -0.490988   1.000000   1.000000
     31         -0.438734       -0.331751   1.000000   1.000000
     32         -0.408065       -0.326380   1.000000   1.000000
     33          0.150531        0.293012   1.000000   1.000000
     34          0.187672        0.326249   1.000000   1.000000
     35          0.630020        0.789393   1.000000   1.000000
     36          0.702263        0.906457   1.000000   1.000000
     37          0.742621        0.945103   1.000000   1.000000
     38          0.796815        1.110057   1.000000   1.000000
     39          0.928955        1.271481   1.000000   1.000000
     40          0.989033        1.334158   1.000000   1.000000
     41          1.188737        1.946953   1.000000   0.000000
     42          1.323925        1.965952   1.000000   0.000000
     43          2.373013        2.450477   0.000000   0.000000
     44          2.399402        2.481444   0.000000   0.000000
     45          3.495377        3.526933   0.000000   0.000000
     46          3.559465        3.588860   0.000000   0.000000
     47          4.189981        4.232994   0.000000   0.000000
     48          4.314284        4.354139   0.000000   0.000000
     49          4.634474        4.669189   0.000000   0.000000
     50          4.708862        4.743215   0.000000   0.000000
     51          5.658019        5.723311   0.000000   0.000000
     52          5.807894        5.861904   0.000000   0.000000
     53          6.255550        6.308608   0.000000   0.000000
     54          6.298167        6.347024   0.000000   0.000000
     55          6.614534        6.655940   0.000000   0.000000
 
  0.0000000E+00 -0.3333333E+00  0.4000000E+00  0.1111111E-01
      1        -13.935837      -13.888021   1.000000   1.000000
      2        -13.838805      -13.791831   1.000000   1.000000
      3        -12.895505      -12.850331   1.000000   1.000000
      4        -12.836965      -12.790985   1.000000   1.000000
      5        -11.195426      -11.127817   1.000000   1.000000
      6        -11.170267      -11.102263   1.000000   1.000000
      7        -10.631631      -10.580541   1.000000   1.000000
      8        -10.542495      -10.491104   1.000000   1.000000
      9        -10.163252       -9.521181   1.000000   1.000000
     10        -10.139929       -9.493450   1.000000   1.000000
     11         -7.335276       -7.299939   1.000000   1.000000
     12         -7.280840       -7.245026   1.000000   1.000000
     13         -5.257181       -5.212818   1.000000   1.000000
     14         -5.196439       -5.156262   1.000000   1.000000
     15         -4.688989       -4.655764   1.000000   1.000000
     16         -4.509963       -4.475220   1.000000   1.000000
     17         -3.626600       -3.566622   1.000000   1.000000
     18         -3.585895       -3.533883   1.000000   1.000000
     19         -3.078167       -3.016409   1.000000   1.000000
     20         -3.019498       -2.954112   1.000000   1.000000
     21         -2.609671       -2.569726   1.000000   1.000000
     22         -2.537270       -2.478360   1.000000   1.000000
     23         -2.337689       -2.221805   1.000000   1.000000
     24         -2.188045       -2.116858   1.000000   1.000000
     25         -1.764483       -1.665927   1.000000   1.000000
     26         -1.718263       -1.590050   1.000000   1.000000
     27         -1.068761       -1.024966   1.000000   1.000000
     28         -1.009470       -0.919859   1.000000   1.000000
     29         -0.806641       -0.706733   1.000000   1.000000
     30         -0.703767       -0.617535   1.000000   1.000000
     31         -0.490601       -0.333284   1.000000   1.000000
     32         -0.405644       -0.308063   1.000000   1.000000
     33          0.132973        0.395143   1.000000   1.000000
     34          0.145977        0.425645   1.000000   1.000000
     35          0.409882        0.631780   1.000000   1.000000
     36          0.470540        0.908952   1.000000   1.000000
     37          0.798480        1.052067   1.000000   1.000000
     38          0.840830        1.099588   1.000000   1.000000
     39          0.922869        1.201634   1.000000   1.000000
     40          1.045136        1.301680   1.000000   1.000000
     41          1.131495        1.630542   1.000000   0.000801
     42          1.210589        1.662736   1.000000   0.000024
     43          2.476051        2.543730   0.000000   0.000000
     44          2.486270        2.550067   0.000000   0.000000
     45          3.356481        3.402919   0.000000   0.000000
     46          3.494618        3.535760   0.000000   0.000000
     47          4.233967        4.276564   0.000000   0.000000
     48          4.298842        4.346089   0.000000   0.000000
     49          4.608236        4.650355   0.000000   0.000000
     50          4.756234        4.820779   0.000000   0.000000
     51          5.528275        5.608332   0.000000   0.000000
     52          5.727053        5.764439   0.000000   0.000000
     53          6.031585        6.101362   0.000000   0.000000
     54          6.084642        6.142668   0.000000   0.000000
     55          6.684819        6.733444   0.000000   0.000000
 
  0.5000000E+00  0.0000000E+00  0.4000000E+00  0.1111111E-01
      1        -13.915333      -13.870657   1.000000   1.000000
      2        -13.820723      -13.776684   1.000000   1.000000
      3        -12.917504      -12.865454   1.000000   1.000000
      4        -12.852969      -12.800337   1.000000   1.000000
      5        -11.227573      -11.162179   1.000000   1.000000
      6        -11.216929      -11.151847   1.000000   1.000000
      7        -10.658053      -10.583449   1.000000   1.000000
      8        -10.601598      -10.518261   1.000000   1.000000
      9        -10.129854       -9.521943   1.000000   1.000000
     10        -10.064465       -9.457895   1.000000   1.000000
     11         -7.173369       -7.132132   1.000000   1.000000
     12         -7.155381       -7.113920   1.000000   1.000000
     13         -5.291227       -5.249630   1.000000   1.000000
     14         -5.147323       -5.104954   1.000000   1.000000
     15         -4.692547       -4.639794   1.000000   1.000000
     16         -4.526443       -4.483442   1.000000   1.000000
     17         -3.679548       -3.638075   1.000000   1.000000
     18         -3.604446       -3.561124   1.000000   1.000000
     19         -3.139261       -3.025748   1.000000   1.000000
     20         -3.034682       -2.960156   1.000000   1.000000
     21         -2.835528       -2.727230   1.000000   1.000000
     22         -2.797770       -2.726130   1.000000   1.000000
     23         -2.231609       -2.130430   1.000000   1.000000
     24         -2.080330       -1.971008   1.000000   1.000000
     25         -1.973970       -1.919674   1.000000   1.000000
     26         -1.833581       -1.769926   1.000000   1.000000
     27         -1.079494       -0.971122   1.000000   1.000000
     28         -1.027403       -0.905991   1.000000   1.000000
     29         -0.756211       -0.649959   1.000000   1.000000
     30         -0.702957       -0.648838   1.000000   1.000000
     31         -0.445220       -0.366643   1.000000   1.000000
     32         -0.378969       -0.314603   1.000000   1.000000
     33          0.144321        0.300558   1.000000   1.000000
     34          0.211607        0.370687   1.000000   1.000000
     35          0.655358        0.813195   1.000000   1.000000
     36          0.695425        0.915807   1.000000   1.000000
     37          0.788608        0.946628   1.000000   1.000000
     38          0.795925        1.079464   1.000000   1.000000
     39          0.914723        1.293681   1.000000   1.000000
     40          0.955017        1.306369   1.000000   1.000000
     41          1.183025        1.919146   1.000000   0.000000
     42          1.279413        1.936287   1.000000   0.000000
     43          2.277981        2.373153   0.000000   0.000000
     44          2.314115        2.417434   0.000000   0.000000
     45          3.529871        3.556971   0.000000   0.000000
     46          3.595194        3.619037   0.000000   0.000000
     47          4.263529        4.306725   0.000000   0.000000
     48          4.398162        4.438560   0.000000   0.000000
     49          4.709153        4.739044   0.000000   0.000000
     50          4.806361        4.836181   0.000000   0.000000
     51          5.583366        5.639330   0.000000   0.000000
     52          5.726714        5.767507   0.000000   0.000000
     53          6.388879        6.435730   0.000000   0.000000
     54          6.449202        6.508985   0.000000   0.000000
     55          6.671645        6.732223   0.000000   0.000000
 
  0.0000000E+00  0.5000000E+00  0.4000000E+00  0.1111111E-01
      1        -13.931156      -13.883503   1.000000   1.000000
      2        -13.834239      -13.787410   1.000000   1.000000
      3        -12.901200      -12.856243   1.000000   1.000000
      4        -12.841614      -12.795883   1.000000   1.000000
      5        -11.206159      -11.138781   1.000000   1.000000
      6        -11.177880      -11.109310   1.000000   1.000000
      7        -10.615577      -10.565313   1.000000   1.000000
      8        -10.530394      -10.478739   1.000000   1.000000
      9        -10.171733       -9.528605   1.000000   1.000000
     10        -10.143832       -9.497985   1.000000   1.000000
     11         -7.356135       -7.320370   1.000000   1.000000
     12         -7.315444       -7.279892   1.000000   1.000000
     13         -5.208679       -5.163901   1.000000   1.000000
     14         -5.131382       -5.087914   1.000000   1.000000
     15         -4.683388       -4.650383   1.000000   1.000000
     16         -4.505646       -4.475885   1.000000   1.000000
     17         -3.646269       -3.586551   1.000000   1.000000
     18         -3.589079       -3.536319   1.000000   1.000000
     19         -3.040220       -2.979420   1.000000   1.000000
     20         -2.994083       -2.929058   1.000000   1.000000
     21         -2.644717       -2.602534   1.000000   1.000000
     22         -2.482227       -2.426465   1.000000   1.000000
     23         -2.256527       -2.174264   1.000000   1.000000
     24         -2.165481       -2.107314   1.000000   1.000000
     25         -1.791290       -1.675221   1.000000   1.000000
     26         -1.764192       -1.649098   1.000000   1.000000
     27         -1.092454       -1.035784   1.000000   1.000000
     28         -0.956590       -0.902597   1.000000   1.000000
     29         -0.739954       -0.660307   1.000000   1.000000
     30         -0.736064       -0.642646   1.000000   1.000000
     31         -0.519246       -0.350629   1.000000   1.000000
     32         -0.492005       -0.343631   1.000000   1.000000
     33          0.042673        0.361439   1.000000   1.000000
     34          0.099662        0.447582   1.000000   1.000000
     35          0.400389        0.693465   1.000000   1.000000
     36          0.417701        0.804027   1.000000   1.000000
     37          0.789666        1.019113   1.000000   1.000000
     38          0.800460        1.036887   1.000000   1.000000
     39          0.911523        1.180009   1.000000   1.000000
     40          1.020924        1.288907   1.000000   1.000000
     41          1.081840        1.539467   1.000000   0.281075
     42          1.218776        1.612149   1.000000   0.004202
     43          2.438109        2.501858   0.000000   0.000000
     44          2.449204        2.512929   0.000000   0.000000
     45          3.311204        3.363826   0.000000   0.000000
     46          3.534466        3.577379   0.000000   0.000000
     47          4.270481        4.311319   0.000000   0.000000
     48          4.388811        4.431446   0.000000   0.000000
     49          4.811464        4.874231   0.000000   0.000000
     50          4.823990        4.876072   0.000000   0.000000
     51          5.518658        5.566241   0.000000   0.000000
     52          5.661983        5.689511   0.000000   0.000000
     53          5.957987        6.052886   0.000000   0.000000
     54          6.049408        6.137304   0.000000   0.000000
     55          6.758383        6.761588   0.000000   0.000000
 
  0.1666667E+00  0.1666667E+00  0.4000000E+00  0.1111111E-01
      1        -13.938118      -13.890811   1.000000   1.000000
      2        -13.840023      -13.793517   1.000000   1.000000
      3        -12.890467      -12.843583   1.000000   1.000000
      4        -12.833539      -12.785736   1.000000   1.000000
      5        -11.192637      -11.125860   1.000000   1.000000
      6        -11.170439      -11.101847   1.000000   1.000000
      7        -10.663873      -10.607989   1.000000   1.000000
      8        -10.583252      -10.519394   1.000000   1.000000
      9        -10.144508       -9.512698   1.000000   1.000000
     10        -10.107287       -9.472738   1.000000   1.000000
     11         -7.268864       -7.232185   1.000000   1.000000
     12         -7.171099       -7.135166   1.000000   1.000000
     13         -5.397865       -5.360151   1.000000   1.000000
     14         -5.234221       -5.192508   1.000000   1.000000
     15         -4.710082       -4.662696   1.000000   1.000000
     16         -4.507978       -4.473032   1.000000   1.000000
     17         -3.692349       -3.642102   1.000000   1.000000
     18         -3.573776       -3.523508   1.000000   1.000000
     19         -3.099733       -3.013883   1.000000   1.000000
     20         -2.908710       -2.846665   1.000000   1.000000
     21         -2.709094       -2.629009   1.000000   1.000000
     22         -2.525104       -2.471035   1.000000   1.000000
     23         -2.470436       -2.355149   1.000000   1.000000
     24         -2.390209       -2.295954   1.000000   1.000000
     25         -1.810368       -1.708664   1.000000   1.000000
     26         -1.567682       -1.474701   1.000000   1.000000
     27         -1.213412       -1.107275   1.000000   1.000000
     28         -1.020498       -0.923830   1.000000   1.000000
     29         -0.764613       -0.693765   1.000000   1.000000
     30         -0.602650       -0.514803   1.000000   1.000000
     31         -0.379647       -0.270363   1.000000   1.000000
     32         -0.293596       -0.157640   1.000000   1.000000
     33          0.095258        0.247481   1.000000   1.000000
     34          0.257541        0.392207   1.000000   1.000000
     35          0.522309        0.788793   1.000000   1.000000
     36          0.603519        0.853186   1.000000   1.000000
     37          0.748626        0.999736   1.000000   1.000000
     38          0.815741        1.120705   1.000000   1.000000
     39          0.950499        1.234177   1.000000   1.000000
     40          1.044253        1.330544   1.000000   1.000000
     41          1.146607        1.837021   1.000000   0.000000
     42          1.343950        1.909644   1.000000   0.000000
     43          2.468279        2.540219   0.000000   0.000000
     44          2.512075        2.579496   0.000000   0.000000
     45          3.394121        3.429450   0.000000   0.000000
     46          3.543587        3.584035   0.000000   0.000000
     47          3.993178        4.034217   0.000000   0.000000
     48          4.205477        4.248924   0.000000   0.000000
     49          4.573345        4.620998   0.000000   0.000000
     50          4.721750        4.771336   0.000000   0.000000
     51          5.660618        5.745349   0.000000   0.000000
     52          5.749937        5.820042   0.000000   0.000000
     53          5.898231        5.933993   0.000000   0.000000
     54          6.531581        6.568377   0.000000   0.000000
     55          6.677941        6.746125   0.000000   0.000000
 
 -0.1666667E+00  0.1666667E+00  0.4000000E+00  0.1111111E-01
      1        -13.938118      -13.890811   1.000000   1.000000
      2        -13.840023      -13.793517   1.000000   1.000000
      3        -12.890467      -12.843583   1.000000   1.000000
      4        -12.833539      -12.785735   1.000000   1.000000
      5        -11.192637      -11.125861   1.000000   1.000000
      6        -11.170439      -11.101846   1.000000   1.000000
      7        -10.663873      -10.607988   1.000000   1.000000
      8        -10.583252      -10.519394   1.000000   1.000000
      9        -10.144508       -9.512698   1.000000   1.000000
     10        -10.107287       -9.472738   1.000000   1.000000
     11         -7.268865       -7.232186   1.000000   1.000000
     12         -7.171099       -7.135166   1.000000   1.000000
     13         -5.397865       -5.360151   1.000000   1.000000
     14         -5.234220       -5.192507   1.000000   1.000000
     15         -4.710082       -4.662696   1.000000   1.000000
     16         -4.507978       -4.473032   1.000000   1.000000
     17         -3.692349       -3.642103   1.000000   1.000000
     18         -3.573776       -3.523508   1.000000   1.000000
     19         -3.099733       -3.013883   1.000000   1.000000
     20         -2.908710       -2.846665   1.000000   1.000000
     21         -2.709094       -2.629009   1.000000   1.000000
     22         -2.525104       -2.471035   1.000000   1.000000
     23         -2.470436       -2.355149   1.000000   1.000000
     24         -2.390210       -2.295954   1.000000   1.000000
     25         -1.810369       -1.708665   1.000000   1.000000
     26         -1.567681       -1.474700   1.000000   1.000000
     27         -1.213412       -1.107275   1.000000   1.000000
     28         -1.020498       -0.923830   1.000000   1.000000
     29         -0.764614       -0.693766   1.000000   1.000000
     30         -0.602650       -0.514802   1.000000   1.000000
     31         -0.379647       -0.270362   1.000000   1.000000
     32         -0.293596       -0.157640   1.000000   1.000000
     33          0.095258        0.247481   1.000000   1.000000
     34          0.257541        0.392208   1.000000   1.000000
     35          0.522309        0.788793   1.000000   1.000000
     36          0.603519        0.853186   1.000000   1.000000
     37          0.748626        0.999737   1.000000   1.000000
     38          0.815741        1.120705   1.000000   1.000000
     39          0.950499        1.234177   1.000000   1.000000
     40          1.044253        1.330544   1.000000   1.000000
     41          1.146607        1.837021   1.000000   0.000000
     42          1.343950        1.909644   1.000000   0.000000
     43          2.468280        2.540220   0.000000   0.000000
     44          2.512074        2.579495   0.000000   0.000000
     45          3.394121        3.429450   0.000000   0.000000
     46          3.543587        3.584035   0.000000   0.000000
     47          3.993177        4.034217   0.000000   0.000000
     48          4.205478        4.248924   0.000000   0.000000
     49          4.573344        4.620997   0.000000   0.000000
     50          4.721751        4.771337   0.000000   0.000000
     51          5.660618        5.745349   0.000000   0.000000
     52          5.749937        5.820042   0.000000   0.000000
     53          5.898231        5.933992   0.000000   0.000000
     54          6.531503        6.567824   0.000000   0.000000
     55          6.679261        6.714224   0.000000   0.000000
 
 -0.1666667E+00 -0.1666667E+00  0.4000000E+00  0.1111111E-01
      1        -13.937723      -13.890412   1.000000   1.000000
      2        -13.840470      -13.793967   1.000000   1.000000
      3        -12.891045      -12.844126   1.000000   1.000000
      4        -12.832870      -12.785107   1.000000   1.000000
      5        -11.194278      -11.127017   1.000000   1.000000
      6        -11.168925      -11.100844   1.000000   1.000000
      7        -10.665595      -10.609754   1.000000   1.000000
      8        -10.581125      -10.517142   1.000000   1.000000
      9        -10.144879       -9.513016   1.000000   1.000000
     10        -10.106949       -9.472518   1.000000   1.000000
     11         -7.275389       -7.239049   1.000000   1.000000
     12         -7.166172       -7.129920   1.000000   1.000000
     13         -5.390448       -5.351533   1.000000   1.000000
     14         -5.236470       -5.195053   1.000000   1.000000
     15         -4.720564       -4.677982   1.000000   1.000000
     16         -4.498738       -4.459617   1.000000   1.000000
     17         -3.688273       -3.637047   1.000000   1.000000
     18         -3.568560       -3.519588   1.000000   1.000000
     19         -3.054472       -2.977829   1.000000   1.000000
     20         -2.997255       -2.912288   1.000000   1.000000
     21         -2.728717       -2.681740   1.000000   1.000000
     22         -2.584983       -2.497174   1.000000   1.000000
     23         -2.413532       -2.316912   1.000000   1.000000
     24         -2.335932       -2.234363   1.000000   1.000000
     25         -1.771991       -1.674855   1.000000   1.000000
     26         -1.574426       -1.465319   1.000000   1.000000
     27         -1.211108       -1.119461   1.000000   1.000000
     28         -1.043453       -0.953254   1.000000   1.000000
     29         -0.780712       -0.695693   1.000000   1.000000
     30         -0.556133       -0.476192   1.000000   1.000000
     31         -0.381361       -0.277309   1.000000   1.000000
     32         -0.351947       -0.215975   1.000000   1.000000
     33          0.102166        0.256874   1.000000   1.000000
     34          0.253579        0.394741   1.000000   1.000000
     35          0.486883        0.670447   1.000000   1.000000
     36          0.636884        0.926578   1.000000   1.000000
     37          0.730941        1.024635   1.000000   1.000000
     38          0.823661        1.166656   1.000000   1.000000
     39          0.953337        1.255430   1.000000   1.000000
     40          1.048154        1.309267   1.000000   1.000000
     41          1.192266        1.844475   1.000000   0.000000
     42          1.309607        1.879476   1.000000   0.000000
     43          2.472612        2.544769   0.000000   0.000000
     44          2.533298        2.599122   0.000000   0.000000
     45          3.441726        3.482272   0.000000   0.000000
     46          3.517178        3.551389   0.000000   0.000000
     47          3.932745        3.972152   0.000000   0.000000
     48          4.284771        4.329786   0.000000   0.000000
     49          4.484005        4.533463   0.000000   0.000000
     50          4.731550        4.781502   0.000000   0.000000
     51          5.614491        5.699677   0.000000   0.000000
     52          5.815510        5.878856   0.000000   0.000000
     53          5.940304        5.981946   0.000000   0.000000
     54          6.452407        6.487791   0.000000   0.000000
     55          6.676345        6.719843   0.000000   0.000000
 
  0.1666667E+00 -0.1666667E+00  0.4000000E+00  0.1111111E-01
      1        -13.937723      -13.890412   1.000000   1.000000
      2        -13.840470      -13.793967   1.000000   1.000000
      3        -12.891045      -12.844126   1.000000   1.000000
      4        -12.832870      -12.785107   1.000000   1.000000
      5        -11.194278      -11.127017   1.000000   1.000000
      6        -11.168924      -11.100843   1.000000   1.000000
      7        -10.665595      -10.609754   1.000000   1.000000
      8        -10.581125      -10.517142   1.000000   1.000000
      9        -10.144879       -9.513016   1.000000   1.000000
     10        -10.106949       -9.472518   1.000000   1.000000
     11         -7.275390       -7.239049   1.000000   1.000000
     12         -7.166171       -7.129920   1.000000   1.000000
     13         -5.390449       -5.351534   1.000000   1.000000
     14         -5.236469       -5.195052   1.000000   1.000000
     15         -4.720564       -4.677982   1.000000   1.000000
     16         -4.498738       -4.459617   1.000000   1.000000
     17         -3.688274       -3.637048   1.000000   1.000000
     18         -3.568560       -3.519588   1.000000   1.000000
     19         -3.054472       -2.977829   1.000000   1.000000
     20         -2.997255       -2.912288   1.000000   1.000000
     21         -2.728717       -2.681740   1.000000   1.000000
     22         -2.584983       -2.497174   1.000000   1.000000
     23         -2.413532       -2.316912   1.000000   1.000000
     24         -2.335931       -2.234363   1.000000   1.000000
     25         -1.771991       -1.674856   1.000000   1.000000
     26         -1.574426       -1.465318   1.000000   1.000000
     27         -1.211108       -1.119460   1.000000   1.000000
     28         -1.043453       -0.953254   1.000000   1.000000
     29         -0.780713       -0.695694   1.000000   1.000000
     30         -0.556133       -0.476192   1.000000   1.000000
     31         -0.381361       -0.277309   1.000000   1.000000
     32         -0.351947       -0.215975   1.000000   1.000000
     33          0.102166        0.256873   1.000000   1.000000
     34          0.253580        0.394741   1.000000   1.000000
     35          0.486883        0.670447   1.000000   1.000000
     36          0.636883        0.926577   1.000000   1.000000
     37          0.730941        1.024636   1.000000   1.000000
     38          0.823661        1.166656   1.000000   1.000000
     39          0.953337        1.255430   1.000000   1.000000
     40          1.048154        1.309267   1.000000   1.000000
     41          1.192267        1.844475   1.000000   0.000000
     42          1.309607        1.879476   1.000000   0.000000
     43          2.472613        2.544770   0.000000   0.000000
     44          2.533297        2.599122   0.000000   0.000000
     45          3.441726        3.482272   0.000000   0.000000
     46          3.517178        3.551389   0.000000   0.000000
     47          3.932745        3.972152   0.000000   0.000000
     48          4.284771        4.329787   0.000000   0.000000
     49          4.484004        4.533462   0.000000   0.000000
     50          4.731551        4.781502   0.000000   0.000000
     51          5.614491        5.699677   0.000000   0.000000
     52          5.815510        5.878856   0.000000   0.000000
     53          5.940304        5.981945   0.000000   0.000000
     54          6.452416        6.487739   0.000000   0.000000
     55          6.698444        6.712521   0.000000   0.000000
 
  0.3333333E+00  0.1666667E+00  0.4000000E+00  0.1111111E-01
      1        -13.921999      -13.876416   1.000000   1.000000
      2        -13.826185      -13.781306   1.000000   1.000000
      3        -12.905289      -12.855579   1.000000   1.000000
      4        -12.843426      -12.792996   1.000000   1.000000
      5        -11.223381      -11.157094   1.000000   1.000000
      6        -11.207473      -11.139532   1.000000   1.000000
      7        -10.675404      -10.603462   1.000000   1.000000
      8        -10.602021      -10.521897   1.000000   1.000000
      9        -10.127047       -9.515317   1.000000   1.000000
     10        -10.074510       -9.461242   1.000000   1.000000
     11         -7.212309       -7.172844   1.000000   1.000000
     12         -7.117954       -7.080078   1.000000   1.000000
     13         -5.353879       -5.313870   1.000000   1.000000
     14         -5.167903       -5.123824   1.000000   1.000000
     15         -4.686828       -4.637007   1.000000   1.000000
     16         -4.521942       -4.482231   1.000000   1.000000
     17         -3.730927       -3.686459   1.000000   1.000000
     18         -3.628694       -3.585162   1.000000   1.000000
     19         -3.105386       -2.989591   1.000000   1.000000
     20         -2.922812       -2.866903   1.000000   1.000000
     21         -2.729230       -2.660265   1.000000   1.000000
     22         -2.635835       -2.545038   1.000000   1.000000
     23         -2.430347       -2.336294   1.000000   1.000000
     24         -2.249813       -2.165610   1.000000   1.000000
     25         -1.836376       -1.745555   1.000000   1.000000
     26         -1.700229       -1.605598   1.000000   1.000000
     27         -1.187455       -1.101137   1.000000   1.000000
     28         -1.051179       -0.941610   1.000000   1.000000
     29         -0.679409       -0.606836   1.000000   1.000000
     30         -0.603673       -0.495985   1.000000   1.000000
     31         -0.459171       -0.372234   1.000000   1.000000
     32         -0.313490       -0.226637   1.000000   1.000000
     33          0.087018        0.256279   1.000000   1.000000
     34          0.163712        0.327420   1.000000   1.000000
     35          0.545335        0.749310   1.000000   1.000000
     36          0.647849        0.861194   1.000000   1.000000
     37          0.685895        0.977200   1.000000   1.000000
     38          0.762390        1.081722   1.000000   1.000000
     39          0.912983        1.207631   1.000000   1.000000
     40          1.024701        1.346698   1.000000   0.999999
     41          1.194989        1.828844   1.000000   0.000000
     42          1.305671        1.910834   1.000000   0.000000
     43          2.329631        2.430553   0.000000   0.000000
     44          2.406670        2.490400   0.000000   0.000000
     45          3.500248        3.533029   0.000000   0.000000
     46          3.528758        3.562348   0.000000   0.000000
     47          4.087746        4.122841   0.000000   0.000000
     48          4.327697        4.372625   0.000000   0.000000
     49          4.631150        4.671658   0.000000   0.000000
     50          4.842449        4.878407   0.000000   0.000000
     51          5.611740        5.663505   0.000000   0.000000
     52          5.900909        5.965646   0.000000   0.000000
     53          6.129366        6.203030   0.000000   0.000000
     54          6.570481        6.612955   0.000000   0.000000
     55          6.617574        6.661471   0.000000   0.000000
 
 -0.1666667E+00  0.3333333E+00  0.4000000E+00  0.1111111E-01
      1        -13.929905      -13.882856   1.000000   1.000000
      2        -13.832840      -13.786573   1.000000   1.000000
      3        -12.897149      -12.850996   1.000000   1.000000
      4        -12.837776      -12.790805   1.000000   1.000000
      5        -11.215341      -11.147336   1.000000   1.000000
      6        -11.187713      -11.117506   1.000000   1.000000
      7        -10.649578      -10.592495   1.000000   1.000000
      8        -10.567374      -10.501813   1.000000   1.000000
      9        -10.151584       -9.521874   1.000000   1.000000
     10        -10.113341       -9.481062   1.000000   1.000000
     11         -7.298679       -7.261956   1.000000   1.000000
     12         -7.203153       -7.167239   1.000000   1.000000
     13         -5.319566       -5.280043   1.000000   1.000000
     14         -5.155785       -5.110781   1.000000   1.000000
     15         -4.704601       -4.662146   1.000000   1.000000
     16         -4.507883       -4.476650   1.000000   1.000000
     17         -3.683215       -3.630871   1.000000   1.000000
     18         -3.561037       -3.509527   1.000000   1.000000
     19         -3.070243       -2.997813   1.000000   1.000000
     20         -2.950224       -2.893788   1.000000   1.000000
     21         -2.673522       -2.617259   1.000000   1.000000
     22         -2.503077       -2.444630   1.000000   1.000000
     23         -2.348769       -2.253049   1.000000   1.000000
     24         -2.279962       -2.183495   1.000000   1.000000
     25         -1.842547       -1.743394   1.000000   1.000000
     26         -1.572646       -1.474376   1.000000   1.000000
     27         -1.194171       -1.101487   1.000000   1.000000
     28         -0.974027       -0.913764   1.000000   1.000000
     29         -0.799169       -0.680212   1.000000   1.000000
     30         -0.715398       -0.642885   1.000000   1.000000
     31         -0.434899       -0.295682   1.000000   1.000000
     32         -0.335836       -0.219646   1.000000   1.000000
     33          0.018098        0.279874   1.000000   1.000000
     34          0.247259        0.426549   1.000000   1.000000
     35          0.357575        0.671390   1.000000   1.000000
     36          0.458632        0.817013   1.000000   1.000000
     37          0.711353        1.005457   1.000000   1.000000
     38          0.789930        1.082752   1.000000   1.000000
     39          0.954410        1.162765   1.000000   1.000000
     40          1.026828        1.308724   1.000000   1.000000
     41          1.111273        1.639714   1.000000   0.000319
     42          1.289204        1.746475   1.000000   0.000000
     43          2.391935        2.463980   0.000000   0.000000
     44          2.452232        2.529113   0.000000   0.000000
     45          3.364041        3.410809   0.000000   0.000000
     46          3.556935        3.602284   0.000000   0.000000
     47          4.148353        4.192546   0.000000   0.000000
     48          4.314217        4.356176   0.000000   0.000000
     49          4.617504        4.666012   0.000000   0.000000
     50          4.863387        4.914412   0.000000   0.000000
     51          5.620262        5.669289   0.000000   0.000000
     52          5.810556        5.869016   0.000000   0.000000
     53          5.893716        5.985988   0.000000   0.000000
     54          6.391774        6.440556   0.000000   0.000000
     55          6.750322        6.783333   0.000000   0.000000
 
 -0.3333333E+00 -0.1666667E+00  0.4000000E+00  0.1111111E-01
      1        -13.921711      -13.876135   1.000000   1.000000
      2        -13.826515      -13.781626   1.000000   1.000000
      3        -12.905826      -12.856089   1.000000   1.000000
      4        -12.842757      -12.792356   1.000000   1.000000
      5        -11.228613      -11.161828   1.000000   1.000000
      6        -11.202569      -11.135148   1.000000   1.000000
      7        -10.674905      -10.604942   1.000000   1.000000
      8        -10.601878      -10.519761   1.000000   1.000000
      9        -10.133162       -9.519496   1.000000   1.000000
     10        -10.068544       -9.457215   1.000000   1.000000
     11         -7.215988       -7.176838   1.000000   1.000000
     12         -7.113686       -7.075470   1.000000   1.000000
     13         -5.345305       -5.304240   1.000000   1.000000
     14         -5.180912       -5.138897   1.000000   1.000000
     15         -4.721886       -4.671786   1.000000   1.000000
     16         -4.490888       -4.450190   1.000000   1.000000
     17         -3.701333       -3.656936   1.000000   1.000000
     18         -3.628998       -3.584535   1.000000   1.000000
     19         -3.051259       -2.962822   1.000000   1.000000
     20         -2.973991       -2.879471   1.000000   1.000000
     21         -2.833735       -2.764434   1.000000   1.000000
     22         -2.618146       -2.534999   1.000000   1.000000
     23         -2.395602       -2.311603   1.000000   1.000000
     24         -2.193064       -2.103801   1.000000   1.000000
     25         -1.862885       -1.781502   1.000000   1.000000
     26         -1.673653       -1.565097   1.000000   1.000000
     27         -1.160677       -1.079606   1.000000   1.000000
     28         -1.091303       -0.982969   1.000000   1.000000
     29         -0.724252       -0.620434   1.000000   1.000000
     30         -0.581480       -0.498743   1.000000   1.000000
     31         -0.450823       -0.372495   1.000000   1.000000
     32         -0.313238       -0.229866   1.000000   1.000000
     33          0.065879        0.246785   1.000000   1.000000
     34          0.178153        0.342368   1.000000   1.000000
     35          0.497552        0.654178   1.000000   1.000000
     36          0.648993        0.862434   1.000000   1.000000
     37          0.707121        1.032149   1.000000   1.000000
     38          0.757036        1.119847   1.000000   1.000000
     39          0.953798        1.232926   1.000000   1.000000
     40          0.991283        1.306078   1.000000   1.000000
     41          1.193513        1.850897   1.000000   0.000000
     42          1.317420        1.891115   1.000000   0.000000
     43          2.339205        2.435559   0.000000   0.000000
     44          2.423976        2.509227   0.000000   0.000000
     45          3.472941        3.510222   0.000000   0.000000
     46          3.577840        3.605191   0.000000   0.000000
     47          4.037505        4.072043   0.000000   0.000000
     48          4.387541        4.431961   0.000000   0.000000
     49          4.582849        4.625828   0.000000   0.000000
     50          4.841028        4.876904   0.000000   0.000000
     51          5.657491        5.704602   0.000000   0.000000
     52          5.890913        5.972308   0.000000   0.000000
     53          6.160163        6.222977   0.000000   0.000000
     54          6.512680        6.552112   0.000000   0.000000
     55          6.673454        6.717827   0.000000   0.000000
 
  0.1666667E+00 -0.3333333E+00  0.4000000E+00  0.1111111E-01
      1        -13.929503      -13.882450   1.000000   1.000000
      2        -13.833294      -13.787029   1.000000   1.000000
      3        -12.897729      -12.851541   1.000000   1.000000
      4        -12.837107      -12.790179   1.000000   1.000000
      5        -11.216752      -11.148283   1.000000   1.000000
      6        -11.186405      -11.116695   1.000000   1.000000
      7        -10.651339      -10.594186   1.000000   1.000000
      8        -10.565202      -10.499643   1.000000   1.000000
      9        -10.151977       -9.522187   1.000000   1.000000
     10        -10.113008       -9.480855   1.000000   1.000000
     11         -7.304520       -7.268163   1.000000   1.000000
     12         -7.198910       -7.162648   1.000000   1.000000
     13         -5.308860       -5.267406   1.000000   1.000000
     14         -5.161811       -5.117762   1.000000   1.000000
     15         -4.717564       -4.680173   1.000000   1.000000
     16         -4.492891       -4.457623   1.000000   1.000000
     17         -3.687410       -3.632905   1.000000   1.000000
     18         -3.549698       -3.500245   1.000000   1.000000
     19         -3.056565       -2.992208   1.000000   1.000000
     20         -2.993742       -2.922893   1.000000   1.000000
     21         -2.702886       -2.661298   1.000000   1.000000
     22         -2.552163       -2.480531   1.000000   1.000000
     23         -2.319077       -2.214605   1.000000   1.000000
     24         -2.197770       -2.117956   1.000000   1.000000
     25         -1.805578       -1.699376   1.000000   1.000000
     26         -1.599516       -1.495061   1.000000   1.000000
     27         -1.177772       -1.096171   1.000000   1.000000
     28         -1.006683       -0.947132   1.000000   1.000000
     29         -0.803149       -0.686897   1.000000   1.000000
     30         -0.681663       -0.603295   1.000000   1.000000
     31         -0.502648       -0.342790   1.000000   1.000000
     32         -0.342204       -0.244818   1.000000   1.000000
     33          0.062811        0.297265   1.000000   1.000000
     34          0.207612        0.424436   1.000000   1.000000
     35          0.378571        0.602685   1.000000   1.000000
     36          0.470411        0.860323   1.000000   1.000000
     37          0.674536        1.017326   1.000000   1.000000
     38          0.781687        1.127230   1.000000   1.000000
     39          0.942379        1.197718   1.000000   1.000000
     40          1.088323        1.266927   1.000000   1.000000
     41          1.138157        1.665014   1.000000   0.000018
     42          1.242056        1.701091   1.000000   0.000000
     43          2.409379        2.488718   0.000000   0.000000
     44          2.463671        2.531986   0.000000   0.000000
     45          3.401362        3.448120   0.000000   0.000000
     46          3.535731        3.579303   0.000000   0.000000
     47          4.083523        4.125612   0.000000   0.000000
     48          4.380606        4.427258   0.000000   0.000000
     49          4.561644        4.610837   0.000000   0.000000
     50          4.864677        4.914504   0.000000   0.000000
     51          5.647211        5.707253   0.000000   0.000000
     52          5.752865        5.812515   0.000000   0.000000
     53          5.971942        6.050915   0.000000   0.000000
     54          6.348549        6.393793   0.000000   0.000000
     55          6.698272        6.739897   0.000000   0.000000
 
 -0.3333333E+00  0.1666667E+00 -0.4000000E+00  0.1111111E-01
      1        -13.921711      -13.876135   1.000000   1.000000
      2        -13.826515      -13.781626   1.000000   1.000000
      3        -12.905826      -12.856089   1.000000   1.000000
      4        -12.842757      -12.792356   1.000000   1.000000
      5        -11.228613      -11.161829   1.000000   1.000000
      6        -11.202569      -11.135147   1.000000   1.000000
      7        -10.674904      -10.604942   1.000000   1.000000
      8        -10.601878      -10.519761   1.000000   1.000000
      9        -10.133162       -9.519496   1.000000   1.000000
     10        -10.068544       -9.457215   1.000000   1.000000
     11         -7.215988       -7.176839   1.000000   1.000000
     12         -7.113686       -7.075469   1.000000   1.000000
     13         -5.345306       -5.304241   1.000000   1.000000
     14         -5.180911       -5.138896   1.000000   1.000000
     15         -4.721886       -4.671786   1.000000   1.000000
     16         -4.490888       -4.450190   1.000000   1.000000
     17         -3.701333       -3.656937   1.000000   1.000000
     18         -3.628997       -3.584534   1.000000   1.000000
     19         -3.051259       -2.962822   1.000000   1.000000
     20         -2.973991       -2.879471   1.000000   1.000000
     21         -2.833736       -2.764435   1.000000   1.000000
     22         -2.618146       -2.534999   1.000000   1.000000
     23         -2.395602       -2.311602   1.000000   1.000000
     24         -2.193064       -2.103802   1.000000   1.000000
     25         -1.862886       -1.781502   1.000000   1.000000
     26         -1.673653       -1.565097   1.000000   1.000000
     27         -1.160677       -1.079605   1.000000   1.000000
     28         -1.091303       -0.982969   1.000000   1.000000
     29         -0.724252       -0.620434   1.000000   1.000000
     30         -0.581480       -0.498743   1.000000   1.000000
     31         -0.450823       -0.372495   1.000000   1.000000
     32         -0.313237       -0.229866   1.000000   1.000000
     33          0.065878        0.246784   1.000000   1.000000
     34          0.178154        0.342368   1.000000   1.000000
     35          0.497552        0.654178   1.000000   1.000000
     36          0.648993        0.862434   1.000000   1.000000
     37          0.707121        1.032149   1.000000   1.000000
     38          0.757036        1.119848   1.000000   1.000000
     39          0.953798        1.232926   1.000000   1.000000
     40          0.991282        1.306078   1.000000   1.000000
     41          1.193513        1.850897   1.000000   0.000000
     42          1.317420        1.891115   1.000000   0.000000
     43          2.339205        2.435559   0.000000   0.000000
     44          2.423975        2.509227   0.000000   0.000000
     45          3.472941        3.510221   0.000000   0.000000
     46          3.577840        3.605191   0.000000   0.000000
     47          4.037505        4.072043   0.000000   0.000000
     48          4.387541        4.431962   0.000000   0.000000
     49          4.582848        4.625827   0.000000   0.000000
     50          4.841028        4.876904   0.000000   0.000000
     51          5.657491        5.704602   0.000000   0.000000
     52          5.890913        5.972308   0.000000   0.000000
     53          6.160163        6.222978   0.000000   0.000000
     54          6.512653        6.552018   0.000000   0.000000
     55          6.678066        6.723344   0.000000   0.000000
 
  0.1666667E+00  0.3333333E+00 -0.4000000E+00  0.1111111E-01
      1        -13.929503      -13.882450   1.000000   1.000000
      2        -13.833294      -13.787029   1.000000   1.000000
      3        -12.897728      -12.851541   1.000000   1.000000
      4        -12.837107      -12.790179   1.000000   1.000000
      5        -11.216752      -11.148283   1.000000   1.000000
      6        -11.186405      -11.116696   1.000000   1.000000
      7        -10.651339      -10.594186   1.000000   1.000000
      8        -10.565201      -10.499643   1.000000   1.000000
      9        -10.151977       -9.522187   1.000000   1.000000
     10        -10.113008       -9.480855   1.000000   1.000000
     11         -7.304519       -7.268162   1.000000   1.000000
     12         -7.198911       -7.162648   1.000000   1.000000
     13         -5.308859       -5.267406   1.000000   1.000000
     14         -5.161812       -5.117763   1.000000   1.000000
     15         -4.717564       -4.680173   1.000000   1.000000
     16         -4.492891       -4.457623   1.000000   1.000000
     17         -3.687409       -3.632904   1.000000   1.000000
     18         -3.549699       -3.500246   1.000000   1.000000
     19         -3.056565       -2.992208   1.000000   1.000000
     20         -2.993742       -2.922892   1.000000   1.000000
     21         -2.702886       -2.661298   1.000000   1.000000
     22         -2.552163       -2.480531   1.000000   1.000000
     23         -2.319077       -2.214604   1.000000   1.000000
     24         -2.197770       -2.117956   1.000000   1.000000
     25         -1.805577       -1.699375   1.000000   1.000000
     26         -1.599517       -1.495061   1.000000   1.000000
     27         -1.177773       -1.096171   1.000000   1.000000
     28         -1.006683       -0.947132   1.000000   1.000000
     29         -0.803148       -0.686896   1.000000   1.000000
     30         -0.681663       -0.603296   1.000000   1.000000
     31         -0.502648       -0.342790   1.000000   1.000000
     32         -0.342203       -0.244818   1.000000   1.000000
     33          0.062812        0.297265   1.000000   1.000000
     34          0.207611        0.424435   1.000000   1.000000
     35          0.378571        0.602685   1.000000   1.000000
     36          0.470411        0.860323   1.000000   1.000000
     37          0.674536        1.017326   1.000000   1.000000
     38          0.781688        1.127230   1.000000   1.000000
     39          0.942379        1.197718   1.000000   1.000000
     40          1.088324        1.266928   1.000000   1.000000
     41          1.138157        1.665014   1.000000   0.000018
     42          1.242056        1.701091   1.000000   0.000000
     43          2.409379        2.488718   0.000000   0.000000
     44          2.463671        2.531986   0.000000   0.000000
     45          3.401362        3.448120   0.000000   0.000000
     46          3.535731        3.579303   0.000000   0.000000
     47          4.083523        4.125613   0.000000   0.000000
     48          4.380606        4.427257   0.000000   0.000000
     49          4.561645        4.610838   0.000000   0.000000
     50          4.864676        4.914503   0.000000   0.000000
     51          5.647211        5.707253   0.000000   0.000000
     52          5.752865        5.812515   0.000000   0.000000
     53          5.971942        6.050915   0.000000   0.000000
     54          6.348551        6.393787   0.000000   0.000000
     55          6.733778        6.737998   0.000000   0.000000
 
  0.3333333E+00 -0.1666667E+00 -0.4000000E+00  0.1111111E-01
      1        -13.921999      -13.876416   1.000000   1.000000
      2        -13.826185      -13.781306   1.000000   1.000000
      3        -12.905289      -12.855579   1.000000   1.000000
      4        -12.843425      -12.792995   1.000000   1.000000
      5        -11.223382      -11.157095   1.000000   1.000000
      6        -11.207472      -11.139531   1.000000   1.000000
      7        -10.675403      -10.603461   1.000000   1.000000
      8        -10.602021      -10.521897   1.000000   1.000000
      9        -10.127047       -9.515317   1.000000   1.000000
     10        -10.074510       -9.461242   1.000000   1.000000
     11         -7.212310       -7.172845   1.000000   1.000000
     12         -7.117953       -7.080077   1.000000   1.000000
     13         -5.353880       -5.313871   1.000000   1.000000
     14         -5.167902       -5.123823   1.000000   1.000000
     15         -4.686828       -4.637007   1.000000   1.000000
     16         -4.521942       -4.482231   1.000000   1.000000
     17         -3.730928       -3.686459   1.000000   1.000000
     18         -3.628694       -3.585162   1.000000   1.000000
     19         -3.105385       -2.989591   1.000000   1.000000
     20         -2.922813       -2.866903   1.000000   1.000000
     21         -2.729230       -2.660265   1.000000   1.000000
     22         -2.635835       -2.545038   1.000000   1.000000
     23         -2.430347       -2.336294   1.000000   1.000000
     24         -2.249813       -2.165611   1.000000   1.000000
     25         -1.836377       -1.745556   1.000000   1.000000
     26         -1.700229       -1.605598   1.000000   1.000000
     27         -1.187455       -1.101137   1.000000   1.000000
     28         -1.051179       -0.941610   1.000000   1.000000
     29         -0.679409       -0.606836   1.000000   1.000000
     30         -0.603673       -0.495985   1.000000   1.000000
     31         -0.459171       -0.372234   1.000000   1.000000
     32         -0.313490       -0.226636   1.000000   1.000000
     33          0.087018        0.256279   1.000000   1.000000
     34          0.163713        0.327421   1.000000   1.000000
     35          0.545335        0.749310   1.000000   1.000000
     36          0.647849        0.861194   1.000000   1.000000
     37          0.685894        0.977200   1.000000   1.000000
     38          0.762390        1.081723   1.000000   1.000000
     39          0.912983        1.207631   1.000000   1.000000
     40          1.024701        1.346698   1.000000   0.999999
     41          1.194989        1.828843   1.000000   0.000000
     42          1.305671        1.910834   1.000000   0.000000
     43          2.329632        2.430554   0.000000   0.000000
     44          2.406669        2.490399   0.000000   0.000000
     45          3.500248        3.533029   0.000000   0.000000
     46          3.528758        3.562347   0.000000   0.000000
     47          4.087746        4.122841   0.000000   0.000000
     48          4.327697        4.372625   0.000000   0.000000
     49          4.631149        4.671657   0.000000   0.000000
     50          4.842450        4.878407   0.000000   0.000000
     51          5.611740        5.663504   0.000000   0.000000
     52          5.900909        5.965646   0.000000   0.000000
     53          6.129367        6.203030   0.000000   0.000000
     54          6.569496        6.616408   0.000000   0.000000
     55          6.618673        6.704578   0.000000   0.000000
 
 -0.1666667E+00 -0.3333333E+00 -0.4000000E+00  0.1111111E-01
      1        -13.929905      -13.882856   1.000000   1.000000
      2        -13.832840      -13.786573   1.000000   1.000000
      3        -12.897148      -12.850996   1.000000   1.000000
      4        -12.837776      -12.790806   1.000000   1.000000
      5        -11.215341      -11.147336   1.000000   1.000000
      6        -11.187713      -11.117507   1.000000   1.000000
      7        -10.649578      -10.592495   1.000000   1.000000
      8        -10.567374      -10.501813   1.000000   1.000000
      9        -10.151584       -9.521874   1.000000   1.000000
     10        -10.113341       -9.481062   1.000000   1.000000
     11         -7.298678       -7.261955   1.000000   1.000000
     12         -7.203154       -7.167240   1.000000   1.000000
     13         -5.319566       -5.280042   1.000000   1.000000
     14         -5.155786       -5.110782   1.000000   1.000000
     15         -4.704601       -4.662146   1.000000   1.000000
     16         -4.507883       -4.476650   1.000000   1.000000
     17         -3.683214       -3.630870   1.000000   1.000000
     18         -3.561037       -3.509527   1.000000   1.000000
     19         -3.070243       -2.997813   1.000000   1.000000
     20         -2.950224       -2.893788   1.000000   1.000000
     21         -2.673523       -2.617259   1.000000   1.000000
     22         -2.503077       -2.444630   1.000000   1.000000
     23         -2.348769       -2.253049   1.000000   1.000000
     24         -2.279962       -2.183495   1.000000   1.000000
     25         -1.842546       -1.743393   1.000000   1.000000
     26         -1.572647       -1.474376   1.000000   1.000000
     27         -1.194171       -1.101487   1.000000   1.000000
     28         -0.974028       -0.913764   1.000000   1.000000
     29         -0.799169       -0.680212   1.000000   1.000000
     30         -0.715399       -0.642885   1.000000   1.000000
     31         -0.434899       -0.295682   1.000000   1.000000
     32         -0.335835       -0.219646   1.000000   1.000000
     33          0.018098        0.279874   1.000000   1.000000
     34          0.247258        0.426549   1.000000   1.000000
     35          0.357574        0.671390   1.000000   1.000000
     36          0.458632        0.817013   1.000000   1.000000
     37          0.711353        1.005457   1.000000   1.000000
     38          0.789930        1.082753   1.000000   1.000000
     39          0.954410        1.162764   1.000000   1.000000
     40          1.026828        1.308724   1.000000   1.000000
     41          1.111273        1.639714   1.000000   0.000319
     42          1.289204        1.746475   1.000000   0.000000
     43          2.391934        2.463980   0.000000   0.000000
     44          2.452232        2.529113   0.000000   0.000000
     45          3.364041        3.410809   0.000000   0.000000
     46          3.556934        3.602283   0.000000   0.000000
     47          4.148354        4.192546   0.000000   0.000000
     48          4.314216        4.356175   0.000000   0.000000
     49          4.617505        4.666012   0.000000   0.000000
     50          4.863386        4.914411   0.000000   0.000000
     51          5.620263        5.669289   0.000000   0.000000
     52          5.810556        5.869016   0.000000   0.000000
     53          5.893716        5.985988   0.000000   0.000000
     54          6.391779        6.440559   0.000000   0.000000
     55          6.804494        6.778908   0.000000   0.000000
 
  0.5000000E+00  0.1666667E+00  0.4000000E+00  0.1111111E-01
      1        -13.913657      -13.868996   1.000000   1.000000
      2        -13.819103      -13.775084   1.000000   1.000000
      3        -12.912885      -12.861669   1.000000   1.000000
      4        -12.848883      -12.797050   1.000000   1.000000
      5        -11.237076      -11.170554   1.000000   1.000000
      6        -11.225801      -11.158908   1.000000   1.000000
      7        -10.677755      -10.598014   1.000000   1.000000
      8        -10.613470      -10.526909   1.000000   1.000000
      9        -10.118963       -9.516252   1.000000   1.000000
     10        -10.061147       -9.457729   1.000000   1.000000
     11         -7.142653       -7.102026   1.000000   1.000000
     12         -7.128998       -7.088991   1.000000   1.000000
     13         -5.322808       -5.281972   1.000000   1.000000
     14         -5.166015       -5.121885   1.000000   1.000000
     15         -4.662591       -4.612198   1.000000   1.000000
     16         -4.530248       -4.487564   1.000000   1.000000
     17         -3.717425       -3.673757   1.000000   1.000000
     18         -3.624657       -3.584618   1.000000   1.000000
     19         -3.115954       -2.997657   1.000000   1.000000
     20         -2.937416       -2.881864   1.000000   1.000000
     21         -2.857698       -2.799549   1.000000   1.000000
     22         -2.714150       -2.596194   1.000000   1.000000
     23         -2.203231       -2.103785   1.000000   1.000000
     24         -2.143631       -2.054701   1.000000   1.000000
     25         -1.999370       -1.913889   1.000000   1.000000
     26         -1.776409       -1.708632   1.000000   1.000000
     27         -1.154522       -1.069318   1.000000   1.000000
     28         -1.047509       -0.920540   1.000000   1.000000
     29         -0.678577       -0.586333   1.000000   1.000000
     30         -0.631437       -0.566182   1.000000   1.000000
     31         -0.469362       -0.401812   1.000000   1.000000
     32         -0.377498       -0.280792   1.000000   1.000000
     33          0.058897        0.239420   1.000000   1.000000
     34          0.218011        0.405349   1.000000   1.000000
     35          0.605376        0.797288   1.000000   1.000000
     36          0.667634        0.848255   1.000000   1.000000
     37          0.685158        0.931790   1.000000   1.000000
     38          0.755812        1.043282   1.000000   1.000000
     39          0.897238        1.292105   1.000000   1.000000
     40          0.968713        1.292627   1.000000   1.000000
     41          1.207788        1.805656   1.000000   0.000000
     42          1.263375        1.886138   1.000000   0.000000
     43          2.266603        2.378691   0.000000   0.000000
     44          2.323058        2.433251   0.000000   0.000000
     45          3.523921        3.553460   0.000000   0.000000
     46          3.559173        3.585891   0.000000   0.000000
     47          4.215717        4.256274   0.000000   0.000000
     48          4.308257        4.347035   0.000000   0.000000
     49          4.648776        4.683249   0.000000   0.000000
     50          4.840390        4.870992   0.000000   0.000000
     51          5.721755        5.782686   0.000000   0.000000
     52          5.838764        5.883904   0.000000   0.000000
     53          6.421700        6.484523   0.000000   0.000000
     54          6.495443        6.571454   0.000000   0.000000
     55          6.658400        6.719901   0.000000   0.000000
 
 -0.1666667E+00  0.5000000E+00  0.4000000E+00  0.1111111E-01
      1        -13.925515      -13.878596   1.000000   1.000000
      2        -13.829450      -13.783305   1.000000   1.000000
      3        -12.900641      -12.854846   1.000000   1.000000
      4        -12.839855      -12.793303   1.000000   1.000000
      5        -11.226824      -11.157728   1.000000   1.000000
      6        -11.195600      -11.125085   1.000000   1.000000
      7        -10.641899      -10.583371   1.000000   1.000000
      8        -10.559710      -10.494660   1.000000   1.000000
      9        -10.155520       -9.526437   1.000000   1.000000
     10        -10.116835       -9.485593   1.000000   1.000000
     11         -7.288380       -7.252102   1.000000   1.000000
     12         -7.245501       -7.209096   1.000000   1.000000
     13         -5.240640       -5.197954   1.000000   1.000000
     14         -5.153913       -5.108894   1.000000   1.000000
     15         -4.704254       -4.667554   1.000000   1.000000
     16         -4.506999       -4.474943   1.000000   1.000000
     17         -3.652206       -3.596997   1.000000   1.000000
     18         -3.570491       -3.520132   1.000000   1.000000
     19         -3.054811       -2.991477   1.000000   1.000000
     20         -2.986139       -2.925746   1.000000   1.000000
     21         -2.684350       -2.635486   1.000000   1.000000
     22         -2.537993       -2.480110   1.000000   1.000000
     23         -2.230103       -2.143376   1.000000   1.000000
     24         -2.123432       -2.057093   1.000000   1.000000
     25         -1.797308       -1.686299   1.000000   1.000000
     26         -1.740329       -1.622691   1.000000   1.000000
     27         -1.123494       -1.059643   1.000000   1.000000
     28         -1.030871       -0.970100   1.000000   1.000000
     29         -0.716084       -0.645032   1.000000   1.000000
     30         -0.683742       -0.605249   1.000000   1.000000
     31         -0.566835       -0.385589   1.000000   1.000000
     32         -0.477196       -0.289211   1.000000   1.000000
     33          0.074950        0.316068   1.000000   1.000000
     34          0.173384        0.427619   1.000000   1.000000
     35          0.367807        0.661673   1.000000   1.000000
     36          0.385768        0.776313   1.000000   1.000000
     37          0.668688        1.025697   1.000000   1.000000
     38          0.747068        1.047235   1.000000   1.000000
     39          0.956478        1.139186   1.000000   1.000000
     40          1.033026        1.272232   1.000000   1.000000
     41          1.122685        1.572989   1.000000   0.063280
     42          1.228027        1.647672   1.000000   0.000136
     43          2.386332        2.456097   0.000000   0.000000
     44          2.410409        2.487443   0.000000   0.000000
     45          3.363248        3.414049   0.000000   0.000000
     46          3.548885        3.596395   0.000000   0.000000
     47          4.264444        4.308265   0.000000   0.000000
     48          4.360797        4.404546   0.000000   0.000000
     49          4.705489        4.755458   0.000000   0.000000
     50          4.763305        4.813657   0.000000   0.000000
     51          5.643412        5.707127   0.000000   0.000000
     52          5.807477        5.852426   0.000000   0.000000
     53          6.108494        6.183286   0.000000   0.000000
     54          6.186191        6.262039   0.000000   0.000000
     55          6.713526        6.752406   0.000000   0.000000
 
  0.5000000E+00 -0.1666667E+00  0.4000000E+00  0.1111111E-01
      1        -13.913429      -13.868781   1.000000   1.000000
      2        -13.819374      -13.775339   1.000000   1.000000
      3        -12.913364      -12.862127   1.000000   1.000000
      4        -12.848258      -12.796446   1.000000   1.000000
      5        -11.243218      -11.176499   1.000000   1.000000
      6        -11.220190      -11.153499   1.000000   1.000000
      7        -10.675778      -10.599230   1.000000   1.000000
      8        -10.614408      -10.524816   1.000000   1.000000
      9        -10.128058       -9.522571   1.000000   1.000000
     10        -10.052419       -9.451615   1.000000   1.000000
     11         -7.150547       -7.110812   1.000000   1.000000
     12         -7.119428       -7.078479   1.000000   1.000000
     13         -5.303156       -5.260673   1.000000   1.000000
     14         -5.199831       -5.159621   1.000000   1.000000
     15         -4.704600       -4.649962   1.000000   1.000000
     16         -4.486938       -4.445754   1.000000   1.000000
     17         -3.685055       -3.646141   1.000000   1.000000
     18         -3.615045       -3.568751   1.000000   1.000000
     19         -3.068393       -3.002333   1.000000   1.000000
     20         -3.033776       -2.941314   1.000000   1.000000
     21         -2.871885       -2.763508   1.000000   1.000000
     22         -2.685479       -2.601749   1.000000   1.000000
     23         -2.263444       -2.172632   1.000000   1.000000
     24         -2.084835       -2.000633   1.000000   1.000000
     25         -1.894402       -1.813657   1.000000   1.000000
     26         -1.870602       -1.785739   1.000000   1.000000
     27         -1.076310       -0.990463   1.000000   1.000000
     28         -1.050128       -0.919345   1.000000   1.000000
     29         -0.794011       -0.697015   1.000000   1.000000
     30         -0.678324       -0.622196   1.000000   1.000000
     31         -0.424697       -0.324162   1.000000   1.000000
     32         -0.343046       -0.290642   1.000000   1.000000
     33          0.097497        0.287581   1.000000   1.000000
     34          0.189477        0.377198   1.000000   1.000000
     35          0.525339        0.675365   1.000000   1.000000
     36          0.648557        0.847250   1.000000   1.000000
     37          0.713382        1.024066   1.000000   1.000000
     38          0.779334        1.066257   1.000000   1.000000
     39          0.920489        1.265100   1.000000   1.000000
     40          0.959393        1.285669   1.000000   1.000000
     41          1.182401        1.846728   1.000000   0.000000
     42          1.288177        1.854307   1.000000   0.000000
     43          2.297768        2.412513   0.000000   0.000000
     44          2.322371        2.431734   0.000000   0.000000
     45          3.514557        3.540564   0.000000   0.000000
     46          3.572151        3.596162   0.000000   0.000000
     47          4.198304        4.240124   0.000000   0.000000
     48          4.334462        4.371009   0.000000   0.000000
     49          4.725943        4.759957   0.000000   0.000000
     50          4.739590        4.774684   0.000000   0.000000
     51          5.728466        5.788660   0.000000   0.000000
     52          5.928173        5.982351   0.000000   0.000000
     53          6.350165        6.401368   0.000000   0.000000
     54          6.537010        6.606112   0.000000   0.000000
     55          6.704869        6.764442   0.000000   0.000000
 
  0.1666667E+00  0.5000000E+00  0.4000000E+00  0.1111111E-01
      1        -13.925515      -13.878596   1.000000   1.000000
      2        -13.829450      -13.783305   1.000000   1.000000
      3        -12.900641      -12.854846   1.000000   1.000000
      4        -12.839855      -12.793303   1.000000   1.000000
      5        -11.226824      -11.157728   1.000000   1.000000
      6        -11.195600      -11.125085   1.000000   1.000000
      7        -10.641899      -10.583371   1.000000   1.000000
      8        -10.559710      -10.494660   1.000000   1.000000
      9        -10.155520       -9.526437   1.000000   1.000000
     10        -10.116835       -9.485593   1.000000   1.000000
     11         -7.288380       -7.252102   1.000000   1.000000
     12         -7.245501       -7.209096   1.000000   1.000000
     13         -5.240640       -5.197954   1.000000   1.000000
     14         -5.153913       -5.108894   1.000000   1.000000
     15         -4.704254       -4.667554   1.000000   1.000000
     16         -4.506999       -4.474943   1.000000   1.000000
     17         -3.652206       -3.596997   1.000000   1.000000
     18         -3.570491       -3.520132   1.000000   1.000000
     19         -3.054810       -2.991477   1.000000   1.000000
     20         -2.986139       -2.925746   1.000000   1.000000
     21         -2.684350       -2.635486   1.000000   1.000000
     22         -2.537993       -2.480110   1.000000   1.000000
     23         -2.230103       -2.143376   1.000000   1.000000
     24         -2.123432       -2.057093   1.000000   1.000000
     25         -1.797307       -1.686299   1.000000   1.000000
     26         -1.740330       -1.622692   1.000000   1.000000
     27         -1.123494       -1.059643   1.000000   1.000000
     28         -1.030871       -0.970100   1.000000   1.000000
     29         -0.716084       -0.645032   1.000000   1.000000
     30         -0.683741       -0.605249   1.000000   1.000000
     31         -0.566835       -0.385588   1.000000   1.000000
     32         -0.477196       -0.289212   1.000000   1.000000
     33          0.074950        0.316068   1.000000   1.000000
     34          0.173384        0.427619   1.000000   1.000000
     35          0.367807        0.661673   1.000000   1.000000
     36          0.385768        0.776313   1.000000   1.000000
     37          0.668688        1.025697   1.000000   1.000000
     38          0.747068        1.047236   1.000000   1.000000
     39          0.956479        1.139185   1.000000   1.000000
     40          1.033025        1.272232   1.000000   1.000000
     41          1.122684        1.572989   1.000000   0.063280
     42          1.228027        1.647672   1.000000   0.000136
     43          2.386331        2.456097   0.000000   0.000000
     44          2.410409        2.487443   0.000000   0.000000
     45          3.363248        3.414049   0.000000   0.000000
     46          3.548885        3.596395   0.000000   0.000000
     47          4.264444        4.308265   0.000000   0.000000
     48          4.360797        4.404546   0.000000   0.000000
     49          4.705490        4.755458   0.000000   0.000000
     50          4.763304        4.813657   0.000000   0.000000
     51          5.643412        5.707127   0.000000   0.000000
     52          5.807477        5.852426   0.000000   0.000000
     53          6.108494        6.183286   0.000000   0.000000
     54          6.186191        6.262040   0.000000   0.000000
     55          6.717390        6.746439   0.000000   0.000000
 
  0.3333333E+00  0.3333333E+00  0.4000000E+00  0.1111111E-01
      1        -13.916797      -13.871342   1.000000   1.000000
      2        -13.821756      -13.776981   1.000000   1.000000
      3        -12.901673      -12.853330   1.000000   1.000000
      4        -12.838960      -12.789918   1.000000   1.000000
      5        -11.248075      -11.179121   1.000000   1.000000
      6        -11.222240      -11.151202   1.000000   1.000000
      7        -10.692682      -10.617104   1.000000   1.000000
      8        -10.612009      -10.525889   1.000000   1.000000
      9        -10.122761       -9.516178   1.000000   1.000000
     10        -10.068289       -9.461217   1.000000   1.000000
     11         -7.184987       -7.146532   1.000000   1.000000
     12         -7.085755       -7.048888   1.000000   1.000000
     13         -5.365999       -5.325594   1.000000   1.000000
     14         -5.184370       -5.139528   1.000000   1.000000
     15         -4.676909       -4.629563   1.000000   1.000000
     16         -4.506878       -4.469777   1.000000   1.000000
     17         -3.724476       -3.678449   1.000000   1.000000
     18         -3.622557       -3.578218   1.000000   1.000000
     19         -3.023635       -2.942004   1.000000   1.000000
     20         -2.929093       -2.866526   1.000000   1.000000
     21         -2.736237       -2.691639   1.000000   1.000000
     22         -2.544436       -2.456197   1.000000   1.000000
     23         -2.376252       -2.287612   1.000000   1.000000
     24         -2.154989       -2.068813   1.000000   1.000000
     25         -1.903393       -1.794040   1.000000   1.000000
     26         -1.607777       -1.498532   1.000000   1.000000
     27         -1.255084       -1.178025   1.000000   1.000000
     28         -1.106347       -1.024163   1.000000   1.000000
     29         -0.663878       -0.546894   1.000000   1.000000
     30         -0.609774       -0.536204   1.000000   1.000000
     31         -0.432198       -0.342320   1.000000   1.000000
     32         -0.359036       -0.210743   1.000000   1.000000
     33          0.015562        0.223481   1.000000   1.000000
     34          0.111099        0.279822   1.000000   1.000000
     35          0.370534        0.612655   1.000000   1.000000
     36          0.484957        0.795790   1.000000   1.000000
     37          0.638196        1.018918   1.000000   1.000000
     38          0.706551        1.047942   1.000000   1.000000
     39          0.963052        1.158951   1.000000   1.000000
     40          1.033080        1.341583   1.000000   1.000000
     41          1.192020        1.659085   1.000000   0.000037
     42          1.276657        1.787125   1.000000   0.000000
     43          2.327754        2.433956   0.000000   0.000000
     44          2.391955        2.493221   0.000000   0.000000
     45          3.473594        3.503553   0.000000   0.000000
     46          3.523781        3.564899   0.000000   0.000000
     47          3.995926        4.030540   0.000000   0.000000
     48          4.275652        4.318465   0.000000   0.000000
     49          4.664263        4.710167   0.000000   0.000000
     50          4.833321        4.874375   0.000000   0.000000
     51          5.767226        5.826158   0.000000   0.000000
     52          6.039897        6.115112   0.000000   0.000000
     53          6.214662        6.295899   0.000000   0.000000
     54          6.588834        6.624819   0.000000   0.000000
     55          6.670882        6.712820   0.000000   0.000000
 
 -0.3333333E+00  0.3333333E+00  0.4000000E+00  0.1111111E-01
      1        -13.916797      -13.871342   1.000000   1.000000
      2        -13.821756      -13.776981   1.000000   1.000000
      3        -12.901674      -12.853331   1.000000   1.000000
      4        -12.838960      -12.789918   1.000000   1.000000
      5        -11.248076      -11.179121   1.000000   1.000000
      6        -11.222240      -11.151201   1.000000   1.000000
      7        -10.692682      -10.617104   1.000000   1.000000
      8        -10.612009      -10.525889   1.000000   1.000000
      9        -10.122761       -9.516178   1.000000   1.000000
     10        -10.068289       -9.461217   1.000000   1.000000
     11         -7.184987       -7.146533   1.000000   1.000000
     12         -7.085754       -7.048887   1.000000   1.000000
     13         -5.366000       -5.325595   1.000000   1.000000
     14         -5.184369       -5.139527   1.000000   1.000000
     15         -4.676909       -4.629563   1.000000   1.000000
     16         -4.506878       -4.469777   1.000000   1.000000
     17         -3.724476       -3.678449   1.000000   1.000000
     18         -3.622557       -3.578218   1.000000   1.000000
     19         -3.023635       -2.942004   1.000000   1.000000
     20         -2.929093       -2.866526   1.000000   1.000000
     21         -2.736237       -2.691639   1.000000   1.000000
     22         -2.544436       -2.456197   1.000000   1.000000
     23         -2.376252       -2.287612   1.000000   1.000000
     24         -2.154989       -2.068814   1.000000   1.000000
     25         -1.903394       -1.794040   1.000000   1.000000
     26         -1.607776       -1.498531   1.000000   1.000000
     27         -1.255084       -1.178024   1.000000   1.000000
     28         -1.106347       -1.024163   1.000000   1.000000
     29         -0.663879       -0.546894   1.000000   1.000000
     30         -0.609774       -0.536204   1.000000   1.000000
     31         -0.432198       -0.342320   1.000000   1.000000
     32         -0.359036       -0.210743   1.000000   1.000000
     33          0.015562        0.223482   1.000000   1.000000
     34          0.111099        0.279821   1.000000   1.000000
     35          0.370534        0.612655   1.000000   1.000000
     36          0.484958        0.795790   1.000000   1.000000
     37          0.638195        1.018918   1.000000   1.000000
     38          0.706551        1.047942   1.000000   1.000000
     39          0.963052        1.158951   1.000000   1.000000
     40          1.033080        1.341583   1.000000   1.000000
     41          1.192020        1.659085   1.000000   0.000037
     42          1.276657        1.787124   1.000000   0.000000
     43          2.327754        2.433956   0.000000   0.000000
     44          2.391954        2.493221   0.000000   0.000000
     45          3.473594        3.503554   0.000000   0.000000
     46          3.523781        3.564899   0.000000   0.000000
     47          3.995926        4.030540   0.000000   0.000000
     48          4.275653        4.318466   0.000000   0.000000
     49          4.664262        4.710166   0.000000   0.000000
     50          4.833321        4.874375   0.000000   0.000000
     51          5.767226        5.826158   0.000000   0.000000
     52          6.039897        6.115112   0.000000   0.000000
     53          6.214662        6.295899   0.000000   0.000000
     54          6.588676        6.624806   0.000000   0.000000
     55          6.668820        6.712596   0.000000   0.000000
 
 -0.3333333E+00 -0.3333333E+00  0.4000000E+00  0.1111111E-01
      1        -13.916507      -13.871059   1.000000   1.000000
      2        -13.822090      -13.777306   1.000000   1.000000
      3        -12.902210      -12.853838   1.000000   1.000000
      4        -12.838289      -12.789279   1.000000   1.000000
      5        -11.253026      -11.183711   1.000000   1.000000
      6        -11.217499      -11.146826   1.000000   1.000000
      7        -10.692406      -10.618680   1.000000   1.000000
      8        -10.611774      -10.523809   1.000000   1.000000
      9        -10.128941       -9.520407   1.000000   1.000000
     10        -10.062245       -9.457123   1.000000   1.000000
     11         -7.188337       -7.150277   1.000000   1.000000
     12         -7.081852       -7.044558   1.000000   1.000000
     13         -5.353736       -5.312000   1.000000   1.000000
     14         -5.201332       -5.159076   1.000000   1.000000
     15         -4.718105       -4.670048   1.000000   1.000000
     16         -4.465883       -4.428005   1.000000   1.000000
     17         -3.710977       -3.665286   1.000000   1.000000
     18         -3.606400       -3.561360   1.000000   1.000000
     19         -3.001137       -2.933181   1.000000   1.000000
     20         -2.940135       -2.887030   1.000000   1.000000
     21         -2.825631       -2.738797   1.000000   1.000000
     22         -2.572868       -2.497885   1.000000   1.000000
     23         -2.324083       -2.243502   1.000000   1.000000
     24         -2.084080       -2.003701   1.000000   1.000000
     25         -1.907858       -1.795364   1.000000   1.000000
     26         -1.617919       -1.499472   1.000000   1.000000
     27         -1.227286       -1.157350   1.000000   1.000000
     28         -1.135258       -1.048608   1.000000   1.000000
     29         -0.722992       -0.627216   1.000000   1.000000
     30         -0.591175       -0.500854   1.000000   1.000000
     31         -0.457145       -0.323908   1.000000   1.000000
     32         -0.331340       -0.223544   1.000000   1.000000
     33          0.006783        0.183984   1.000000   1.000000
     34          0.131412        0.343858   1.000000   1.000000
     35          0.366177        0.554177   1.000000   1.000000
     36          0.500612        0.763341   1.000000   1.000000
     37          0.599278        1.051567   1.000000   1.000000
     38          0.698014        1.098287   1.000000   1.000000
     39          0.958103        1.179994   1.000000   1.000000
     40          1.056428        1.288901   1.000000   1.000000
     41          1.178606        1.697049   1.000000   0.000000
     42          1.285277        1.754612   1.000000   0.000000
     43          2.334834        2.447639   0.000000   0.000000
     44          2.420004        2.512786   0.000000   0.000000
     45          3.456998        3.492039   0.000000   0.000000
     46          3.564721        3.599876   0.000000   0.000000
     47          3.932460        3.966489   0.000000   0.000000
     48          4.322980        4.364413   0.000000   0.000000
     49          4.645952        4.695310   0.000000   0.000000
     50          4.826712        4.867443   0.000000   0.000000
     51          5.839908        5.896792   0.000000   0.000000
     52          5.976983        6.062005   0.000000   0.000000
     53          6.244657        6.312641   0.000000   0.000000
     54          6.579303        6.627139   0.000000   0.000000
     55          6.719068        6.764394   0.000000   0.000000
 
  0.3333333E+00 -0.3333333E+00  0.4000000E+00  0.1111111E-01
      1        -13.916507      -13.871059   1.000000   1.000000
      2        -13.822090      -13.777306   1.000000   1.000000
      3        -12.902210      -12.853839   1.000000   1.000000
      4        -12.838289      -12.789279   1.000000   1.000000
      5        -11.253027      -11.183711   1.000000   1.000000
      6        -11.217499      -11.146826   1.000000   1.000000
      7        -10.692406      -10.618680   1.000000   1.000000
      8        -10.611775      -10.523809   1.000000   1.000000
      9        -10.128941       -9.520407   1.000000   1.000000
     10        -10.062245       -9.457123   1.000000   1.000000
     11         -7.188338       -7.150278   1.000000   1.000000
     12         -7.081851       -7.044558   1.000000   1.000000
     13         -5.353736       -5.312001   1.000000   1.000000
     14         -5.201331       -5.159075   1.000000   1.000000
     15         -4.718105       -4.670048   1.000000   1.000000
     16         -4.465883       -4.428005   1.000000   1.000000
     17         -3.710978       -3.665286   1.000000   1.000000
     18         -3.606400       -3.561360   1.000000   1.000000
     19         -3.001137       -2.933181   1.000000   1.000000
     20         -2.940135       -2.887030   1.000000   1.000000
     21         -2.825631       -2.738797   1.000000   1.000000
     22         -2.572868       -2.497885   1.000000   1.000000
     23         -2.324082       -2.243502   1.000000   1.000000
     24         -2.084080       -2.003701   1.000000   1.000000
     25         -1.907859       -1.795365   1.000000   1.000000
     26         -1.617918       -1.499471   1.000000   1.000000
     27         -1.227286       -1.157349   1.000000   1.000000
     28         -1.135258       -1.048608   1.000000   1.000000
     29         -0.722992       -0.627216   1.000000   1.000000
     30         -0.591175       -0.500854   1.000000   1.000000
     31         -0.457145       -0.323908   1.000000   1.000000
     32         -0.331340       -0.223544   1.000000   1.000000
     33          0.006783        0.183984   1.000000   1.000000
     34          0.131412        0.343858   1.000000   1.000000
     35          0.366177        0.554177   1.000000   1.000000
     36          0.500612        0.763341   1.000000   1.000000
     37          0.599278        1.051567   1.000000   1.000000
     38          0.698014        1.098287   1.000000   1.000000
     39          0.958103        1.179994   1.000000   1.000000
     40          1.056427        1.288901   1.000000   1.000000
     41          1.178606        1.697049   1.000000   0.000000
     42          1.285277        1.754612   1.000000   0.000000
     43          2.334834        2.447639   0.000000   0.000000
     44          2.420004        2.512786   0.000000   0.000000
     45          3.456998        3.492039   0.000000   0.000000
     46          3.564722        3.599876   0.000000   0.000000
     47          3.932460        3.966489   0.000000   0.000000
     48          4.322980        4.364413   0.000000   0.000000
     49          4.645951        4.695310   0.000000   0.000000
     50          4.826712        4.867443   0.000000   0.000000
     51          5.839908        5.896792   0.000000   0.000000
     52          5.976982        6.062005   0.000000   0.000000
     53          6.244657        6.312640   0.000000   0.000000
     54          6.579078        6.627178   0.000000   0.000000
     55          6.719453        6.765827   0.000000   0.000000
 
  0.5000000E+00  0.3333333E+00  0.4000000E+00  0.1111111E-01
      1        -13.910069      -13.865453   1.000000   1.000000
      2        -13.816130      -13.772134   1.000000   1.000000
      3        -12.904008      -12.854483   1.000000   1.000000
      4        -12.839973      -12.789803   1.000000   1.000000
      5        -11.262248      -11.193264   1.000000   1.000000
      6        -11.238277      -11.167836   1.000000   1.000000
      7        -10.712867      -10.627486   1.000000   1.000000
      8        -10.637164      -10.541813   1.000000   1.000000
      9        -10.108260       -9.511917   1.000000   1.000000
     10        -10.046773       -9.451631   1.000000   1.000000
     11         -7.086797       -7.048226   1.000000   1.000000
     12         -7.064265       -7.026174   1.000000   1.000000
     13         -5.369035       -5.328022   1.000000   1.000000
     14         -5.239453       -5.195948   1.000000   1.000000
     15         -4.648387       -4.597973   1.000000   1.000000
     16         -4.498028       -4.457329   1.000000   1.000000
     17         -3.755520       -3.711823   1.000000   1.000000
     18         -3.651549       -3.610350   1.000000   1.000000
     19         -2.973213       -2.870816   1.000000   1.000000
     20         -2.908253       -2.864125   1.000000   1.000000
     21         -2.836346       -2.785369   1.000000   1.000000
     22         -2.541020       -2.440006   1.000000   1.000000
     23         -2.256146       -2.190267   1.000000   1.000000
     24         -2.187540       -2.105659   1.000000   1.000000
     25         -1.914680       -1.777682   1.000000   1.000000
     26         -1.711025       -1.607726   1.000000   1.000000
     27         -1.258620       -1.186855   1.000000   1.000000
     28         -1.166457       -1.071123   1.000000   1.000000
     29         -0.592257       -0.516904   1.000000   1.000000
     30         -0.541502       -0.448891   1.000000   1.000000
     31         -0.423133       -0.352797   1.000000   1.000000
     32         -0.414528       -0.252258   1.000000   1.000000
     33          0.004597        0.211418   1.000000   1.000000
     34          0.065063        0.236821   1.000000   1.000000
     35          0.430089        0.648796   1.000000   1.000000
     36          0.468797        0.714779   1.000000   1.000000
     37          0.617814        0.987866   1.000000   1.000000
     38          0.664896        1.027605   1.000000   1.000000
     39          0.956246        1.226979   1.000000   1.000000
     40          1.036252        1.330000   1.000000   1.000000
     41          1.195034        1.688221   1.000000   0.000001
     42          1.300078        1.798060   1.000000   0.000000
     43          2.322754        2.444916   0.000000   0.000000
     44          2.354230        2.472472   0.000000   0.000000
     45          3.496542        3.524731   0.000000   0.000000
     46          3.514351        3.540186   0.000000   0.000000
     47          4.026865        4.057638   0.000000   0.000000
     48          4.100492        4.134715   0.000000   0.000000
     49          4.686276        4.732633   0.000000   0.000000
     50          4.826724        4.865348   0.000000   0.000000
     51          5.945938        6.019147   0.000000   0.000000
     52          6.098295        6.167159   0.000000   0.000000
     53          6.454800        6.535538   0.000000   0.000000
     54          6.550959        6.603755   0.000000   0.000000
     55          6.750154        6.792840   0.000000   0.000000
 
 -0.3333333E+00  0.5000000E+00  0.4000000E+00  0.1111111E-01
      1        -13.914020      -13.868632   1.000000   1.000000
      2        -13.819718      -13.774991   1.000000   1.000000
      3        -12.899915      -12.852266   1.000000   1.000000
      4        -12.836606      -12.788271   1.000000   1.000000
      5        -11.262607      -11.192039   1.000000   1.000000
      6        -11.227434      -11.155195   1.000000   1.000000
      7        -10.698898      -10.622089   1.000000   1.000000
      8        -10.618995      -10.529530   1.000000   1.000000
      9        -10.123751       -9.518404   1.000000   1.000000
     10        -10.062468       -9.459522   1.000000   1.000000
     11         -7.142714       -7.105803   1.000000   1.000000
     12         -7.100258       -7.062767   1.000000   1.000000
     13         -5.330310       -5.288729   1.000000   1.000000
     14         -5.234317       -5.191117   1.000000   1.000000
     15         -4.693353       -4.646757   1.000000   1.000000
     16         -4.483337       -4.446721   1.000000   1.000000
     17         -3.709574       -3.662851   1.000000   1.000000
     18         -3.609660       -3.564566   1.000000   1.000000
     19         -3.001729       -2.935208   1.000000   1.000000
     20         -2.946091       -2.894087   1.000000   1.000000
     21         -2.701907       -2.638906   1.000000   1.000000
     22         -2.589325       -2.521828   1.000000   1.000000
     23         -2.234984       -2.157409   1.000000   1.000000
     24         -2.135573       -2.066239   1.000000   1.000000
     25         -1.768831       -1.633456   1.000000   1.000000
     26         -1.706603       -1.565722   1.000000   1.000000
     27         -1.257143       -1.189173   1.000000   1.000000
     28         -1.222310       -1.161480   1.000000   1.000000
     29         -0.641817       -0.554191   1.000000   1.000000
     30         -0.549520       -0.467229   1.000000   1.000000
     31         -0.491903       -0.345089   1.000000   1.000000
     32         -0.436993       -0.247592   1.000000   1.000000
     33          0.013668        0.191767   1.000000   1.000000
     34          0.146984        0.288869   1.000000   1.000000
     35          0.320196        0.590518   1.000000   1.000000
     36          0.359741        0.670320   1.000000   1.000000
     37          0.580636        1.014716   1.000000   1.000000
     38          0.664524        1.066506   1.000000   1.000000
     39          0.986214        1.189830   1.000000   1.000000
     40          1.100322        1.307015   1.000000   1.000000
     41          1.146624        1.621990   1.000000   0.001785
     42          1.266211        1.704848   1.000000   0.000000
     43          2.357590        2.455117   0.000000   0.000000
     44          2.383325        2.495401   0.000000   0.000000
     45          3.444305        3.477733   0.000000   0.000000
     46          3.542758        3.582928   0.000000   0.000000
     47          4.045351        4.083258   0.000000   0.000000
     48          4.135991        4.172107   0.000000   0.000000
     49          4.691518        4.739945   0.000000   0.000000
     50          4.782599        4.828068   0.000000   0.000000
     51          5.923385        6.007534   0.000000   0.000000
     52          6.069831        6.141315   0.000000   0.000000
     53          6.368413        6.423254   0.000000   0.000000
     54          6.494437        6.551022   0.000000   0.000000
     55          6.721785        6.762762   0.000000   0.000000
 
  0.5000000E+00 -0.3333333E+00  0.4000000E+00  0.1111111E-01
      1        -13.909840      -13.865236   1.000000   1.000000
      2        -13.816401      -13.772390   1.000000   1.000000
      3        -12.904495      -12.854947   1.000000   1.000000
      4        -12.839330      -12.789185   1.000000   1.000000
      5        -11.268239      -11.199068   1.000000   1.000000
      6        -11.232667      -11.162381   1.000000   1.000000
      7        -10.711297      -10.628805   1.000000   1.000000
      8        -10.637947      -10.539853   1.000000   1.000000
      9        -10.116912       -9.518141   1.000000   1.000000
     10        -10.038401       -9.445575   1.000000   1.000000
     11         -7.095276       -7.057625   1.000000   1.000000
     12         -7.053760       -7.014679   1.000000   1.000000
     13         -5.348830       -5.306220   1.000000   1.000000
     14         -5.273511       -5.233498   1.000000   1.000000
     15         -4.689813       -4.635691   1.000000   1.000000
     16         -4.452388       -4.413051   1.000000   1.000000
     17         -3.733759       -3.693172   1.000000   1.000000
     18         -3.635977       -3.591178   1.000000   1.000000
     19         -3.010157       -2.968902   1.000000   1.000000
     20         -2.936411       -2.859878   1.000000   1.000000
     21         -2.785363       -2.676269   1.000000   1.000000
     22         -2.593720       -2.521871   1.000000   1.000000
     23         -2.244766       -2.173126   1.000000   1.000000
     24         -2.150661       -2.078462   1.000000   1.000000
     25         -1.837243       -1.707823   1.000000   1.000000
     26         -1.790897       -1.679515   1.000000   1.000000
     27         -1.220842       -1.148981   1.000000   1.000000
     28         -1.173171       -1.073308   1.000000   1.000000
     29         -0.688869       -0.580385   1.000000   1.000000
     30         -0.549534       -0.492336   1.000000   1.000000
     31         -0.453072       -0.314644   1.000000   1.000000
     32         -0.312929       -0.226143   1.000000   1.000000
     33          0.009738        0.182191   1.000000   1.000000
     34          0.072918        0.286119   1.000000   1.000000
     35          0.384567        0.556137   1.000000   1.000000
     36          0.464689        0.716692   1.000000   1.000000
     37          0.618882        1.013937   1.000000   1.000000
     38          0.649206        1.048272   1.000000   1.000000
     39          0.955438        1.270732   1.000000   1.000000
     40          1.049896        1.286294   1.000000   1.000000
     41          1.201645        1.726360   1.000000   0.000000
     42          1.297184        1.753028   1.000000   0.000000
     43          2.333174        2.458151   0.000000   0.000000
     44          2.378574        2.501828   0.000000   0.000000
     45          3.475580        3.499017   0.000000   0.000000
     46          3.546885        3.570444   0.000000   0.000000
     47          3.998159        4.034186   0.000000   0.000000
     48          4.125514        4.153636   0.000000   0.000000
     49          4.711719        4.756570   0.000000   0.000000
     50          4.782847        4.827559   0.000000   0.000000
     51          5.988696        6.071524   0.000000   0.000000
     52          6.145210        6.224177   0.000000   0.000000
     53          6.518768        6.559088   0.000000   0.000000
     54          6.565560        6.626262   0.000000   0.000000
     55          6.767886        6.768019   0.000000   0.000000
 
  0.3333333E+00  0.5000000E+00  0.4000000E+00  0.1111111E-01
      1        -13.914020      -13.868632   1.000000   1.000000
      2        -13.819718      -13.774991   1.000000   1.000000
      3        -12.899915      -12.852266   1.000000   1.000000
      4        -12.836606      -12.788271   1.000000   1.000000
      5        -11.262607      -11.192039   1.000000   1.000000
      6        -11.227434      -11.155195   1.000000   1.000000
      7        -10.698898      -10.622089   1.000000   1.000000
      8        -10.618995      -10.529530   1.000000   1.000000
      9        -10.123751       -9.518404   1.000000   1.000000
     10        -10.062468       -9.459522   1.000000   1.000000
     11         -7.142714       -7.105803   1.000000   1.000000
     12         -7.100258       -7.062767   1.000000   1.000000
     13         -5.330310       -5.288729   1.000000   1.000000
     14         -5.234317       -5.191117   1.000000   1.000000
     15         -4.693353       -4.646757   1.000000   1.000000
     16         -4.483337       -4.446721   1.000000   1.000000
     17         -3.709574       -3.662851   1.000000   1.000000
     18         -3.609660       -3.564566   1.000000   1.000000
     19         -3.001729       -2.935207   1.000000   1.000000
     20         -2.946092       -2.894088   1.000000   1.000000
     21         -2.701907       -2.638907   1.000000   1.000000
     22         -2.589324       -2.521828   1.000000   1.000000
     23         -2.234985       -2.157410   1.000000   1.000000
     24         -2.135573       -2.066239   1.000000   1.000000
     25         -1.768831       -1.633456   1.000000   1.000000
     26         -1.706603       -1.565722   1.000000   1.000000
     27         -1.257143       -1.189173   1.000000   1.000000
     28         -1.222310       -1.161480   1.000000   1.000000
     29         -0.641817       -0.554191   1.000000   1.000000
     30         -0.549520       -0.467229   1.000000   1.000000
     31         -0.491903       -0.345089   1.000000   1.000000
     32         -0.436993       -0.247592   1.000000   1.000000
     33          0.013668        0.191767   1.000000   1.000000
     34          0.146984        0.288869   1.000000   1.000000
     35          0.320197        0.590518   1.000000   1.000000
     36          0.359741        0.670320   1.000000   1.000000
     37          0.580636        1.014716   1.000000   1.000000
     38          0.664524        1.066506   1.000000   1.000000
     39          0.986214        1.189830   1.000000   1.000000
     40          1.100322        1.307015   1.000000   1.000000
     41          1.146624        1.621991   1.000000   0.001785
     42          1.266211        1.704848   1.000000   0.000000
     43          2.357590        2.455117   0.000000   0.000000
     44          2.383325        2.495401   0.000000   0.000000
     45          3.444305        3.477733   0.000000   0.000000
     46          3.542758        3.582928   0.000000   0.000000
     47          4.045352        4.083258   0.000000   0.000000
     48          4.135991        4.172107   0.000000   0.000000
     49          4.691518        4.739945   0.000000   0.000000
     50          4.782600        4.828068   0.000000   0.000000
     51          5.923385        6.007534   0.000000   0.000000
     52          6.069831        6.141315   0.000000   0.000000
     53          6.368409        6.423251   0.000000   0.000000
     54          6.494425        6.551015   0.000000   0.000000
     55          6.726381        6.762030   0.000000   0.000000
 
  0.5000000E+00  0.5000000E+00  0.4000000E+00  0.1111111E-01
      1        -13.908159      -13.863571   1.000000   1.000000
      2        -13.814767      -13.770775   1.000000   1.000000
      3        -12.899759      -12.851089   1.000000   1.000000
      4        -12.835113      -12.785811   1.000000   1.000000
      5        -11.277768      -11.207458   1.000000   1.000000
      6        -11.241873      -11.169646   1.000000   1.000000
      7        -10.728820      -10.642516   1.000000   1.000000
      8        -10.648898      -10.548207   1.000000   1.000000
      9        -10.107861       -9.513147   1.000000   1.000000
     10        -10.035994       -9.445733   1.000000   1.000000
     11         -7.062124       -7.025034   1.000000   1.000000
     12         -7.024765       -6.987097   1.000000   1.000000
     13         -5.383262       -5.341355   1.000000   1.000000
     14         -5.294774       -5.253207   1.000000   1.000000
     15         -4.663325       -4.611100   1.000000   1.000000
     16         -4.459845       -4.420689   1.000000   1.000000
     17         -3.764989       -3.722236   1.000000   1.000000
     18         -3.652801       -3.609917   1.000000   1.000000
     19         -2.949453       -2.910042   1.000000   1.000000
     20         -2.919198       -2.842731   1.000000   1.000000
     21         -2.670552       -2.611507   1.000000   1.000000
     22         -2.585288       -2.496920   1.000000   1.000000
     23         -2.246547       -2.178693   1.000000   1.000000
     24         -2.194117       -2.130890   1.000000   1.000000
     25         -1.772040       -1.617778   1.000000   1.000000
     26         -1.704856       -1.551875   1.000000   1.000000
     27         -1.316946       -1.247815   1.000000   1.000000
     28         -1.307945       -1.241660   1.000000   1.000000
     29         -0.576737       -0.480426   1.000000   1.000000
     30         -0.496954       -0.373484   1.000000   1.000000
     31         -0.412325       -0.328436   1.000000   1.000000
     32         -0.398145       -0.227386   1.000000   1.000000
     33         -0.067736        0.097581   1.000000   1.000000
     34          0.057611        0.173898   1.000000   1.000000
     35          0.334039        0.585777   1.000000   1.000000
     36          0.335287        0.618458   1.000000   1.000000
     37          0.559000        0.987042   1.000000   1.000000
     38          0.626329        1.024263   1.000000   1.000000
     39          0.979997        1.260999   1.000000   1.000000
     40          1.129114        1.336097   1.000000   1.000000
     41          1.163899        1.667105   1.000000   0.000014
     42          1.324451        1.749015   1.000000   0.000000
     43          2.380506        2.503528   0.000000   0.000000
     44          2.393844        2.518130   0.000000   0.000000
     45          3.476017        3.496588   0.000000   0.000000
     46          3.499670        3.524330   0.000000   0.000000
     47          3.893485        3.924099   0.000000   0.000000
     48          3.999407        4.028929   0.000000   0.000000
     49          4.717126        4.766517   0.000000   0.000000
     50          4.819524        4.864295   0.000000   0.000000
     51          6.070500        6.165083   0.000000   0.000000
     52          6.197403        6.287481   0.000000   0.000000
     53          6.495207        6.549403   0.000000   0.000000
     54          6.606911        6.649292   0.000000   0.000000
     55          6.792223        6.825961   0.000000   0.000000
