 vasp.6.3.1 04May22 (build Oct 09 2023 22:45:39) complex                        
  
 executed on             LinuxIFC date 2026.09.14  00:33:08
 running on   20 total cores
 distrk:  each k-point on   20 cores,    1 groups
 distr:  one band on NCORE=   4 cores,    5 groups


--------------------------------------------------------------------------------------------------------


 INCAR:
   ADDGRID = True
   ALGO = Normal
   EDIFF = 1e-06
   EDIFFG = -0.02
   ENCUT = 520.0
   IBRION = -1
   ISIF = 3
   ISMEAR = 0
   ISPIN = 2
   ISYM = 0
   LASPH = True
   LCHARG = False
   LORBIT = 11
   LREAL = False
   LWAVE = False
   MAGMOM = 16*0.6
   NCORE = 4
   NELM = 200
   NSW = 0
   POTIM = 0.3
   PREC = Accurate
   SIGMA = 0.05

 POTCAR:    PAW_PBE B 06Sep2000                   
 POTCAR:    PAW_PBE P 06Sep2000                   
 POTCAR:    PAW_PBE S 06Sep2000                   
 POTCAR:    PAW_PBE B 06Sep2000                   
   SHA256 =  a32ced30f5ae56fd4d10b4325ff17eb3e4e38ee0f4288bc219fb012fddfa6e97 B/POTCAR              
   COPYR  = (c) Copyright 06Sep2000 Georg Kresse                                                    
   COPYR  = This file is part of the software VASP. Any use, copying, and all other rights are regul
   COPYR  = If you do not have a valid VASP license, you may not use, copy or distribute this file. 
   VRHFIN =B: s2p1                                                                                  
   LEXCH  = PE                                                                                      
   EATOM  =    71.1703 eV,    5.2309 Ry                                                             
                                                                                                    
   TITEL  = PAW_PBE B 06Sep2000                                                                     
   LULTRA =        F    use ultrasoft PP ?                                                          
   IUNSCR =        1    unscreen: 0-lin 1-nonlin 2-no                                               
   RPACOR =    1.200    partial core radius                                                         
   POMASS =   10.811; ZVAL   =    3.000    mass and valenz                                          
   RCORE  =    1.700    outmost cutoff radius                                                       
   RWIGS  =    1.710; RWIGS  =    0.905    wigner-seitz radius (au A)                               
   ENMAX  =  318.614; ENMIN  =  238.960 eV                                                          
   ICORE  =        2    local potential                                                             
   LCOR   =        T    correct aug charges                                                         
   LPAW   =        T    paw PP                                                                      
   EAUG   =  535.514                                                                                
   DEXC   =    0.000                                                                                
   RMAX   =    1.732    core radius for proj-oper                                                   
   RAUG   =    1.300    factor for augmentation sphere                                              
   RDEP   =    1.757    radius for radial grids                                                     
   RDEPT  =    1.436    core radius for aug-charge                                                  
                                                                                                    
   Atomic configuration                                                                             
    4 entries                                                                                       
     n  l   j            E        occ.                                                              
     1  0  0.50      -180.5896   2.0000                                                             
     2  0  0.50        -9.4431   2.0000                                                             
     2  1  0.50        -3.6068   1.0000                                                             
     3  2  1.50        -4.0817   0.0000                                                             
   Description                                                                                      
     l       E           TYP  RCUT    TYP  RCUT                                                     
     0     -9.4430752     23  1.500                                                                 
     0      0.8675899     23  1.500                                                                 
     1     -3.6067955     23  1.700                                                                 
     1      6.1086146     23  1.700                                                                 
     2     -4.0817478      7  1.700                                                                 
  local pseudopotential read in
  partial core-charges read in
  partial kinetic energy density read in
  atomic valenz-charges read in
  non local Contribution for L=           0  read in
    real space projection operators read in
  non local Contribution for L=           0  read in
    real space projection operators read in
  non local Contribution for L=           1  read in
    real space projection operators read in
  non local Contribution for L=           1  read in
    real space projection operators read in
    PAW grid and wavefunctions read in
 
   number of l-projection  operators is LMAX  =           4
   number of lm-projection operators is LMMAX =           8
 
 POTCAR:    PAW_PBE P 06Sep2000                   
   SHA256 =  df60c54a93efe35c9e85ae94c010c75e9f6960a95d5595d7cdba4096d109af88 P/POTCAR              
   COPYR  = (c) Copyright 06Sep2000 Georg Kresse                                                    
   COPYR  = This file is part of the software VASP. Any use, copying, and all other rights are regul
   COPYR  = If you do not have a valid VASP license, you may not use, copy or distribute this file. 
   VRHFIN =P : s2p3                                                                                 
   LEXCH  = PE                                                                                      
   EATOM  =   176.0430 eV,   12.9388 Ry                                                             
                                                                                                    
   TITEL  = PAW_PBE P 06Sep2000                                                                     
   LULTRA =        F    use ultrasoft PP ?                                                          
   IUNSCR =        1    unscreen: 0-lin 1-nonlin 2-no                                               
   RPACOR =    1.500    partial core radius                                                         
   POMASS =   30.974; ZVAL   =    5.000    mass and valenz                                          
   RCORE  =    1.900    outmost cutoff radius                                                       
   RWIGS  =    2.330; RWIGS  =    1.233    wigner-seitz radius (au A)                               
   ENMAX  =  255.040; ENMIN  =  191.280 eV                                                          
   ICORE  =        2    local potential                                                             
   LCOR   =        T    correct aug charges                                                         
   LPAW   =        T    paw PP                                                                      
   EAUG   =  342.924                                                                                
   DEXC   =    0.000                                                                                
   RMAX   =    1.935    core radius for proj-oper                                                   
   RAUG   =    1.300    factor for augmentation sphere                                              
   RDEP   =    1.931    radius for radial grids                                                     
   RDEPT  =    1.794    core radius for aug-charge                                                  
                                                                                                    
   Atomic configuration                                                                             
    6 entries                                                                                       
     n  l   j            E        occ.                                                              
     1  0  0.50     -2084.0982   2.0000                                                             
     2  0  0.50      -173.9859   2.0000                                                             
     2  1  1.50      -124.4865   6.0000                                                             
     3  0  0.50       -13.9692   2.0000                                                             
     3  1  0.50        -5.5067   3.0000                                                             
     3  2  1.50        -5.4423   0.0000                                                             
   Description                                                                                      
     l       E           TYP  RCUT    TYP  RCUT                                                     
     0    -13.9691527     23  1.900                                                                 
     0    -11.7794650     23  1.900                                                                 
     1     -5.5066937     23  1.900                                                                 
     1     -0.2556953     23  1.900                                                                 
     2     -5.4423304     23  1.900                                                                 
  local pseudopotential read in
  partial core-charges read in
  partial kinetic energy density read in
  atomic valenz-charges read in
  non local Contribution for L=           0  read in
    real space projection operators read in
  non local Contribution for L=           0  read in
    real space projection operators read in
  non local Contribution for L=           1  read in
    real space projection operators read in
  non local Contribution for L=           1  read in
    real space projection operators read in
    PAW grid and wavefunctions read in
 
   number of l-projection  operators is LMAX  =           4
   number of lm-projection operators is LMMAX =           8
 
 POTCAR:    PAW_PBE S 06Sep2000                   
   SHA256 =  0fc7481fb0695f01bdc6462160264c5c84044ae9ec85a907d398b887a2bc3132 S/POTCAR              
   COPYR  = (c) Copyright 06Sep2000 Georg Kresse                                                    
   COPYR  = This file is part of the software VASP. Any use, copying, and all other rights are regul
   COPYR  = If you do not have a valid VASP license, you may not use, copy or distribute this file. 
   VRHFIN =S : s2p4                                                                                 
   LEXCH  = PE                                                                                      
   EATOM  =   276.8230 eV,   20.3459 Ry                                                             
                                                                                                    
   TITEL  = PAW_PBE S 06Sep2000                                                                     
   LULTRA =        F    use ultrasoft PP ?                                                          
   IUNSCR =        1    unscreen: 0-lin 1-nonlin 2-no                                               
   RPACOR =    1.500    partial core radius                                                         
   POMASS =   32.066; ZVAL   =    6.000    mass and valenz                                          
   RCORE  =    1.900    outmost cutoff radius                                                       
   RWIGS  =    2.200; RWIGS  =    1.164    wigner-seitz radius (au A)                               
   ENMAX  =  258.689; ENMIN  =  194.016 eV                                                          
   ICORE  =        2    local potential                                                             
   LCOR   =        T    correct aug charges                                                         
   LPAW   =        T    paw PP                                                                      
   EAUG   =  335.092                                                                                
   DEXC   =    0.000                                                                                
   RMAX   =    1.942    core radius for proj-oper                                                   
   RAUG   =    1.300    factor for augmentation sphere                                              
   RDEP   =    1.954    radius for radial grids                                                     
   RDEPT  =    1.744    core radius for aug-charge                                                  
                                                                                                    
   Atomic configuration                                                                             
    6 entries                                                                                       
     n  l   j            E        occ.                                                              
     1  0  0.50     -2405.8406   2.0000                                                             
     2  0  0.50      -211.7007   2.0000                                                             
     2  1  1.50      -156.4958   6.0000                                                             
     3  0  0.50       -17.2562   2.0000                                                             
     3  1  0.50        -7.0085   4.0000                                                             
     3  2  1.50        -6.8029   0.0000                                                             
   Description                                                                                      
     l       E           TYP  RCUT    TYP  RCUT                                                     
     0    -17.2561641     23  1.900                                                                 
     0    -15.8743224     23  1.900                                                                 
     1     -7.0085400     23  1.900                                                                 
     1     -2.7779785     23  1.900                                                                 
     2     -6.8029130     23  1.900                                                                 
  local pseudopotential read in
  partial core-charges read in
  partial kinetic energy density read in
  atomic valenz-charges read in
  non local Contribution for L=           0  read in
    real space projection operators read in
  non local Contribution for L=           0  read in
    real space projection operators read in
  non local Contribution for L=           1  read in
    real space projection operators read in
  non local Contribution for L=           1  read in
    real space projection operators read in
    PAW grid and wavefunctions read in
 
   number of l-projection  operators is LMAX  =           4
   number of lm-projection operators is LMMAX =           8
 
  PAW_PBE B 06Sep2000                   :
 energy of atom  1       EATOM=  -71.1703
 kinetic energy error for atom=    0.0011 (will be added to EATOM!!)
  PAW_PBE P 06Sep2000                   :
 energy of atom  2       EATOM= -176.0430
 kinetic energy error for atom=    0.0011 (will be added to EATOM!!)
  PAW_PBE S 06Sep2000                   :
 energy of atom  3       EATOM= -276.8230
 kinetic energy error for atom=    0.0016 (will be added to EATOM!!)
 
 
 POSCAR: B4 P2 S10
  positions in direct lattice
  No initial velocities read in
 exchange correlation table for  LEXCH =        8
   RHO(1)=    0.500       N(1)  =     2000
   RHO(2)=  100.500       N(2)  =     4000
 


--------------------------------------------------------------------------------------------------------


 ion  position               nearest neighbor table
   1  0.719  0.567  0.383-   8 1.89  15 2.01  13 2.11
   2  0.433  0.719  0.383-   8 1.52  13 2.01  16 2.11
   3  0.281  0.567  0.883-   7 1.89  12 2.01  10 2.11
   4  0.567  0.719  0.883-   7 1.52  10 2.01  11 2.11
   5  0.920  0.212  0.915-   9 2.03  12 2.04
   6  0.080  0.212  0.415-  14 2.03  15 2.04
   7  0.510  0.567  0.013-   4 1.52   3 1.89
   8  0.490  0.567  0.513-   2 1.52   1 1.89
   9  0.671  0.150  0.792-   5 2.03
  10  0.329  0.850  0.792-   4 2.01   3 2.11
  11  0.850  0.671  0.792-   4 2.11
  12  0.150  0.329  0.792-   3 2.01   5 2.04
  13  0.671  0.850  0.292-   2 2.01   1 2.11
  14  0.329  0.150  0.292-   6 2.03
  15  0.850  0.329  0.292-   1 2.01   6 2.04
  16  0.150  0.671  0.292-   2 2.11
 

IMPORTANT INFORMATION: All symmetrisations will be switched off!
NOSYMM: (Re-)initialisation of all symmetry stuff for point group C_1.


----------------------------------------------------------------------------------------

                                     Primitive cell                                     

  volume of cell :     380.7620

  direct lattice vectors                    reciprocal lattice vectors
     6.887064934  0.000000000  0.000000000     0.145199735  0.000000000  0.000000000
     0.000000000  6.887064934  0.000000000     0.000000000  0.145199735  0.000000000
     0.000000000  0.000000000  8.027591705     0.000000000  0.000000000  0.124570361

  length of vectors
     6.887064934  6.887064934  8.027591705     0.145199735  0.145199735  0.124570361

  position of ions in fractional coordinates (direct lattice)
     0.718752503  0.566749632  0.383390635
     0.433250368  0.718752503  0.383390635
     0.281247497  0.566749632  0.883390665
     0.566749632  0.718752503  0.883390665
     0.919942141  0.211885929  0.915219367
     0.080057859  0.211885929  0.415219307
     0.509961665  0.566689730  0.012574259
     0.490038335  0.566689730  0.512574255
     0.670727193  0.150140986  0.791719377
     0.329272807  0.849858999  0.791719377
     0.849858999  0.670727193  0.791719377
     0.150140986  0.329272807  0.791719377
     0.670727193  0.849858999  0.291719437
     0.329272807  0.150140986  0.291719437
     0.849858999  0.329272807  0.291719437
     0.150140986  0.670727193  0.291719437

  ion indices of the primitive-cell ions
   primitive index   ion index
                 1           1
                 2           2
                 3           3
                 4           4
                 5           5
                 6           6
                 7           7
                 8           8
                 9           9
                10          10
                11          11
                12          12
                13          13
                14          14
                15          15
                16          16

----------------------------------------------------------------------------------------

 
 
 KPOINTS: pymatgen with grid density = 3000 / numb

Automatic generation of k-mesh.
 Grid dimensions read from file:
 generate k-points for:    6    6    5

 Generating k-lattice:

  Cartesian coordinates                     Fractional coordinates (reciprocal lattice)
     0.024199956  0.000000000  0.000000000     0.166666667  0.000000000  0.000000000
     0.000000000  0.024199956  0.000000000     0.000000000  0.166666667  0.000000000
     0.000000000  0.000000000  0.024914072     0.000000000  0.000000000  0.200000000

  Length of vectors
     0.024199956  0.024199956  0.024914072

  Shift w.r.t. Gamma in fractional coordinates (k-lattice)
     0.000000000  0.000000000  0.000000000

 
 Subroutine IBZKPT returns following result:
 ===========================================
 
 Found     92 irreducible k-points:
 
 Following reciprocal coordinates:
            Coordinates               Weight
  0.000000  0.000000  0.000000      1.000000
  0.166667  0.000000  0.000000      2.000000
  0.000000  0.166667  0.000000      2.000000
  0.333333  0.000000  0.000000      2.000000
  0.000000  0.333333  0.000000      2.000000
  0.500000  0.000000  0.000000      1.000000
  0.000000  0.500000  0.000000      1.000000
  0.166667  0.166667  0.000000      2.000000
 -0.166667  0.166667  0.000000      2.000000
  0.333333  0.166667  0.000000      2.000000
 -0.166667  0.333333  0.000000      2.000000
 -0.333333  0.166667  0.000000      2.000000
  0.166667  0.333333  0.000000      2.000000
  0.500000  0.166667  0.000000      2.000000
 -0.166667  0.500000  0.000000      2.000000
  0.333333  0.333333  0.000000      2.000000
 -0.333333  0.333333  0.000000      2.000000
  0.500000  0.333333  0.000000      2.000000
 -0.333333  0.500000  0.000000      2.000000
  0.500000  0.500000  0.000000      1.000000
  0.000000  0.000000  0.200000      2.000000
  0.166667  0.000000  0.200000      2.000000
  0.000000  0.166667  0.200000      2.000000
 -0.166667  0.000000  0.200000      2.000000
  0.000000 -0.166667  0.200000      2.000000
  0.333333  0.000000  0.200000      2.000000
  0.000000  0.333333  0.200000      2.000000
 -0.333333  0.000000  0.200000      2.000000
  0.000000 -0.333333  0.200000      2.000000
  0.500000  0.000000  0.200000      2.000000
  0.000000  0.500000  0.200000      2.000000
  0.166667  0.166667  0.200000      2.000000
 -0.166667  0.166667  0.200000      2.000000
 -0.166667 -0.166667  0.200000      2.000000
  0.166667 -0.166667  0.200000      2.000000
  0.333333  0.166667  0.200000      2.000000
 -0.166667  0.333333  0.200000      2.000000
 -0.333333 -0.166667  0.200000      2.000000
  0.166667 -0.333333  0.200000      2.000000
 -0.333333  0.166667 -0.200000      2.000000
  0.166667  0.333333 -0.200000      2.000000
  0.333333 -0.166667 -0.200000      2.000000
 -0.166667 -0.333333 -0.200000      2.000000
  0.500000  0.166667  0.200000      2.000000
 -0.166667  0.500000  0.200000      2.000000
  0.500000 -0.166667  0.200000      2.000000
  0.166667  0.500000  0.200000      2.000000
  0.333333  0.333333  0.200000      2.000000
 -0.333333  0.333333  0.200000      2.000000
 -0.333333 -0.333333  0.200000      2.000000
  0.333333 -0.333333  0.200000      2.000000
  0.500000  0.333333  0.200000      2.000000
 -0.333333  0.500000  0.200000      2.000000
  0.500000 -0.333333  0.200000      2.000000
  0.333333  0.500000  0.200000      2.000000
  0.500000  0.500000  0.200000      2.000000
  0.000000  0.000000  0.400000      2.000000
  0.166667  0.000000  0.400000      2.000000
  0.000000  0.166667  0.400000      2.000000
 -0.166667  0.000000  0.400000      2.000000
  0.000000 -0.166667  0.400000      2.000000
  0.333333  0.000000  0.400000      2.000000
  0.000000  0.333333  0.400000      2.000000
 -0.333333  0.000000  0.400000      2.000000
  0.000000 -0.333333  0.400000      2.000000
  0.500000  0.000000  0.400000      2.000000
  0.000000  0.500000  0.400000      2.000000
  0.166667  0.166667  0.400000      2.000000
 -0.166667  0.166667  0.400000      2.000000
 -0.166667 -0.166667  0.400000      2.000000
  0.166667 -0.166667  0.400000      2.000000
  0.333333  0.166667  0.400000      2.000000
 -0.166667  0.333333  0.400000      2.000000
 -0.333333 -0.166667  0.400000      2.000000
  0.166667 -0.333333  0.400000      2.000000
 -0.333333  0.166667 -0.400000      2.000000
  0.166667  0.333333 -0.400000      2.000000
  0.333333 -0.166667 -0.400000      2.000000
 -0.166667 -0.333333 -0.400000      2.000000
  0.500000  0.166667  0.400000      2.000000
 -0.166667  0.500000  0.400000      2.000000
  0.500000 -0.166667  0.400000      2.000000
  0.166667  0.500000  0.400000      2.000000
  0.333333  0.333333  0.400000      2.000000
 -0.333333  0.333333  0.400000      2.000000
 -0.333333 -0.333333  0.400000      2.000000
  0.333333 -0.333333  0.400000      2.000000
  0.500000  0.333333  0.400000      2.000000
 -0.333333  0.500000  0.400000      2.000000
  0.500000 -0.333333  0.400000      2.000000
  0.333333  0.500000  0.400000      2.000000
  0.500000  0.500000  0.400000      2.000000
 
 Following cartesian coordinates:
            Coordinates               Weight
  0.000000  0.000000  0.000000      1.000000
  0.024200  0.000000  0.000000      2.000000
  0.000000  0.024200  0.000000      2.000000
  0.048400  0.000000  0.000000      2.000000
  0.000000  0.048400  0.000000      2.000000
  0.072600  0.000000  0.000000      1.000000
  0.000000  0.072600  0.000000      1.000000
  0.024200  0.024200  0.000000      2.000000
 -0.024200  0.024200  0.000000      2.000000
  0.048400  0.024200  0.000000      2.000000
 -0.024200  0.048400  0.000000      2.000000
 -0.048400  0.024200  0.000000      2.000000
  0.024200  0.048400  0.000000      2.000000
  0.072600  0.024200  0.000000      2.000000
 -0.024200  0.072600  0.000000      2.000000
  0.048400  0.048400  0.000000      2.000000
 -0.048400  0.048400  0.000000      2.000000
  0.072600  0.048400  0.000000      2.000000
 -0.048400  0.072600  0.000000      2.000000
  0.072600  0.072600  0.000000      1.000000
  0.000000  0.000000  0.024914      2.000000
  0.024200  0.000000  0.024914      2.000000
  0.000000  0.024200  0.024914      2.000000
 -0.024200  0.000000  0.024914      2.000000
  0.000000 -0.024200  0.024914      2.000000
  0.048400  0.000000  0.024914      2.000000
  0.000000  0.048400  0.024914      2.000000
 -0.048400  0.000000  0.024914      2.000000
  0.000000 -0.048400  0.024914      2.000000
  0.072600  0.000000  0.024914      2.000000
  0.000000  0.072600  0.024914      2.000000
  0.024200  0.024200  0.024914      2.000000
 -0.024200  0.024200  0.024914      2.000000
 -0.024200 -0.024200  0.024914      2.000000
  0.024200 -0.024200  0.024914      2.000000
  0.048400  0.024200  0.024914      2.000000
 -0.024200  0.048400  0.024914      2.000000
 -0.048400 -0.024200  0.024914      2.000000
  0.024200 -0.048400  0.024914      2.000000
 -0.048400  0.024200 -0.024914      2.000000
  0.024200  0.048400 -0.024914      2.000000
  0.048400 -0.024200 -0.024914      2.000000
 -0.024200 -0.048400 -0.024914      2.000000
  0.072600  0.024200  0.024914      2.000000
 -0.024200  0.072600  0.024914      2.000000
  0.072600 -0.024200  0.024914      2.000000
  0.024200  0.072600  0.024914      2.000000
  0.048400  0.048400  0.024914      2.000000
 -0.048400  0.048400  0.024914      2.000000
 -0.048400 -0.048400  0.024914      2.000000
  0.048400 -0.048400  0.024914      2.000000
  0.072600  0.048400  0.024914      2.000000
 -0.048400  0.072600  0.024914      2.000000
  0.072600 -0.048400  0.024914      2.000000
  0.048400  0.072600  0.024914      2.000000
  0.072600  0.072600  0.024914      2.000000
  0.000000  0.000000  0.049828      2.000000
  0.024200  0.000000  0.049828      2.000000
  0.000000  0.024200  0.049828      2.000000
 -0.024200  0.000000  0.049828      2.000000
  0.000000 -0.024200  0.049828      2.000000
  0.048400  0.000000  0.049828      2.000000
  0.000000  0.048400  0.049828      2.000000
 -0.048400  0.000000  0.049828      2.000000
  0.000000 -0.048400  0.049828      2.000000
  0.072600  0.000000  0.049828      2.000000
  0.000000  0.072600  0.049828      2.000000
  0.024200  0.024200  0.049828      2.000000
 -0.024200  0.024200  0.049828      2.000000
 -0.024200 -0.024200  0.049828      2.000000
  0.024200 -0.024200  0.049828      2.000000
  0.048400  0.024200  0.049828      2.000000
 -0.024200  0.048400  0.049828      2.000000
 -0.048400 -0.024200  0.049828      2.000000
  0.024200 -0.048400  0.049828      2.000000
 -0.048400  0.024200 -0.049828      2.000000
  0.024200  0.048400 -0.049828      2.000000
  0.048400 -0.024200 -0.049828      2.000000
 -0.024200 -0.048400 -0.049828      2.000000
  0.072600  0.024200  0.049828      2.000000
 -0.024200  0.072600  0.049828      2.000000
  0.072600 -0.024200  0.049828      2.000000
  0.024200  0.072600  0.049828      2.000000
  0.048400  0.048400  0.049828      2.000000
 -0.048400  0.048400  0.049828      2.000000
 -0.048400 -0.048400  0.049828      2.000000
  0.048400 -0.048400  0.049828      2.000000
  0.072600  0.048400  0.049828      2.000000
 -0.048400  0.072600  0.049828      2.000000
  0.072600 -0.048400  0.049828      2.000000
  0.048400  0.072600  0.049828      2.000000
  0.072600  0.072600  0.049828      2.000000
 


--------------------------------------------------------------------------------------------------------




 Dimension of arrays:
   k-points           NKPTS =     92   k-points in BZ     NKDIM =     92   number of bands    NBANDS=     55
   number of dos      NEDOS =    301   number of ions     NIONS =     16
   non local maximal  LDIM  =      4   non local SUM 2l+1 LMDIM =      8
   total plane-waves  NPLWV = 174960
   max r-space proj   IRMAX =      1   max aug-charges    IRDMAX= 115998
   dimension x,y,z NGX =    54 NGY =   54 NGZ =   60
   dimension x,y,z NGXF=   108 NGYF=  108 NGZF=  120
   support grid    NGXF=   216 NGYF=  216 NGZF=  240
   ions per type =               4   2  10
   NGX,Y,Z   is equivalent  to a cutoff of  13.03, 13.03, 12.43 a.u.
   NGXF,Y,Z  is equivalent  to a cutoff of  26.07, 26.07, 24.85 a.u.

 SYSTEM =  unknown system                          
 POSCAR =  B4 P2 S10                               

 Startparameter for this run:
   NWRITE =      2    write-flag & timer
   PREC   = accura    normal or accurate (medium, high low for compatibility)
   ISTART =      0    job   : 0-new  1-cont  2-samecut
   ICHARG =      2    charge: 1-file 2-atom 10-const
   ISPIN  =      2    spin polarized calculation?
   LNONCOLLINEAR =      F non collinear calculations
   LSORBIT =      F    spin-orbit coupling
   INIWAV =      1    electr: 0-lowe 1-rand  2-diag
   LASPH  =      T    aspherical Exc in radial PAW
 Electronic Relaxation 1
   ENCUT  =  520.0 eV  38.22 Ry    6.18 a.u.  12.81 12.81 14.93*2*pi/ulx,y,z
   ENINI  =  520.0     initial cutoff
   ENAUG  =  535.5 eV  augmentation charge cutoff
   NELM   =    200;   NELMIN=  2; NELMDL= -5     # of ELM steps 
   EDIFF  = 0.1E-05   stopping-criterion for ELM
   LREAL  =      F    real-space projection
   NLSPLINE    = F    spline interpolate recip. space projectors
   LCOMPAT=      F    compatible to vasp.4.4
   GGA_COMPAT  = T    GGA compatible to vasp.4.4-vasp.4.6
   LMAXPAW     = -100 max onsite density
   LMAXMIX     =    2 max onsite mixed and CHGCAR
   VOSKOWN=      0    Vosko Wilk Nusair interpolation
   ROPT   =    0.00000   0.00000   0.00000
 Ionic relaxation
   EDIFFG = -.2E-01   stopping-criterion for IOM
   NSW    =      0    number of steps for IOM
   NBLOCK =      1;   KBLOCK =      1    inner block; outer block 
   IBRION =     -1    ionic relax: 0-MD 1-quasi-New 2-CG
   NFREE  =      0    steps in history (QN), initial steepest desc. (CG)
   ISIF   =      3    stress and relaxation
   IWAVPR =     10    prediction:  0-non 1-charg 2-wave 3-comb
   ISYM   =      0    0-nonsym 1-usesym 2-fastsym
   LCORR  =      T    Harris-Foulkes like correction to forces

   POTIM  = 0.3000    time-step for ionic-motion
   TEIN   =    0.0    initial temperature
   TEBEG  =    0.0;   TEEND  =   0.0 temperature during run
   SMASS  =  -3.00    Nose mass-parameter (am)
   estimated Nose-frequenzy (Omega)   =  0.10E-29 period in steps = 0.21E+47 mass=  -0.108E-26a.u.
   SCALEE = 1.0000    scale energy and forces
   NPACO  =    256;   APACO  = 10.0  distance and # of slots for P.C.
   PSTRESS=    0.0 pullay stress

  Mass of Ions in am
   POMASS =  10.81 30.97 32.07
  Ionic Valenz
   ZVAL   =   3.00  5.00  6.00
  Atomic Wigner-Seitz radii
   RWIGS  =  -1.00 -1.00 -1.00
  virtual crystal weights 
   VCA    =   1.00  1.00  1.00
   NELECT =      82.0000    total number of electrons
   NUPDOWN=      -1.0000    fix difference up-down

 DOS related values:
   EMIN   =  10.00;   EMAX   =-10.00  energy-range for DOS
   EFERMI =   0.00
   ISMEAR =     0;   SIGMA  =   0.05  broadening in eV -4-tet -1-fermi 0-gaus

 Electronic relaxation 2 (details)
   IALGO  =     38    algorithm
   LDIAG  =      T    sub-space diagonalisation (order eigenvalues)
   LSUBROT=      F    optimize rotation matrix (better conditioning)
   TURBO    =      0    0=normal 1=particle mesh
   IRESTART =      0    0=no restart 2=restart with 2 vectors
   NREBOOT  =      0    no. of reboots
   NMIN     =      0    reboot dimension
   EREF     =   0.00    reference energy to select bands
   IMIX   =      4    mixing-type and parameters
     AMIX     =   0.40;   BMIX     =  1.00
     AMIX_MAG =   1.60;   BMIX_MAG =  1.00
     AMIN     =   0.10
     WC   =   100.;   INIMIX=   1;  MIXPRE=   1;  MAXMIX= -45

 Intra band minimization:
   WEIMIN = 0.0000     energy-eigenvalue tresh-hold
   EBREAK =  0.45E-08  absolut break condition
   DEPER  =   0.30     relativ break condition  

   TIME   =   0.40     timestep for ELM

  volume/ion in A,a.u.               =      23.80       160.59
  Fermi-wavevector in a.u.,A,eV,Ry     =   0.981284  1.854359 13.101310  0.962919
  Thomas-Fermi vector in A             =   2.112279
 
 Write flags
   LWAVE        =      F    write WAVECAR
   LDOWNSAMPLE  =      F    k-point downsampling of WAVECAR
   LCHARG       =      F    write CHGCAR
   LVTOT        =      F    write LOCPOT, total local potential
   LVHAR        =      F    write LOCPOT, Hartree potential only
   LELF         =      F    write electronic localiz. function (ELF)
   LORBIT       =     11    0 simple, 1 ext, 2 COOP (PROOUT), +10 PAW based schemes


 Dipole corrections
   LMONO  =      F    monopole corrections only (constant potential shift)
   LDIPOL =      F    correct potential (dipole corrections)
   IDIPOL =      0    1-x, 2-y, 3-z, 4-all directions 
   EPSILON=  1.0000000 bulk dielectric constant

 Exchange correlation treatment:
   GGA     =    --    GGA type
   LEXCH   =     8    internal setting for exchange type
   LIBXC   =     F    Libxc                    
   VOSKOWN =     0    Vosko Wilk Nusair interpolation
   LHFCALC =     F    Hartree Fock is set to
   LHFONE  =     F    Hartree Fock one center treatment
   AEXX    =    0.0000 exact exchange contribution

 Linear response parameters
   LEPSILON=     F    determine dielectric tensor
   LRPA    =     F    only Hartree local field effects (RPA)
   LNABLA  =     F    use nabla operator in PAW spheres
   LVEL    =     F    velocity operator in full k-point grid
   CSHIFT  =0.1000    complex shift for real part using Kramers Kronig
   OMEGAMAX=  -1.0    maximum frequency
   DEG_THRESHOLD= 0.2000000E-02 threshold for treating states as degnerate
   RTIME   =   -0.100 relaxation time in fs
  (WPLASMAI=    0.000 imaginary part of plasma frequency in eV, 0.658/RTIME)
   DFIELD  = 0.0000000 0.0000000 0.0000000 field for delta impulse in time
 
  Optional k-point grid parameters
   LKPOINTS_OPT  =     F    use optional k-point grid
   KPOINTS_OPT_MODE=     1    mode for optional k-point grid
 
 Orbital magnetization related:
   ORBITALMAG=     F  switch on orbital magnetization
   LCHIMAG   =     F  perturbation theory with respect to B field
   DQ        =  0.001000  dq finite difference perturbation B field
   LLRAUG    =     F  two centre corrections for induced B field



--------------------------------------------------------------------------------------------------------


 Static calculation
 charge density and potential will be updated during run
 spin polarized calculation
 Variant of blocked Davidson
 Davidson routine will perform the subspace rotation
 perform sub-space diagonalisation
    after iterative eigenvector-optimisation
 modified Broyden-mixing scheme, WC =      100.0
 initial mixing is a Kerker type mixing with AMIX =  0.4000 and BMIX =      1.0000
 Hartree-type preconditioning will be used
 using additional bands           14
 reciprocal scheme for non local part
 use partial core corrections
 calculate Harris-corrections to forces 
   (improved forces if not selfconsistent)
 use gradient corrections 
 use of overlap-Matrix (Vanderbilt PP)
 Gauss-broadening in eV      SIGMA  =   0.05


--------------------------------------------------------------------------------------------------------


  energy-cutoff  :      520.00
  volume of cell :      380.76
      direct lattice vectors                 reciprocal lattice vectors
     6.887064934  0.000000000  0.000000000     0.145199735  0.000000000  0.000000000
     0.000000000  6.887064934  0.000000000     0.000000000  0.145199735  0.000000000
     0.000000000  0.000000000  8.027591705     0.000000000  0.000000000  0.124570361

  length of vectors
     6.887064934  6.887064934  8.027591705     0.145199735  0.145199735  0.124570361


 
 k-points in units of 2pi/SCALE and weight: pymatgen with grid density = 3000 / numb
   0.00000000  0.00000000  0.00000000       0.006
   0.02419996  0.00000000  0.00000000       0.011
   0.00000000  0.02419996  0.00000000       0.011
   0.04839991  0.00000000  0.00000000       0.011
   0.00000000  0.04839991  0.00000000       0.011
   0.07259987  0.00000000  0.00000000       0.006
   0.00000000  0.07259987  0.00000000       0.006
   0.02419996  0.02419996  0.00000000       0.011
  -0.02419996  0.02419996  0.00000000       0.011
   0.04839991  0.02419996  0.00000000       0.011
  -0.02419996  0.04839991  0.00000000       0.011
  -0.04839991  0.02419996  0.00000000       0.011
   0.02419996  0.04839991  0.00000000       0.011
   0.07259987  0.02419996  0.00000000       0.011
  -0.02419996  0.07259987  0.00000000       0.011
   0.04839991  0.04839991  0.00000000       0.011
  -0.04839991  0.04839991  0.00000000       0.011
   0.07259987  0.04839991  0.00000000       0.011
  -0.04839991  0.07259987  0.00000000       0.011
   0.07259987  0.07259987  0.00000000       0.006
   0.00000000  0.00000000  0.02491407       0.011
   0.02419996  0.00000000  0.02491407       0.011
   0.00000000  0.02419996  0.02491407       0.011
  -0.02419996  0.00000000  0.02491407       0.011
   0.00000000 -0.02419996  0.02491407       0.011
   0.04839991  0.00000000  0.02491407       0.011
   0.00000000  0.04839991  0.02491407       0.011
  -0.04839991  0.00000000  0.02491407       0.011
   0.00000000 -0.04839991  0.02491407       0.011
   0.07259987  0.00000000  0.02491407       0.011
   0.00000000  0.07259987  0.02491407       0.011
   0.02419996  0.02419996  0.02491407       0.011
  -0.02419996  0.02419996  0.02491407       0.011
  -0.02419996 -0.02419996  0.02491407       0.011
   0.02419996 -0.02419996  0.02491407       0.011
   0.04839991  0.02419996  0.02491407       0.011
  -0.02419996  0.04839991  0.02491407       0.011
  -0.04839991 -0.02419996  0.02491407       0.011
   0.02419996 -0.04839991  0.02491407       0.011
  -0.04839991  0.02419996 -0.02491407       0.011
   0.02419996  0.04839991 -0.02491407       0.011
   0.04839991 -0.02419996 -0.02491407       0.011
  -0.02419996 -0.04839991 -0.02491407       0.011
   0.07259987  0.02419996  0.02491407       0.011
  -0.02419996  0.07259987  0.02491407       0.011
   0.07259987 -0.02419996  0.02491407       0.011
   0.02419996  0.07259987  0.02491407       0.011
   0.04839991  0.04839991  0.02491407       0.011
  -0.04839991  0.04839991  0.02491407       0.011
  -0.04839991 -0.04839991  0.02491407       0.011
   0.04839991 -0.04839991  0.02491407       0.011
   0.07259987  0.04839991  0.02491407       0.011
  -0.04839991  0.07259987  0.02491407       0.011
   0.07259987 -0.04839991  0.02491407       0.011
   0.04839991  0.07259987  0.02491407       0.011
   0.07259987  0.07259987  0.02491407       0.011
   0.00000000  0.00000000  0.04982814       0.011
   0.02419996  0.00000000  0.04982814       0.011
   0.00000000  0.02419996  0.04982814       0.011
  -0.02419996  0.00000000  0.04982814       0.011
   0.00000000 -0.02419996  0.04982814       0.011
   0.04839991  0.00000000  0.04982814       0.011
   0.00000000  0.04839991  0.04982814       0.011
  -0.04839991  0.00000000  0.04982814       0.011
   0.00000000 -0.04839991  0.04982814       0.011
   0.07259987  0.00000000  0.04982814       0.011
   0.00000000  0.07259987  0.04982814       0.011
   0.02419996  0.02419996  0.04982814       0.011
  -0.02419996  0.02419996  0.04982814       0.011
  -0.02419996 -0.02419996  0.04982814       0.011
   0.02419996 -0.02419996  0.04982814       0.011
   0.04839991  0.02419996  0.04982814       0.011
  -0.02419996  0.04839991  0.04982814       0.011
  -0.04839991 -0.02419996  0.04982814       0.011
   0.02419996 -0.04839991  0.04982814       0.011
  -0.04839991  0.02419996 -0.04982814       0.011
   0.02419996  0.04839991 -0.04982814       0.011
   0.04839991 -0.02419996 -0.04982814       0.011
  -0.02419996 -0.04839991 -0.04982814       0.011
   0.07259987  0.02419996  0.04982814       0.011
  -0.02419996  0.07259987  0.04982814       0.011
   0.07259987 -0.02419996  0.04982814       0.011
   0.02419996  0.07259987  0.04982814       0.011
   0.04839991  0.04839991  0.04982814       0.011
  -0.04839991  0.04839991  0.04982814       0.011
  -0.04839991 -0.04839991  0.04982814       0.011
   0.04839991 -0.04839991  0.04982814       0.011
   0.07259987  0.04839991  0.04982814       0.011
  -0.04839991  0.07259987  0.04982814       0.011
   0.07259987 -0.04839991  0.04982814       0.011
   0.04839991  0.07259987  0.04982814       0.011
   0.07259987  0.07259987  0.04982814       0.011
 
 k-points in reciprocal lattice and weights: pymatgen with grid density = 3000 / numb
   0.00000000  0.00000000  0.00000000       0.006
   0.16666667  0.00000000  0.00000000       0.011
   0.00000000  0.16666667  0.00000000       0.011
   0.33333333  0.00000000  0.00000000       0.011
   0.00000000  0.33333333  0.00000000       0.011
   0.50000000  0.00000000  0.00000000       0.006
   0.00000000  0.50000000  0.00000000       0.006
   0.16666667  0.16666667  0.00000000       0.011
  -0.16666667  0.16666667  0.00000000       0.011
   0.33333333  0.16666667  0.00000000       0.011
  -0.16666667  0.33333333  0.00000000       0.011
  -0.33333333  0.16666667  0.00000000       0.011
   0.16666667  0.33333333  0.00000000       0.011
   0.50000000  0.16666667  0.00000000       0.011
  -0.16666667  0.50000000  0.00000000       0.011
   0.33333333  0.33333333  0.00000000       0.011
  -0.33333333  0.33333333  0.00000000       0.011
   0.50000000  0.33333333  0.00000000       0.011
  -0.33333333  0.50000000  0.00000000       0.011
   0.50000000  0.50000000  0.00000000       0.006
   0.00000000  0.00000000  0.20000000       0.011
   0.16666667  0.00000000  0.20000000       0.011
   0.00000000  0.16666667  0.20000000       0.011
  -0.16666667  0.00000000  0.20000000       0.011
   0.00000000 -0.16666667  0.20000000       0.011
   0.33333333  0.00000000  0.20000000       0.011
   0.00000000  0.33333333  0.20000000       0.011
  -0.33333333  0.00000000  0.20000000       0.011
   0.00000000 -0.33333333  0.20000000       0.011
   0.50000000  0.00000000  0.20000000       0.011
   0.00000000  0.50000000  0.20000000       0.011
   0.16666667  0.16666667  0.20000000       0.011
  -0.16666667  0.16666667  0.20000000       0.011
  -0.16666667 -0.16666667  0.20000000       0.011
   0.16666667 -0.16666667  0.20000000       0.011
   0.33333333  0.16666667  0.20000000       0.011
  -0.16666667  0.33333333  0.20000000       0.011
  -0.33333333 -0.16666667  0.20000000       0.011
   0.16666667 -0.33333333  0.20000000       0.011
  -0.33333333  0.16666667 -0.20000000       0.011
   0.16666667  0.33333333 -0.20000000       0.011
   0.33333333 -0.16666667 -0.20000000       0.011
  -0.16666667 -0.33333333 -0.20000000       0.011
   0.50000000  0.16666667  0.20000000       0.011
  -0.16666667  0.50000000  0.20000000       0.011
   0.50000000 -0.16666667  0.20000000       0.011
   0.16666667  0.50000000  0.20000000       0.011
   0.33333333  0.33333333  0.20000000       0.011
  -0.33333333  0.33333333  0.20000000       0.011
  -0.33333333 -0.33333333  0.20000000       0.011
   0.33333333 -0.33333333  0.20000000       0.011
   0.50000000  0.33333333  0.20000000       0.011
  -0.33333333  0.50000000  0.20000000       0.011
   0.50000000 -0.33333333  0.20000000       0.011
   0.33333333  0.50000000  0.20000000       0.011
   0.50000000  0.50000000  0.20000000       0.011
   0.00000000  0.00000000  0.40000000       0.011
   0.16666667  0.00000000  0.40000000       0.011
   0.00000000  0.16666667  0.40000000       0.011
  -0.16666667  0.00000000  0.40000000       0.011
   0.00000000 -0.16666667  0.40000000       0.011
   0.33333333  0.00000000  0.40000000       0.011
   0.00000000  0.33333333  0.40000000       0.011
  -0.33333333  0.00000000  0.40000000       0.011
   0.00000000 -0.33333333  0.40000000       0.011
   0.50000000  0.00000000  0.40000000       0.011
   0.00000000  0.50000000  0.40000000       0.011
   0.16666667  0.16666667  0.40000000       0.011
  -0.16666667  0.16666667  0.40000000       0.011
  -0.16666667 -0.16666667  0.40000000       0.011
   0.16666667 -0.16666667  0.40000000       0.011
   0.33333333  0.16666667  0.40000000       0.011
  -0.16666667  0.33333333  0.40000000       0.011
  -0.33333333 -0.16666667  0.40000000       0.011
   0.16666667 -0.33333333  0.40000000       0.011
  -0.33333333  0.16666667 -0.40000000       0.011
   0.16666667  0.33333333 -0.40000000       0.011
   0.33333333 -0.16666667 -0.40000000       0.011
  -0.16666667 -0.33333333 -0.40000000       0.011
   0.50000000  0.16666667  0.40000000       0.011
  -0.16666667  0.50000000  0.40000000       0.011
   0.50000000 -0.16666667  0.40000000       0.011
   0.16666667  0.50000000  0.40000000       0.011
   0.33333333  0.33333333  0.40000000       0.011
  -0.33333333  0.33333333  0.40000000       0.011
  -0.33333333 -0.33333333  0.40000000       0.011
   0.33333333 -0.33333333  0.40000000       0.011
   0.50000000  0.33333333  0.40000000       0.011
  -0.33333333  0.50000000  0.40000000       0.011
   0.50000000 -0.33333333  0.40000000       0.011
   0.33333333  0.50000000  0.40000000       0.011
   0.50000000  0.50000000  0.40000000       0.011
 
 position of ions in fractional coordinates (direct lattice) 
   0.71875250  0.56674963  0.38339064
   0.43325037  0.71875250  0.38339064
   0.28124750  0.56674963  0.88339067
   0.56674963  0.71875250  0.88339067
   0.91994214  0.21188593  0.91521937
   0.08005786  0.21188593  0.41521931
   0.50996166  0.56668973  0.01257426
   0.49003834  0.56668973  0.51257426
   0.67072719  0.15014099  0.79171938
   0.32927281  0.84985900  0.79171938
   0.84985900  0.67072719  0.79171938
   0.15014099  0.32927281  0.79171938
   0.67072719  0.84985900  0.29171944
   0.32927281  0.15014099  0.29171944
   0.84985900  0.32927281  0.29171944
   0.15014099  0.67072719  0.29171944
 
 position of ions in cartesian coordinates  (Angst):
   4.95009516  3.90324152  3.07770348
   2.98382341  4.95009516  3.07770348
   1.93696977  3.90324152  7.09149958
   3.90324152  4.95009516  7.09149958
   6.33570126  1.45927215  7.34700740
   0.55136368  1.45927215  3.33321106
   3.51213910  3.90282897  0.10094102
   3.37492584  3.90282897  4.11473684
   4.61934173  1.03403072  6.35559990
   2.26772320  5.85303411  6.35559990
   5.85303411  4.61934173  6.35559990
   1.03403072  2.26772320  6.35559990
   4.61934173  5.85303411  2.34180453
   2.26772320  1.03403072  2.34180453
   5.85303411  2.26772320  2.34180453
   1.03403072  4.61934173  2.34180453
 


--------------------------------------------------------------------------------------------------------


 k-point   1 :   0.0000 0.0000 0.0000  plane waves:   10265
 k-point   2 :   0.1667 0.0000 0.0000  plane waves:   10247
 k-point   3 :   0.0000 0.1667 0.0000  plane waves:   10247
 k-point   4 :   0.3333 0.0000 0.0000  plane waves:   10242
 k-point   5 :   0.0000 0.3333 0.0000  plane waves:   10242
 k-point   6 :   0.5000 0.0000 0.0000  plane waves:   10258
 k-point   7 :   0.0000 0.5000 0.0000  plane waves:   10258
 k-point   8 :   0.1667 0.1667 0.0000  plane waves:   10244
 k-point   9 :  -0.1667 0.1667 0.0000  plane waves:   10244
 k-point  10 :   0.3333 0.1667 0.0000  plane waves:   10241
 k-point  11 :  -0.1667 0.3333 0.0000  plane waves:   10241
 k-point  12 :  -0.3333 0.1667 0.0000  plane waves:   10241
 k-point  13 :   0.1667 0.3333 0.0000  plane waves:   10241
 k-point  14 :   0.5000 0.1667 0.0000  plane waves:   10262
 k-point  15 :  -0.1667 0.5000 0.0000  plane waves:   10262
 k-point  16 :   0.3333 0.3333 0.0000  plane waves:   10234
 k-point  17 :  -0.3333 0.3333 0.0000  plane waves:   10234
 k-point  18 :   0.5000 0.3333 0.0000  plane waves:   10236
 k-point  19 :  -0.3333 0.5000 0.0000  plane waves:   10236
 k-point  20 :   0.5000 0.5000 0.0000  plane waves:   10228
 k-point  21 :   0.0000 0.0000 0.2000  plane waves:   10230
 k-point  22 :   0.1667 0.0000 0.2000  plane waves:   10237
 k-point  23 :   0.0000 0.1667 0.2000  plane waves:   10237
 k-point  24 :  -0.1667 0.0000 0.2000  plane waves:   10237
 k-point  25 :   0.0000-0.1667 0.2000  plane waves:   10237
 k-point  26 :   0.3333 0.0000 0.2000  plane waves:   10245
 k-point  27 :   0.0000 0.3333 0.2000  plane waves:   10245
 k-point  28 :  -0.3333 0.0000 0.2000  plane waves:   10245
 k-point  29 :   0.0000-0.3333 0.2000  plane waves:   10245
 k-point  30 :   0.5000 0.0000 0.2000  plane waves:   10244
 k-point  31 :   0.0000 0.5000 0.2000  plane waves:   10244
 k-point  32 :   0.1667 0.1667 0.2000  plane waves:   10255
 k-point  33 :  -0.1667 0.1667 0.2000  plane waves:   10255
 k-point  34 :  -0.1667-0.1667 0.2000  plane waves:   10255
 k-point  35 :   0.1667-0.1667 0.2000  plane waves:   10255
 k-point  36 :   0.3333 0.1667 0.2000  plane waves:   10243
 k-point  37 :  -0.1667 0.3333 0.2000  plane waves:   10243
 k-point  38 :  -0.3333-0.1667 0.2000  plane waves:   10243
 k-point  39 :   0.1667-0.3333 0.2000  plane waves:   10243
 k-point  40 :  -0.3333 0.1667-0.2000  plane waves:   10243
 k-point  41 :   0.1667 0.3333-0.2000  plane waves:   10243
 k-point  42 :   0.3333-0.1667-0.2000  plane waves:   10243
 k-point  43 :  -0.1667-0.3333-0.2000  plane waves:   10243
 k-point  44 :   0.5000 0.1667 0.2000  plane waves:   10260
 k-point  45 :  -0.1667 0.5000 0.2000  plane waves:   10260
 k-point  46 :   0.5000-0.1667 0.2000  plane waves:   10260
 k-point  47 :   0.1667 0.5000 0.2000  plane waves:   10260
 k-point  48 :   0.3333 0.3333 0.2000  plane waves:   10258
 k-point  49 :  -0.3333 0.3333 0.2000  plane waves:   10258
 k-point  50 :  -0.3333-0.3333 0.2000  plane waves:   10258
 k-point  51 :   0.3333-0.3333 0.2000  plane waves:   10258
 k-point  52 :   0.5000 0.3333 0.2000  plane waves:   10264
 k-point  53 :  -0.3333 0.5000 0.2000  plane waves:   10264
 k-point  54 :   0.5000-0.3333 0.2000  plane waves:   10264
 k-point  55 :   0.3333 0.5000 0.2000  plane waves:   10264
 k-point  56 :   0.5000 0.5000 0.2000  plane waves:   10252
 k-point  57 :   0.0000 0.0000 0.4000  plane waves:   10218
 k-point  58 :   0.1667 0.0000 0.4000  plane waves:   10249
 k-point  59 :   0.0000 0.1667 0.4000  plane waves:   10249
 k-point  60 :  -0.1667 0.0000 0.4000  plane waves:   10249
 k-point  61 :   0.0000-0.1667 0.4000  plane waves:   10249
 k-point  62 :   0.3333 0.0000 0.4000  plane waves:   10271
 k-point  63 :   0.0000 0.3333 0.4000  plane waves:   10271
 k-point  64 :  -0.3333 0.0000 0.4000  plane waves:   10271
 k-point  65 :   0.0000-0.3333 0.4000  plane waves:   10271
 k-point  66 :   0.5000 0.0000 0.4000  plane waves:   10278
 k-point  67 :   0.0000 0.5000 0.4000  plane waves:   10278
 k-point  68 :   0.1667 0.1667 0.4000  plane waves:   10237
 k-point  69 :  -0.1667 0.1667 0.4000  plane waves:   10237
 k-point  70 :  -0.1667-0.1667 0.4000  plane waves:   10237
 k-point  71 :   0.1667-0.1667 0.4000  plane waves:   10237
 k-point  72 :   0.3333 0.1667 0.4000  plane waves:   10265
 k-point  73 :  -0.1667 0.3333 0.4000  plane waves:   10265
 k-point  74 :  -0.3333-0.1667 0.4000  plane waves:   10265
 k-point  75 :   0.1667-0.3333 0.4000  plane waves:   10265
 k-point  76 :  -0.3333 0.1667-0.4000  plane waves:   10265
 k-point  77 :   0.1667 0.3333-0.4000  plane waves:   10265
 k-point  78 :   0.3333-0.1667-0.4000  plane waves:   10265
 k-point  79 :  -0.1667-0.3333-0.4000  plane waves:   10265
 k-point  80 :   0.5000 0.1667 0.4000  plane waves:   10284
 k-point  81 :  -0.1667 0.5000 0.4000  plane waves:   10284
 k-point  82 :   0.5000-0.1667 0.4000  plane waves:   10284
 k-point  83 :   0.1667 0.5000 0.4000  plane waves:   10284
 k-point  84 :   0.3333 0.3333 0.4000  plane waves:   10253
 k-point  85 :  -0.3333 0.3333 0.4000  plane waves:   10253
 k-point  86 :  -0.3333-0.3333 0.4000  plane waves:   10253
 k-point  87 :   0.3333-0.3333 0.4000  plane waves:   10253
 k-point  88 :   0.5000 0.3333 0.4000  plane waves:   10244
 k-point  89 :  -0.3333 0.5000 0.4000  plane waves:   10244
 k-point  90 :   0.5000-0.3333 0.4000  plane waves:   10244
 k-point  91 :   0.3333 0.5000 0.4000  plane waves:   10244
 k-point  92 :   0.5000 0.5000 0.4000  plane waves:   10256

 maximum and minimum number of plane-waves per node :      2601     2540

 maximum number of plane-waves:     10284
 maximum index in each direction: 
   IXMAX=   13   IYMAX=   13   IZMAX=   15
   IXMIN=  -13   IYMIN=  -13   IZMIN=  -15


 parallel 3D FFT for wavefunctions:
    minimum data exchange during FFTs selected (reduces bandwidth)
 parallel 3D FFT for charge:
    minimum data exchange during FFTs selected (reduces bandwidth)


 total amount of memory used by VASP MPI-rank0   183885. kBytes
=======================================================================

   base      :      30000. kBytes
   nonl-proj :      46412. kBytes
   fftplans  :      11852. kBytes
   grid      :      10589. kBytes
   one-center:         24. kBytes
   wavefun   :      85008. kBytes
 
     INWAV:  cpu time      0.0000: real time      0.0000
 Broyden mixing: mesh for mixing (old mesh)
   NGX = 25   NGY = 25   NGZ = 29
  (NGX  =108   NGY  =108   NGZ  =120)
  gives a total of  18125 points

 initial charge density was supplied:
 charge density of overlapping atoms calculated
 number of electron      82.0000000 magnetization       9.6000000
 keeping initial charge density in first step


--------------------------------------------------------------------------------------------------------


 Maximum index for augmentation-charges         6176 (set IRDMAX)


--------------------------------------------------------------------------------------------------------


 First call to EWALD:  gamma=   0.245
 Maximum number of real-space cells 3x 3x 3
 Maximum number of reciprocal cells 3x 3x 3

    FEWALD:  cpu time      0.0012: real time      0.0012


--------------------------------------- Iteration      1(   1)  ---------------------------------------


    POTLOK:  cpu time      0.0851: real time      0.1210
    SETDIJ:  cpu time      0.2274: real time      0.2284
     EDDAV:  cpu time     15.9657: real time     16.0398
       DOS:  cpu time      0.0047: real time      0.0047
    --------------------------------------------
      LOOP:  cpu time     16.2829: real time     16.3939

 eigenvalue-minimisations  : 20240
 total energy-change (2. order) : 0.4456123E+03  (-0.3392873E+04)
 number of electron      82.0000000 magnetization       9.6000000
 augmentation part       82.0000000 magnetization       9.6000000

 Free energy of the ion-electron system (eV)
  ---------------------------------------------------
  alpha Z        PSCENC =        82.56966272
  Ewald energy   TEWEN  =     -2667.16993212
  -Hartree energ DENC   =      -703.24529720
  -exchange      EXHF   =         0.00000000
  -V(xc)+E(xc)   XCENC  =       152.38446250
  PAW double counting   =      2627.86259629    -2576.13046224
  entropy T*S    EENTRO =        -0.00535714
  eigenvalues    EBANDS =       124.37168310
  atomic energy  EATOM  =      3404.97492938
  Solvation  Ediel_sol  =         0.00000000
  ---------------------------------------------------
  free energy    TOTEN  =       445.61228529 eV

  energy without entropy =      445.61764243  energy(sigma->0) =      445.61496386


--------------------------------------------------------------------------------------------------------




--------------------------------------- Iteration      1(   2)  ---------------------------------------


     EDDAV:  cpu time     17.8442: real time     17.9241
       DOS:  cpu time      0.0049: real time      0.0049
    --------------------------------------------
      LOOP:  cpu time     17.8490: real time     17.9290

 eigenvalue-minimisations  : 25600
 total energy-change (2. order) :-0.4735422E+03  (-0.4557214E+03)
 number of electron      82.0000000 magnetization       9.6000000
 augmentation part       82.0000000 magnetization       9.6000000

 Free energy of the ion-electron system (eV)
  ---------------------------------------------------
  alpha Z        PSCENC =        82.56966272
  Ewald energy   TEWEN  =     -2667.16993212
  -Hartree energ DENC   =      -703.24529720
  -exchange      EXHF   =         0.00000000
  -V(xc)+E(xc)   XCENC  =       152.38446250
  PAW double counting   =      2627.86259629    -2576.13046224
  entropy T*S    EENTRO =        -0.00616990
  eigenvalues    EBANDS =      -349.16968458
  atomic energy  EATOM  =      3404.97492938
  Solvation  Ediel_sol  =         0.00000000
  ---------------------------------------------------
  free energy    TOTEN  =       -27.92989514 eV

  energy without entropy =      -27.92372525  energy(sigma->0) =      -27.92681020


--------------------------------------------------------------------------------------------------------




--------------------------------------- Iteration      1(   3)  ---------------------------------------


     EDDAV:  cpu time     17.5405: real time     17.6201
       DOS:  cpu time      0.0047: real time      0.0047
    --------------------------------------------
      LOOP:  cpu time     17.5452: real time     17.6248

 eigenvalue-minimisations  : 24650
 total energy-change (2. order) :-0.4306222E+02  (-0.4191198E+02)
 number of electron      82.0000000 magnetization       9.6000000
 augmentation part       82.0000000 magnetization       9.6000000

 Free energy of the ion-electron system (eV)
  ---------------------------------------------------
  alpha Z        PSCENC =        82.56966272
  Ewald energy   TEWEN  =     -2667.16993212
  -Hartree energ DENC   =      -703.24529720
  -exchange      EXHF   =         0.00000000
  -V(xc)+E(xc)   XCENC  =       152.38446250
  PAW double counting   =      2627.86259629    -2576.13046224
  entropy T*S    EENTRO =        -0.00991978
  eigenvalues    EBANDS =      -392.22815862
  atomic energy  EATOM  =      3404.97492938
  Solvation  Ediel_sol  =         0.00000000
  ---------------------------------------------------
  free energy    TOTEN  =       -70.99211906 eV

  energy without entropy =      -70.98219929  energy(sigma->0) =      -70.98715918


--------------------------------------------------------------------------------------------------------




--------------------------------------- Iteration      1(   4)  ---------------------------------------


     EDDAV:  cpu time     19.1957: real time     19.2847
       DOS:  cpu time      0.0047: real time      0.0047
    --------------------------------------------
      LOOP:  cpu time     19.2005: real time     19.2894

 eigenvalue-minimisations  : 26230
 total energy-change (2. order) :-0.1195977E+01  (-0.1187885E+01)
 number of electron      82.0000000 magnetization       9.6000000
 augmentation part       82.0000000 magnetization       9.6000000

 Free energy of the ion-electron system (eV)
  ---------------------------------------------------
  alpha Z        PSCENC =        82.56966272
  Ewald energy   TEWEN  =     -2667.16993212
  -Hartree energ DENC   =      -703.24529720
  -exchange      EXHF   =         0.00000000
  -V(xc)+E(xc)   XCENC  =       152.38446250
  PAW double counting   =      2627.86259629    -2576.13046224
  entropy T*S    EENTRO =        -0.00984345
  eigenvalues    EBANDS =      -393.42421199
  atomic energy  EATOM  =      3404.97492938
  Solvation  Ediel_sol  =         0.00000000
  ---------------------------------------------------
  free energy    TOTEN  =       -72.18809610 eV

  energy without entropy =      -72.17825265  energy(sigma->0) =      -72.18317438


--------------------------------------------------------------------------------------------------------




--------------------------------------- Iteration      1(   5)  ---------------------------------------


     EDDAV:  cpu time     18.3152: real time     18.3997
       DOS:  cpu time      0.0050: real time      0.0050
    CHARGE:  cpu time      0.7005: real time      0.7032
    MIXING:  cpu time      0.0035: real time      0.0036
    --------------------------------------------
      LOOP:  cpu time     19.0242: real time     19.1115

 eigenvalue-minimisations  : 25945
 total energy-change (2. order) :-0.3690902E-01  (-0.3687377E-01)
 number of electron      82.0000000 magnetization       4.9804978
 augmentation part       -9.6616812 magnetization       2.8373943

 Broyden mixing:
  rms(total) = 0.32742E+01    rms(broyden)= 0.32742E+01
  rms(prec ) = 0.35399E+01
  weight for this iteration     100.00

 Free energy of the ion-electron system (eV)
  ---------------------------------------------------
  alpha Z        PSCENC =        82.56966272
  Ewald energy   TEWEN  =     -2667.16993212
  -Hartree energ DENC   =      -703.24529720
  -exchange      EXHF   =         0.00000000
  -V(xc)+E(xc)   XCENC  =       152.38446250
  PAW double counting   =      2627.86259629    -2576.13046224
  entropy T*S    EENTRO =        -0.00983926
  eigenvalues    EBANDS =      -393.46112520
  atomic energy  EATOM  =      3404.97492938
  Solvation  Ediel_sol  =         0.00000000
  ---------------------------------------------------
  free energy    TOTEN  =       -72.22500512 eV

  energy without entropy =      -72.21516586  energy(sigma->0) =      -72.22008549


--------------------------------------------------------------------------------------------------------




--------------------------------------- Iteration      1(   6)  ---------------------------------------


    POTLOK:  cpu time      0.0820: real time      0.0870
    SETDIJ:  cpu time      0.2459: real time      0.2466
     EDDAV:  cpu time     17.4322: real time     17.5104
       DOS:  cpu time      0.0049: real time      0.0049
    CHARGE:  cpu time      0.6882: real time      0.6911
    MIXING:  cpu time      0.0033: real time      0.0033
    --------------------------------------------
      LOOP:  cpu time     18.4564: real time     18.5433

 eigenvalue-minimisations  : 24960
 total energy-change (2. order) : 0.2337104E+01  (-0.7979843E+00)
 number of electron      82.0000000 magnetization       2.2965303
 augmentation part       -9.5872799 magnetization       0.2683345

 Broyden mixing:
  rms(total) = 0.18208E+01    rms(broyden)= 0.18208E+01
  rms(prec ) = 0.19110E+01
  weight for this iteration     100.00

 eigenvalues of (default mixing * dielectric matrix)
  average eigenvalue GAMMA=   1.4822
  1.4822

 Free energy of the ion-electron system (eV)
  ---------------------------------------------------
  alpha Z        PSCENC =        82.56966272
  Ewald energy   TEWEN  =     -2667.16993212
  -Hartree energ DENC   =      -729.27315493
  -exchange      EXHF   =         0.00000000
  -V(xc)+E(xc)   XCENC  =       153.88262453
  PAW double counting   =      4373.57827795    -4322.67002393
  entropy T*S    EENTRO =        -0.00177958
  eigenvalues    EBANDS =      -365.77850554
  atomic energy  EATOM  =      3404.97492938
  Solvation  Ediel_sol  =         0.00000000
  ---------------------------------------------------
  free energy    TOTEN  =       -69.88790153 eV

  energy without entropy =      -69.88612194  energy(sigma->0) =      -69.88701174


--------------------------------------------------------------------------------------------------------




--------------------------------------- Iteration      1(   7)  ---------------------------------------


    POTLOK:  cpu time      0.0804: real time      0.0809
    SETDIJ:  cpu time      0.2389: real time      0.2398
     EDDAV:  cpu time     17.1347: real time     17.2101
       DOS:  cpu time      0.0049: real time      0.0049
    CHARGE:  cpu time      0.6911: real time      0.6939
    MIXING:  cpu time      0.0028: real time      0.0028
    --------------------------------------------
      LOOP:  cpu time     18.1528: real time     18.2324

 eigenvalue-minimisations  : 23845
 total energy-change (2. order) :-0.9783675E-01  (-0.6441829E+00)
 number of electron      82.0000000 magnetization       1.4655106
 augmentation part       -9.5846504 magnetization      -0.5502662

 Broyden mixing:
  rms(total) = 0.86762E+00    rms(broyden)= 0.86762E+00
  rms(prec ) = 0.90106E+00
  weight for this iteration     100.00

 eigenvalues of (default mixing * dielectric matrix)
  average eigenvalue GAMMA=   1.3956
  0.6634  2.1279

 Free energy of the ion-electron system (eV)
  ---------------------------------------------------
  alpha Z        PSCENC =        82.56966272
  Ewald energy   TEWEN  =     -2667.16993212
  -Hartree energ DENC   =      -743.26762963
  -exchange      EXHF   =         0.00000000
  -V(xc)+E(xc)   XCENC  =       155.01258363
  PAW double counting   =      6441.30521502    -6390.87734986
  entropy T*S    EENTRO =        -0.00391211
  eigenvalues    EBANDS =      -352.52930532
  atomic energy  EATOM  =      3404.97492938
  Solvation  Ediel_sol  =         0.00000000
  ---------------------------------------------------
  free energy    TOTEN  =       -69.98573828 eV

  energy without entropy =      -69.98182617  energy(sigma->0) =      -69.98378222


--------------------------------------------------------------------------------------------------------




--------------------------------------- Iteration      1(   8)  ---------------------------------------


    POTLOK:  cpu time      0.0716: real time      0.0747
    SETDIJ:  cpu time      0.2304: real time      0.2312
     EDDAV:  cpu time     17.7416: real time     17.8223
       DOS:  cpu time      0.0046: real time      0.0046
    CHARGE:  cpu time      0.6778: real time      0.6806
    MIXING:  cpu time      0.0019: real time      0.0019
    --------------------------------------------
      LOOP:  cpu time     18.7279: real time     18.8152

 eigenvalue-minimisations  : 23300
 total energy-change (2. order) :-0.5760126E-01  (-0.8270048E-01)
 number of electron      82.0000000 magnetization       1.4714345
 augmentation part       -9.5825827 magnetization      -0.4954009

 Broyden mixing:
  rms(total) = 0.39597E+00    rms(broyden)= 0.39597E+00
  rms(prec ) = 0.42718E+00
  weight for this iteration     100.00

 eigenvalues of (default mixing * dielectric matrix)
  average eigenvalue GAMMA=   1.2559
  2.3964  0.6856  0.6856

 Free energy of the ion-electron system (eV)
  ---------------------------------------------------
  alpha Z        PSCENC =        82.56966272
  Ewald energy   TEWEN  =     -2667.16993212
  -Hartree energ DENC   =      -748.19701299
  -exchange      EXHF   =         0.00000000
  -V(xc)+E(xc)   XCENC  =       155.60153991
  PAW double counting   =      7752.80603278    -7702.71631777
  entropy T*S    EENTRO =        -0.00551351
  eigenvalues    EBANDS =      -347.90672795
  atomic energy  EATOM  =      3404.97492938
  Solvation  Ediel_sol  =         0.00000000
  ---------------------------------------------------
  free energy    TOTEN  =       -70.04333954 eV

  energy without entropy =      -70.03782603  energy(sigma->0) =      -70.04058279


--------------------------------------------------------------------------------------------------------




--------------------------------------- Iteration      1(   9)  ---------------------------------------


    POTLOK:  cpu time      0.0760: real time      0.0772
    SETDIJ:  cpu time      0.2310: real time      0.2317
     EDDAV:  cpu time     18.3761: real time     18.4599
       DOS:  cpu time      0.0047: real time      0.0047
    CHARGE:  cpu time      0.6819: real time      0.6846
    MIXING:  cpu time      0.0038: real time      0.0038
    --------------------------------------------
      LOOP:  cpu time     19.3735: real time     19.4621

 eigenvalue-minimisations  : 25955
 total energy-change (2. order) : 0.1098859E-01  (-0.1026279E-01)
 number of electron      82.0000000 magnetization       1.7007528
 augmentation part       -9.5782141 magnetization      -0.3513644

 Broyden mixing:
  rms(total) = 0.19684E+00    rms(broyden)= 0.19684E+00
  rms(prec ) = 0.20859E+00
  weight for this iteration     100.00

 eigenvalues of (default mixing * dielectric matrix)
  average eigenvalue GAMMA=   1.2573
  2.5536  0.9390  0.9390  0.5978

 Free energy of the ion-electron system (eV)
  ---------------------------------------------------
  alpha Z        PSCENC =        82.56966272
  Ewald energy   TEWEN  =     -2667.16993212
  -Hartree energ DENC   =      -748.76338063
  -exchange      EXHF   =         0.00000000
  -V(xc)+E(xc)   XCENC  =       155.69943378
  PAW double counting   =      8142.61028013    -8092.54046977
  entropy T*S    EENTRO =        -0.00369075
  eigenvalues    EBANDS =      -347.40918370
  atomic energy  EATOM  =      3404.97492938
  Solvation  Ediel_sol  =         0.00000000
  ---------------------------------------------------
  free energy    TOTEN  =       -70.03235095 eV

  energy without entropy =      -70.02866020  energy(sigma->0) =      -70.03050558


--------------------------------------------------------------------------------------------------------




--------------------------------------- Iteration      1(  10)  ---------------------------------------


    POTLOK:  cpu time      0.0829: real time      0.0843
    SETDIJ:  cpu time      0.2383: real time      0.2407
     EDDAV:  cpu time     16.9406: real time     17.0161
       DOS:  cpu time      0.0048: real time      0.0048
    CHARGE:  cpu time      0.7136: real time      0.7168
    MIXING:  cpu time      0.0023: real time      0.0023
    --------------------------------------------
      LOOP:  cpu time     17.9825: real time     18.0650

 eigenvalue-minimisations  : 24340
 total energy-change (2. order) :-0.1310534E-02  (-0.4330530E-02)
 number of electron      82.0000000 magnetization       1.9323503
 augmentation part       -9.5822043 magnetization      -0.1684366

 Broyden mixing:
  rms(total) = 0.81811E-01    rms(broyden)= 0.81811E-01
  rms(prec ) = 0.86518E-01
  weight for this iteration     100.00

 eigenvalues of (default mixing * dielectric matrix)
  average eigenvalue GAMMA=   1.2702
  2.5223  1.1801  1.1801  0.8434  0.6252

 Free energy of the ion-electron system (eV)
  ---------------------------------------------------
  alpha Z        PSCENC =        82.56966272
  Ewald energy   TEWEN  =     -2667.16993212
  -Hartree energ DENC   =      -748.37704239
  -exchange      EXHF   =         0.00000000
  -V(xc)+E(xc)   XCENC  =       155.69057783
  PAW double counting   =      8282.76825960    -8232.67861491
  entropy T*S    EENTRO =        -0.00204977
  eigenvalues    EBANDS =      -347.80945183
  atomic energy  EATOM  =      3404.97492938
  Solvation  Ediel_sol  =         0.00000000
  ---------------------------------------------------
  free energy    TOTEN  =       -70.03366149 eV

  energy without entropy =      -70.03161172  energy(sigma->0) =      -70.03263660


--------------------------------------------------------------------------------------------------------




--------------------------------------- Iteration      1(  11)  ---------------------------------------


    POTLOK:  cpu time      0.0765: real time      0.0768
    SETDIJ:  cpu time      0.2595: real time      0.2605
     EDDAV:  cpu time     16.8837: real time     16.9587
       DOS:  cpu time      0.0048: real time      0.0048
    CHARGE:  cpu time      0.6806: real time      0.6854
    MIXING:  cpu time      0.0026: real time      0.0026
    --------------------------------------------
      LOOP:  cpu time     17.9076: real time     17.9888

 eigenvalue-minimisations  : 23160
 total energy-change (2. order) :-0.1642074E-02  (-0.1131071E-02)
 number of electron      82.0000000 magnetization       1.9903946
 augmentation part       -9.5840402 magnetization      -0.1196476

 Broyden mixing:
  rms(total) = 0.35805E-01    rms(broyden)= 0.35805E-01
  rms(prec ) = 0.38154E-01
  weight for this iteration     100.00

 eigenvalues of (default mixing * dielectric matrix)
  average eigenvalue GAMMA=   1.2538
  2.4157  1.8684  1.0223  0.8049  0.8049  0.6065

 Free energy of the ion-electron system (eV)
  ---------------------------------------------------
  alpha Z        PSCENC =        82.56966272
  Ewald energy   TEWEN  =     -2667.16993212
  -Hartree energ DENC   =      -747.94158023
  -exchange      EXHF   =         0.00000000
  -V(xc)+E(xc)   XCENC  =       155.65851753
  PAW double counting   =      8268.65244602    -8218.53284357
  entropy T*S    EENTRO =        -0.00177273
  eigenvalues    EBANDS =      -348.24473056
  atomic energy  EATOM  =      3404.97492938
  Solvation  Ediel_sol  =         0.00000000
  ---------------------------------------------------
  free energy    TOTEN  =       -70.03530356 eV

  energy without entropy =      -70.03353083  energy(sigma->0) =      -70.03441720


--------------------------------------------------------------------------------------------------------




--------------------------------------- Iteration      1(  12)  ---------------------------------------


    POTLOK:  cpu time      0.0812: real time      0.0827
    SETDIJ:  cpu time      0.2402: real time      0.2414
     EDDAV:  cpu time     18.5944: real time     18.6783
       DOS:  cpu time      0.0047: real time      0.0047
    CHARGE:  cpu time      0.6921: real time      0.6947
    MIXING:  cpu time      0.0080: real time      0.0080
    --------------------------------------------
      LOOP:  cpu time     19.6207: real time     19.7099

 eigenvalue-minimisations  : 24980
 total energy-change (2. order) :-0.2391573E-03  (-0.1902495E-03)
 number of electron      82.0000000 magnetization       1.9913884
 augmentation part       -9.5835246 magnetization      -0.1224064

 Broyden mixing:
  rms(total) = 0.14173E-01    rms(broyden)= 0.14173E-01
  rms(prec ) = 0.15088E-01
  weight for this iteration     100.00

 eigenvalues of (default mixing * dielectric matrix)
  average eigenvalue GAMMA=   1.2401
  2.2349  2.2349  1.0578  0.9186  0.9186  0.6106  0.7054

 Free energy of the ion-electron system (eV)
  ---------------------------------------------------
  alpha Z        PSCENC =        82.56966272
  Ewald energy   TEWEN  =     -2667.16993212
  -Hartree energ DENC   =      -747.90434143
  -exchange      EXHF   =         0.00000000
  -V(xc)+E(xc)   XCENC  =       155.64980015
  PAW double counting   =      8248.86598705    -8198.73461649
  entropy T*S    EENTRO =        -0.00156282
  eigenvalues    EBANDS =      -348.28546917
  atomic energy  EATOM  =      3404.97492938
  Solvation  Ediel_sol  =         0.00000000
  ---------------------------------------------------
  free energy    TOTEN  =       -70.03554272 eV

  energy without entropy =      -70.03397990  energy(sigma->0) =      -70.03476131


--------------------------------------------------------------------------------------------------------




--------------------------------------- Iteration      1(  13)  ---------------------------------------


    POTLOK:  cpu time      0.0754: real time      0.0765
    SETDIJ:  cpu time      0.2269: real time      0.2276
     EDDAV:  cpu time     19.0094: real time     19.0966
       DOS:  cpu time      0.0043: real time      0.0043
    CHARGE:  cpu time      0.7177: real time      0.7205
    MIXING:  cpu time      0.0076: real time      0.0077
    --------------------------------------------
      LOOP:  cpu time     20.0413: real time     20.1332

 eigenvalue-minimisations  : 26960
 total energy-change (2. order) :-0.6309240E-04  (-0.2896967E-04)
 number of electron      82.0000000 magnetization       1.9873934
 augmentation part       -9.5833549 magnetization      -0.1272169

 Broyden mixing:
  rms(total) = 0.86125E-02    rms(broyden)= 0.86125E-02
  rms(prec ) = 0.95095E-02
  weight for this iteration     100.00

 eigenvalues of (default mixing * dielectric matrix)
  average eigenvalue GAMMA=   1.2115
  2.2680  2.2680  1.1234  1.1234  0.8269  0.8269  0.6144  0.6408

 Free energy of the ion-electron system (eV)
  ---------------------------------------------------
  alpha Z        PSCENC =        82.56966272
  Ewald energy   TEWEN  =     -2667.16993212
  -Hartree energ DENC   =      -747.94421780
  -exchange      EXHF   =         0.00000000
  -V(xc)+E(xc)   XCENC  =       155.65235548
  PAW double counting   =      8237.92230016    -8187.78952332
  entropy T*S    EENTRO =        -0.00149038
  eigenvalues    EBANDS =      -348.24968993
  atomic energy  EATOM  =      3404.97492938
  Solvation  Ediel_sol  =         0.00000000
  ---------------------------------------------------
  free energy    TOTEN  =       -70.03560581 eV

  energy without entropy =      -70.03411543  energy(sigma->0) =      -70.03486062


--------------------------------------------------------------------------------------------------------




--------------------------------------- Iteration      1(  14)  ---------------------------------------


    POTLOK:  cpu time      0.0820: real time      0.0832
    SETDIJ:  cpu time      0.2571: real time      0.2579
     EDDAV:  cpu time     16.2496: real time     16.3225
       DOS:  cpu time      0.0047: real time      0.0048
    CHARGE:  cpu time      0.7217: real time      0.7249
    MIXING:  cpu time      0.0035: real time      0.0035
    --------------------------------------------
      LOOP:  cpu time     17.3186: real time     17.3967

 eigenvalue-minimisations  : 23640
 total energy-change (2. order) :-0.2031437E-04  (-0.4611211E-05)
 number of electron      82.0000000 magnetization       1.9831608
 augmentation part       -9.5831677 magnetization      -0.1309541

 Broyden mixing:
  rms(total) = 0.49682E-02    rms(broyden)= 0.49682E-02
  rms(prec ) = 0.53974E-02
  weight for this iteration     100.00

 eigenvalues of (default mixing * dielectric matrix)
  average eigenvalue GAMMA=   1.2730
  2.3792  2.3792  1.5089  1.3902  0.8519  0.8519  0.8760  0.6097  0.6097

 Free energy of the ion-electron system (eV)
  ---------------------------------------------------
  alpha Z        PSCENC =        82.56966272
  Ewald energy   TEWEN  =     -2667.16993212
  -Hartree energ DENC   =      -747.99703351
  -exchange      EXHF   =         0.00000000
  -V(xc)+E(xc)   XCENC  =       155.65737142
  PAW double counting   =      8236.33486764    -8186.20210839
  entropy T*S    EENTRO =        -0.00152320
  eigenvalues    EBANDS =      -348.20186005
  atomic energy  EATOM  =      3404.97492938
  Solvation  Ediel_sol  =         0.00000000
  ---------------------------------------------------
  free energy    TOTEN  =       -70.03562612 eV

  energy without entropy =      -70.03410292  energy(sigma->0) =      -70.03486452


--------------------------------------------------------------------------------------------------------




--------------------------------------- Iteration      1(  15)  ---------------------------------------


    POTLOK:  cpu time      0.0834: real time      0.0853
    SETDIJ:  cpu time      0.2570: real time      0.2580
     EDDAV:  cpu time     17.5456: real time     17.6250
       DOS:  cpu time      0.0047: real time      0.0047
    CHARGE:  cpu time      0.6939: real time      0.6966
    MIXING:  cpu time      0.0028: real time      0.0028
    --------------------------------------------
      LOOP:  cpu time     18.5874: real time     18.6723

 eigenvalue-minimisations  : 24490
 total energy-change (2. order) :-0.1911430E-04  (-0.4579583E-05)
 number of electron      82.0000000 magnetization       1.9830735
 augmentation part       -9.5829422 magnetization      -0.1306992

 Broyden mixing:
  rms(total) = 0.14701E-02    rms(broyden)= 0.14701E-02
  rms(prec ) = 0.17506E-02
  weight for this iteration     100.00

 eigenvalues of (default mixing * dielectric matrix)
  average eigenvalue GAMMA=   1.2537
  2.4291  2.4291  1.8313  1.3219  0.8488  0.8488  0.8350  0.7556  0.6061  0.6307

 Free energy of the ion-electron system (eV)
  ---------------------------------------------------
  alpha Z        PSCENC =        82.56966272
  Ewald energy   TEWEN  =     -2667.16993212
  -Hartree energ DENC   =      -748.06463454
  -exchange      EXHF   =         0.00000000
  -V(xc)+E(xc)   XCENC  =       155.66331527
  PAW double counting   =      8236.90659189    -8186.77404204
  entropy T*S    EENTRO =        -0.00155072
  eigenvalues    EBANDS =      -348.13998508
  atomic energy  EATOM  =      3404.97492938
  Solvation  Ediel_sol  =         0.00000000
  ---------------------------------------------------
  free energy    TOTEN  =       -70.03564524 eV

  energy without entropy =      -70.03409452  energy(sigma->0) =      -70.03486988


--------------------------------------------------------------------------------------------------------




--------------------------------------- Iteration      1(  16)  ---------------------------------------


    POTLOK:  cpu time      0.0737: real time      0.0748
    SETDIJ:  cpu time      0.2475: real time      0.2484
     EDDAV:  cpu time     17.2960: real time     17.3745
       DOS:  cpu time      0.0046: real time      0.0046
    CHARGE:  cpu time      0.6899: real time      0.6941
    MIXING:  cpu time      0.0021: real time      0.0021
    --------------------------------------------
      LOOP:  cpu time     18.3137: real time     18.3985

 eigenvalue-minimisations  : 22450
 total energy-change (2. order) :-0.1354561E-05  (-0.5106138E-06)
 number of electron      82.0000000 magnetization       1.9838764
 augmentation part       -9.5829735 magnetization      -0.1301051

 Broyden mixing:
  rms(total) = 0.69614E-03    rms(broyden)= 0.69611E-03
  rms(prec ) = 0.82706E-03
  weight for this iteration     100.00

 eigenvalues of (default mixing * dielectric matrix)
  average eigenvalue GAMMA=   1.2298
  2.4227  2.4227  1.7401  1.3781  0.9755  0.9755  0.8483  0.8483  0.6711  0.6029
  0.6424

 Free energy of the ion-electron system (eV)
  ---------------------------------------------------
  alpha Z        PSCENC =        82.56966272
  Ewald energy   TEWEN  =     -2667.16993212
  -Hartree energ DENC   =      -748.07078696
  -exchange      EXHF   =         0.00000000
  -V(xc)+E(xc)   XCENC  =       155.66383859
  PAW double counting   =      8236.47104950    -8186.33838562
  entropy T*S    EENTRO =        -0.00153933
  eigenvalues    EBANDS =      -348.13448276
  atomic energy  EATOM  =      3404.97492938
  Solvation  Ediel_sol  =         0.00000000
  ---------------------------------------------------
  free energy    TOTEN  =       -70.03564659 eV

  energy without entropy =      -70.03410727  energy(sigma->0) =      -70.03487693


--------------------------------------------------------------------------------------------------------




--------------------------------------- Iteration      1(  17)  ---------------------------------------


    POTLOK:  cpu time      0.0689: real time      0.0737
    SETDIJ:  cpu time      0.2340: real time      0.2348
     EDDAV:  cpu time     10.5523: real time     10.6009
       DOS:  cpu time      0.0046: real time      0.0046
    --------------------------------------------
      LOOP:  cpu time     10.8597: real time     10.9140

 eigenvalue-minimisations  : 12890
 total energy-change (2. order) :-0.7675280E-06  (-0.1284324E-06)
 number of electron      82.0000000 magnetization       1.9838764
 augmentation part       -9.5829735 magnetization      -0.1301051

 Free energy of the ion-electron system (eV)
  ---------------------------------------------------
  alpha Z        PSCENC =        82.56966272
  Ewald energy   TEWEN  =     -2667.16993212
  -Hartree energ DENC   =      -748.07454843
  -exchange      EXHF   =         0.00000000
  -V(xc)+E(xc)   XCENC  =       155.66438718
  PAW double counting   =      8236.71251069    -8186.57970600
  entropy T*S    EENTRO =        -0.00153349
  eigenvalues    EBANDS =      -348.13141730
  atomic energy  EATOM  =      3404.97492938
  Solvation  Ediel_sol  =         0.00000000
  ---------------------------------------------------
  free energy    TOTEN  =       -70.03564736 eV

  energy without entropy =      -70.03411387  energy(sigma->0) =      -70.03488061


--------------------------------------------------------------------------------------------------------




 average (electrostatic) potential at core
  the test charge radii are     0.7672  0.9587  0.9698
  (the norm of the test charge is              1.0000)
       1 -32.8098       2 -31.6734       3 -32.8098       4 -31.6734       5 -87.5866
       6 -87.5866       7 -90.2540       8 -90.2540       9 -89.5627      10 -89.5892
      11 -89.2949      12 -90.2998      13 -89.5892      14 -89.5627      15 -90.2998
      16 -89.2949
 
 
 
 E-fermi :   1.5190     XC(G=0):  -8.1470     alpha+bet : -7.7010

 Fermi energy:         1.5189729369

 spin component 1

 k-point     1 :       0.0000    0.0000    0.0000
  band No.  band energies     occupation 
      1     -14.0521      1.00000
      2     -13.7284      1.00000
      3     -12.9365      1.00000
      4     -12.7658      1.00000
      5     -11.1919      1.00000
      6     -11.1193      1.00000
      7     -10.7835      1.00000
      8     -10.4927      1.00000
      9     -10.1766      1.00000
     10     -10.0993      1.00000
     11      -7.2795      1.00000
     12      -7.1541      1.00000
     13      -5.5104      1.00000
     14      -5.3371      1.00000
     15      -4.9092      1.00000
     16      -4.2245      1.00000
     17      -3.7169      1.00000
     18      -3.4904      1.00000
     19      -3.2313      1.00000
     20      -2.9533      1.00000
     21      -2.6977      1.00000
     22      -2.4767      1.00000
     23      -2.2290      1.00000
     24      -2.1441      1.00000
     25      -1.9263      1.00000
     26      -1.6694      1.00000
     27      -1.3540      1.00000
     28      -1.0785      1.00000
     29      -0.7773      1.00000
     30      -0.6398      1.00000
     31      -0.3386      1.00000
     32      -0.2368      1.00000
     33       0.1313      1.00000
     34       0.3595      1.00000
     35       0.3913      1.00000
     36       0.6643      1.00000
     37       0.8025      1.00000
     38       0.8990      1.00000
     39       0.9454      1.00000
     40       1.0681      1.00000
     41       1.0756      1.00000
     42       1.4351      0.99114
     43       2.5845      0.00000
     44       2.6648      0.00000
     45       3.2516      0.00000
     46       3.6478      0.00000
     47       3.9133      0.00000
     48       3.9279      0.00000
     49       4.4417      0.00000
     50       4.9003      0.00000
     51       5.3739      0.00000
     52       5.8222      0.00000
     53       6.1909      0.00000
     54       6.5173      0.00000
     55       6.5666      0.00000

 k-point     2 :       0.1667    0.0000    0.0000
  band No.  band energies     occupation 
      1     -14.0427      1.00000
      2     -13.7226      1.00000
      3     -12.9487      1.00000
      4     -12.7684      1.00000
      5     -11.2088      1.00000
      6     -11.1444      1.00000
      7     -10.7646      1.00000
      8     -10.5129      1.00000
      9     -10.1823      1.00000
     10     -10.0651      1.00000
     11      -7.2690      1.00000
     12      -7.1502      1.00000
     13      -5.4862      1.00000
     14      -5.2405      1.00000
     15      -4.9034      1.00000
     16      -4.2390      1.00000
     17      -3.7399      1.00000
     18      -3.5616      1.00000
     19      -3.1748      1.00000
     20      -2.9795      1.00000
     21      -2.7232      1.00000
     22      -2.5417      1.00000
     23      -2.2108      1.00000
     24      -2.0954      1.00000
     25      -1.9296      1.00000
     26      -1.6204      1.00000
     27      -1.4622      1.00000
     28      -1.0260      1.00000
     29      -0.7541      1.00000
     30      -0.5040      1.00000
     31      -0.4497      1.00000
     32      -0.2449      1.00000
     33       0.0708      1.00000
     34       0.3718      1.00000
     35       0.3870      1.00000
     36       0.5690      1.00000
     37       0.7815      1.00000
     38       0.8289      1.00000
     39       0.8782      1.00000
     40       1.0186      1.00000
     41       1.1647      1.00000
     42       1.4755      0.89079
     43       2.5412      0.00000
     44       2.5833      0.00000
     45       3.2850      0.00000
     46       3.5669      0.00000
     47       3.9421      0.00000
     48       4.1686      0.00000
     49       4.5466      0.00000
     50       4.9089      0.00000
     51       5.4969      0.00000
     52       5.8662      0.00000
     53       6.1424      0.00000
     54       6.3742      0.00000
     55       6.5261      0.00000

 k-point     3 :       0.0000    0.1667    0.0000
  band No.  band energies     occupation 
      1     -14.0469      1.00000
      2     -13.7250      1.00000
      3     -12.9437      1.00000
      4     -12.7676      1.00000
      5     -11.2056      1.00000
      6     -11.1274      1.00000
      7     -10.7675      1.00000
      8     -10.4809      1.00000
      9     -10.1825      1.00000
     10     -10.1020      1.00000
     11      -7.3139      1.00000
     12      -7.1854      1.00000
     13      -5.4490      1.00000
     14      -5.2740      1.00000
     15      -4.9088      1.00000
     16      -4.2333      1.00000
     17      -3.6723      1.00000
     18      -3.5496      1.00000
     19      -3.1848      1.00000
     20      -2.9036      1.00000
     21      -2.7385      1.00000
     22      -2.4580      1.00000
     23      -2.2234      1.00000
     24      -2.1419      1.00000
     25      -1.8357      1.00000
     26      -1.6614      1.00000
     27      -1.4125      1.00000
     28      -1.0386      1.00000
     29      -0.7827      1.00000
     30      -0.6538      1.00000
     31      -0.4001      1.00000
     32      -0.2632      1.00000
     33       0.0682      1.00000
     34       0.3493      1.00000
     35       0.4233      1.00000
     36       0.5981      1.00000
     37       0.6785      1.00000
     38       0.8693      1.00000
     39       0.9076      1.00000
     40       1.0714      1.00000
     41       1.0916      1.00000
     42       1.4250      0.99607
     43       2.5466      0.00000
     44       2.5870      0.00000
     45       3.1857      0.00000
     46       3.6394      0.00000
     47       4.0227      0.00000
     48       4.1268      0.00000
     49       4.5137      0.00000
     50       4.8635      0.00000
     51       5.4044      0.00000
     52       5.8919      0.00000
     53       6.1039      0.00000
     54       6.3368      0.00000
     55       6.5685      0.00000

 k-point     4 :       0.3333    0.0000    0.0000
  band No.  band energies     occupation 
      1     -14.0232      1.00000
      2     -13.7108      1.00000
      3     -12.9737      1.00000
      4     -12.7741      1.00000
      5     -11.2379      1.00000
      6     -11.1924      1.00000
      7     -10.7335      1.00000
      8     -10.5354      1.00000
      9     -10.1967      1.00000
     10     -10.0144      1.00000
     11      -7.2336      1.00000
     12      -7.1416      1.00000
     13      -5.4524      1.00000
     14      -5.0602      1.00000
     15      -4.8723      1.00000
     16      -4.2716      1.00000
     17      -3.7876      1.00000
     18      -3.6192      1.00000
     19      -3.1259      1.00000
     20      -2.9601      1.00000
     21      -2.7836      1.00000
     22      -2.6412      1.00000
     23      -2.3992      1.00000
     24      -1.9691      1.00000
     25      -1.8898      1.00000
     26      -1.6636      1.00000
     27      -1.3682      1.00000
     28      -0.9480      1.00000
     29      -0.7243      1.00000
     30      -0.6474      1.00000
     31      -0.4588      1.00000
     32      -0.3385      1.00000
     33       0.2692      1.00000
     34       0.2955      1.00000
     35       0.3925      1.00000
     36       0.4556      1.00000
     37       0.6629      1.00000
     38       0.8003      1.00000
     39       0.8508      1.00000
     40       0.8893      1.00000
     41       1.2469      1.00000
     42       1.4905      0.78969
     43       2.3547      0.00000
     44       2.4343      0.00000
     45       3.3487      0.00000
     46       3.5415      0.00000
     47       4.1137      0.00000
     48       4.4479      0.00000
     49       4.7084      0.00000
     50       4.9222      0.00000
     51       5.5902      0.00000
     52       5.9530      0.00000
     53       6.1902      0.00000
     54       6.3122      0.00000
     55       6.5002      0.00000

 k-point     5 :       0.0000    0.3333    0.0000
  band No.  band energies     occupation 
      1     -14.0363      1.00000
      2     -13.7183      1.00000
      3     -12.9584      1.00000
      4     -12.7714      1.00000
      5     -11.2313      1.00000
      6     -11.1428      1.00000
      7     -10.7357      1.00000
      8     -10.4564      1.00000
      9     -10.1960      1.00000
     10     -10.1091      1.00000
     11      -7.3766      1.00000
     12      -7.2439      1.00000
     13      -5.3445      1.00000
     14      -5.1469      1.00000
     15      -4.8875      1.00000
     16      -4.2476      1.00000
     17      -3.6432      1.00000
     18      -3.5728      1.00000
     19      -3.1112      1.00000
     20      -2.8543      1.00000
     21      -2.8233      1.00000
     22      -2.3932      1.00000
     23      -2.2261      1.00000
     24      -2.0652      1.00000
     25      -1.6910      1.00000
     26      -1.6777      1.00000
     27      -1.4894      1.00000
     28      -0.9510      1.00000
     29      -0.8196      1.00000
     30      -0.7250      1.00000
     31      -0.4229      1.00000
     32      -0.3637      1.00000
     33      -0.0301      1.00000
     34       0.2402      1.00000
     35       0.4296      1.00000
     36       0.4921      1.00000
     37       0.5854      1.00000
     38       0.7581      1.00000
     39       0.8431      1.00000
     40       1.0534      1.00000
     41       1.1331      1.00000
     42       1.3805      0.99995
     43       2.4562      0.00000
     44       2.4734      0.00000
     45       3.0955      0.00000
     46       3.6686      0.00000
     47       4.1908      0.00000
     48       4.4739      0.00000
     49       4.7051      0.00000
     50       4.8004      0.00000
     51       5.4314      0.00000
     52       5.9498      0.00000
     53       5.9513      0.00000
     54       6.1392      0.00000
     55       6.5757      0.00000

 k-point     6 :       0.5000    0.0000    0.0000
  band No.  band energies     occupation 
      1     -14.0130      1.00000
      2     -13.7048      1.00000
      3     -12.9867      1.00000
      4     -12.7773      1.00000
      5     -11.2477      1.00000
      6     -11.2187      1.00000
      7     -10.7204      1.00000
      8     -10.5399      1.00000
      9     -10.2056      1.00000
     10      -9.9953      1.00000
     11      -7.2038      1.00000
     12      -7.1422      1.00000
     13      -5.4445      1.00000
     14      -4.9809      1.00000
     15      -4.8443      1.00000
     16      -4.2923      1.00000
     17      -3.8111      1.00000
     18      -3.5740      1.00000
     19      -3.1293      1.00000
     20      -2.9858      1.00000
     21      -2.8686      1.00000
     22      -2.6549      1.00000
     23      -2.3736      1.00000
     24      -2.1826      1.00000
     25      -1.7211      1.00000
     26      -1.5207      1.00000
     27      -1.4233      1.00000
     28      -0.9876      1.00000
     29      -0.8129      1.00000
     30      -0.6607      1.00000
     31      -0.5013      1.00000
     32      -0.2432      1.00000
     33       0.2230      1.00000
     34       0.3794      1.00000
     35       0.4239      1.00000
     36       0.4305      1.00000
     37       0.6606      1.00000
     38       0.7711      1.00000
     39       0.8113      1.00000
     40       0.8338      1.00000
     41       1.2482      1.00000
     42       1.4819      0.85295
     43       2.2450      0.00000
     44       2.3522      0.00000
     45       3.3687      0.00000
     46       3.5518      0.00000
     47       4.2029      0.00000
     48       4.6298      0.00000
     49       4.7230      0.00000
     50       4.9607      0.00000
     51       5.4979      0.00000
     52       5.9045      0.00000
     53       6.2779      0.00000
     54       6.5486      0.00000
     55       6.5645      0.00000

 k-point     7 :       0.0000    0.5000    0.0000
  band No.  band energies     occupation 
      1     -14.0308      1.00000
      2     -13.7148      1.00000
      3     -12.9659      1.00000
      4     -12.7734      1.00000
      5     -11.2435      1.00000
      6     -11.1502      1.00000
      7     -10.7197      1.00000
      8     -10.4436      1.00000
      9     -10.2037      1.00000
     10     -10.1136      1.00000
     11      -7.4054      1.00000
     12      -7.2713      1.00000
     13      -5.3045      1.00000
     14      -5.0820      1.00000
     15      -4.8621      1.00000
     16      -4.2538      1.00000
     17      -3.6847      1.00000
     18      -3.5126      1.00000
     19      -3.0779      1.00000
     20      -2.9279      1.00000
     21      -2.8002      1.00000
     22      -2.3251      1.00000
     23      -2.2090      1.00000
     24      -2.0619      1.00000
     25      -1.7263      1.00000
     26      -1.6289      1.00000
     27      -1.4515      1.00000
     28      -0.9218      1.00000
     29      -0.8745      1.00000
     30      -0.7025      1.00000
     31      -0.4591      1.00000
     32      -0.4349      1.00000
     33      -0.0361      1.00000
     34       0.1300      1.00000
     35       0.4119      1.00000
     36       0.4339      1.00000
     37       0.5994      1.00000
     38       0.6955      1.00000
     39       0.8153      1.00000
     40       1.0445      1.00000
     41       1.1575      1.00000
     42       1.3482      1.00000
     43       2.3983      0.00000
     44       2.4348      0.00000
     45       3.0657      0.00000
     46       3.6899      0.00000
     47       4.2522      0.00000
     48       4.6276      0.00000
     49       4.8017      0.00000
     50       4.8389      0.00000
     51       5.4190      0.00000
     52       5.8413      0.00000
     53       5.8803      0.00000
     54       6.1807      0.00000
     55       6.5818      0.00000

 k-point     8 :       0.1667    0.1667    0.0000
  band No.  band energies     occupation 
      1     -14.0382      1.00000
      2     -13.7198      1.00000
      3     -12.9531      1.00000
      4     -12.7687      1.00000
      5     -11.2241      1.00000
      6     -11.1490      1.00000
      7     -10.7599      1.00000
      8     -10.5038      1.00000
      9     -10.1860      1.00000
     10     -10.0668      1.00000
     11      -7.3027      1.00000
     12      -7.1462      1.00000
     13      -5.4661      1.00000
     14      -5.1835      1.00000
     15      -4.9055      1.00000
     16      -4.2401      1.00000
     17      -3.7213      1.00000
     18      -3.5676      1.00000
     19      -3.1565      1.00000
     20      -2.9412      1.00000
     21      -2.7319      1.00000
     22      -2.5198      1.00000
     23      -2.2195      1.00000
     24      -2.1426      1.00000
     25      -1.8309      1.00000
     26      -1.6011      1.00000
     27      -1.4400      1.00000
     28      -1.0152      1.00000
     29      -0.8170      1.00000
     30      -0.5970      1.00000
     31      -0.3668      1.00000
     32      -0.2489      1.00000
     33      -0.0091      1.00000
     34       0.3289      1.00000
     35       0.4163      1.00000
     36       0.5292      1.00000
     37       0.6613      1.00000
     38       0.7931      1.00000
     39       0.8685      1.00000
     40       1.0210      1.00000
     41       1.1626      1.00000
     42       1.4500      0.97450
     43       2.4750      0.00000
     44       2.5499      0.00000
     45       3.2526      0.00000
     46       3.6089      0.00000
     47       3.9422      0.00000
     48       4.2936      0.00000
     49       4.6352      0.00000
     50       4.9036      0.00000
     51       5.5321      0.00000
     52       5.8411      0.00000
     53       6.0203      0.00000
     54       6.4139      0.00000
     55       6.5686      0.00000

 k-point     9 :      -0.1667    0.1667    0.0000
  band No.  band energies     occupation 
      1     -14.0382      1.00000
      2     -13.7198      1.00000
      3     -12.9531      1.00000
      4     -12.7687      1.00000
      5     -11.2241      1.00000
      6     -11.1490      1.00000
      7     -10.7599      1.00000
      8     -10.5038      1.00000
      9     -10.1860      1.00000
     10     -10.0668      1.00000
     11      -7.3027      1.00000
     12      -7.1462      1.00000
     13      -5.4661      1.00000
     14      -5.1835      1.00000
     15      -4.9055      1.00000
     16      -4.2401      1.00000
     17      -3.7213      1.00000
     18      -3.5676      1.00000
     19      -3.1565      1.00000
     20      -2.9412      1.00000
     21      -2.7319      1.00000
     22      -2.5198      1.00000
     23      -2.2195      1.00000
     24      -2.1426      1.00000
     25      -1.8309      1.00000
     26      -1.6011      1.00000
     27      -1.4400      1.00000
     28      -1.0152      1.00000
     29      -0.8170      1.00000
     30      -0.5970      1.00000
     31      -0.3668      1.00000
     32      -0.2489      1.00000
     33      -0.0091      1.00000
     34       0.3289      1.00000
     35       0.4163      1.00000
     36       0.5292      1.00000
     37       0.6613      1.00000
     38       0.7931      1.00000
     39       0.8685      1.00000
     40       1.0210      1.00000
     41       1.1626      1.00000
     42       1.4500      0.97450
     43       2.4750      0.00000
     44       2.5499      0.00000
     45       3.2526      0.00000
     46       3.6089      0.00000
     47       3.9422      0.00000
     48       4.2936      0.00000
     49       4.6352      0.00000
     50       4.9036      0.00000
     51       5.5321      0.00000
     52       5.8411      0.00000
     53       6.0203      0.00000
     54       6.4137      0.00000
     55       6.5572      0.00000

 k-point    10 :       0.3333    0.1667    0.0000
  band No.  band energies     occupation 
      1     -14.0203      1.00000
      2     -13.7091      1.00000
      3     -12.9723      1.00000
      4     -12.7713      1.00000
      5     -11.2550      1.00000
      6     -11.1918      1.00000
      7     -10.7511      1.00000
      8     -10.5347      1.00000
      9     -10.1955      1.00000
     10     -10.0098      1.00000
     11      -7.2408      1.00000
     12      -7.1032      1.00000
     13      -5.4606      1.00000
     14      -5.0694      1.00000
     15      -4.8762      1.00000
     16      -4.2577      1.00000
     17      -3.7836      1.00000
     18      -3.6013      1.00000
     19      -3.0928      1.00000
     20      -2.9868      1.00000
     21      -2.7728      1.00000
     22      -2.5892      1.00000
     23      -2.3899      1.00000
     24      -1.9372      1.00000
     25      -1.8845      1.00000
     26      -1.6229      1.00000
     27      -1.3766      1.00000
     28      -0.9746      1.00000
     29      -0.8109      1.00000
     30      -0.5881      1.00000
     31      -0.4657      1.00000
     32      -0.2712      1.00000
     33       0.1110      1.00000
     34       0.2506      1.00000
     35       0.4180      1.00000
     36       0.4607      1.00000
     37       0.6475      1.00000
     38       0.6860      1.00000
     39       0.8217      1.00000
     40       0.9164      1.00000
     41       1.2430      1.00000
     42       1.4547      0.96549
     43       2.3271      0.00000
     44       2.4185      0.00000
     45       3.3554      0.00000
     46       3.5401      0.00000
     47       4.0253      0.00000
     48       4.4764      0.00000
     49       4.7457      0.00000
     50       4.9654      0.00000
     51       5.5891      0.00000
     52       6.0069      0.00000
     53       6.1306      0.00000
     54       6.4347      0.00000
     55       6.5426      0.00000

 k-point    11 :      -0.1667    0.3333    0.0000
  band No.  band energies     occupation 
      1     -14.0291      1.00000
      2     -13.7141      1.00000
      3     -12.9619      1.00000
      4     -12.7694      1.00000
      5     -11.2526      1.00000
      6     -11.1588      1.00000
      7     -10.7498      1.00000
      8     -10.4864      1.00000
      9     -10.1938      1.00000
     10     -10.0713      1.00000
     11      -7.3366      1.00000
     12      -7.1737      1.00000
     13      -5.3922      1.00000
     14      -5.1082      1.00000
     15      -4.8993      1.00000
     16      -4.2417      1.00000
     17      -3.7137      1.00000
     18      -3.5271      1.00000
     19      -3.1265      1.00000
     20      -2.9450      1.00000
     21      -2.7395      1.00000
     22      -2.4581      1.00000
     23      -2.1778      1.00000
     24      -2.1127      1.00000
     25      -1.7064      1.00000
     26      -1.5851      1.00000
     27      -1.4783      1.00000
     28      -1.0099      1.00000
     29      -0.8356      1.00000
     30      -0.6320      1.00000
     31      -0.5086      1.00000
     32      -0.2746      1.00000
     33      -0.0742      1.00000
     34       0.2676      1.00000
     35       0.4123      1.00000
     36       0.4693      1.00000
     37       0.5302      1.00000
     38       0.7375      1.00000
     39       0.8173      1.00000
     40       0.9878      1.00000
     41       1.1708      1.00000
     42       1.3825      0.99994
     43       2.3848      0.00000
     44       2.4483      0.00000
     45       3.1821      0.00000
     46       3.6578      0.00000
     47       4.1096      0.00000
     48       4.4509      0.00000
     49       4.7169      0.00000
     50       4.9220      0.00000
     51       5.5343      0.00000
     52       5.8055      0.00000
     53       6.1056      0.00000
     54       6.3396      0.00000
     55       6.5871      0.00000

 k-point    12 :      -0.3333    0.1667    0.0000
  band No.  band energies     occupation 
      1     -14.0203      1.00000
      2     -13.7091      1.00000
      3     -12.9723      1.00000
      4     -12.7713      1.00000
      5     -11.2550      1.00000
      6     -11.1918      1.00000
      7     -10.7511      1.00000
      8     -10.5347      1.00000
      9     -10.1955      1.00000
     10     -10.0098      1.00000
     11      -7.2408      1.00000
     12      -7.1032      1.00000
     13      -5.4606      1.00000
     14      -5.0694      1.00000
     15      -4.8762      1.00000
     16      -4.2577      1.00000
     17      -3.7836      1.00000
     18      -3.6013      1.00000
     19      -3.0928      1.00000
     20      -2.9868      1.00000
     21      -2.7728      1.00000
     22      -2.5892      1.00000
     23      -2.3899      1.00000
     24      -1.9372      1.00000
     25      -1.8845      1.00000
     26      -1.6229      1.00000
     27      -1.3766      1.00000
     28      -0.9746      1.00000
     29      -0.8109      1.00000
     30      -0.5881      1.00000
     31      -0.4657      1.00000
     32      -0.2712      1.00000
     33       0.1110      1.00000
     34       0.2506      1.00000
     35       0.4180      1.00000
     36       0.4607      1.00000
     37       0.6475      1.00000
     38       0.6860      1.00000
     39       0.8217      1.00000
     40       0.9164      1.00000
     41       1.2430      1.00000
     42       1.4547      0.96549
     43       2.3271      0.00000
     44       2.4185      0.00000
     45       3.3554      0.00000
     46       3.5401      0.00000
     47       4.0253      0.00000
     48       4.4764      0.00000
     49       4.7457      0.00000
     50       4.9654      0.00000
     51       5.5891      0.00000
     52       6.0069      0.00000
     53       6.1306      0.00000
     54       6.4348      0.00000
     55       6.5437      0.00000

 k-point    13 :       0.1667    0.3333    0.0000
  band No.  band energies     occupation 
      1     -14.0291      1.00000
      2     -13.7141      1.00000
      3     -12.9619      1.00000
      4     -12.7694      1.00000
      5     -11.2526      1.00000
      6     -11.1588      1.00000
      7     -10.7498      1.00000
      8     -10.4864      1.00000
      9     -10.1938      1.00000
     10     -10.0713      1.00000
     11      -7.3366      1.00000
     12      -7.1737      1.00000
     13      -5.3922      1.00000
     14      -5.1082      1.00000
     15      -4.8993      1.00000
     16      -4.2417      1.00000
     17      -3.7137      1.00000
     18      -3.5271      1.00000
     19      -3.1265      1.00000
     20      -2.9450      1.00000
     21      -2.7395      1.00000
     22      -2.4581      1.00000
     23      -2.1778      1.00000
     24      -2.1127      1.00000
     25      -1.7064      1.00000
     26      -1.5851      1.00000
     27      -1.4783      1.00000
     28      -1.0099      1.00000
     29      -0.8356      1.00000
     30      -0.6320      1.00000
     31      -0.5086      1.00000
     32      -0.2746      1.00000
     33      -0.0742      1.00000
     34       0.2676      1.00000
     35       0.4123      1.00000
     36       0.4693      1.00000
     37       0.5302      1.00000
     38       0.7375      1.00000
     39       0.8173      1.00000
     40       0.9878      1.00000
     41       1.1708      1.00000
     42       1.3825      0.99994
     43       2.3848      0.00000
     44       2.4483      0.00000
     45       3.1821      0.00000
     46       3.6578      0.00000
     47       4.1096      0.00000
     48       4.4509      0.00000
     49       4.7169      0.00000
     50       4.9220      0.00000
     51       5.5343      0.00000
     52       5.8055      0.00000
     53       6.1056      0.00000
     54       6.3396      0.00000
     55       6.5835      0.00000

 k-point    14 :       0.5000    0.1667    0.0000
  band No.  band energies     occupation 
      1     -14.0109      1.00000
      2     -13.7037      1.00000
      3     -12.9824      1.00000
      4     -12.7729      1.00000
      5     -11.2660      1.00000
      6     -11.2153      1.00000
      7     -10.7481      1.00000
      8     -10.5464      1.00000
      9     -10.2006      1.00000
     10      -9.9860      1.00000
     11      -7.1823      1.00000
     12      -7.1067      1.00000
     13      -5.4534      1.00000
     14      -5.0382      1.00000
     15      -4.8427      1.00000
     16      -4.2707      1.00000
     17      -3.8223      1.00000
     18      -3.5580      1.00000
     19      -3.0970      1.00000
     20      -3.0210      1.00000
     21      -2.8354      1.00000
     22      -2.6008      1.00000
     23      -2.3183      1.00000
     24      -2.1373      1.00000
     25      -1.7780      1.00000
     26      -1.5133      1.00000
     27      -1.4043      1.00000
     28      -1.0101      1.00000
     29      -0.8052      1.00000
     30      -0.6825      1.00000
     31      -0.4628      1.00000
     32      -0.2306      1.00000
     33       0.1836      1.00000
     34       0.2011      1.00000
     35       0.4378      1.00000
     36       0.4720      1.00000
     37       0.6343      1.00000
     38       0.7333      1.00000
     39       0.7491      1.00000
     40       0.8410      1.00000
     41       1.2473      1.00000
     42       1.4505      0.97354
     43       2.2653      0.00000
     44       2.3119      0.00000
     45       3.3853      0.00000
     46       3.5358      0.00000
     47       4.1208      0.00000
     48       4.5156      0.00000
     49       4.7388      0.00000
     50       4.9790      0.00000
     51       5.6470      0.00000
     52       6.0704      0.00000
     53       6.2580      0.00000
     54       6.5307      0.00000
     55       6.6337      0.00000

 k-point    15 :      -0.1667    0.5000    0.0000
  band No.  band energies     occupation 
      1     -14.0244      1.00000
      2     -13.7113      1.00000
      3     -12.9665      1.00000
      4     -12.7698      1.00000
      5     -11.2661      1.00000
      6     -11.1639      1.00000
      7     -10.7446      1.00000
      8     -10.4779      1.00000
      9     -10.1979      1.00000
     10     -10.0742      1.00000
     11      -7.3411      1.00000
     12      -7.2001      1.00000
     13      -5.3432      1.00000
     14      -5.0834      1.00000
     15      -4.8938      1.00000
     16      -4.2412      1.00000
     17      -3.7218      1.00000
     18      -3.4788      1.00000
     19      -3.1199      1.00000
     20      -2.9686      1.00000
     21      -2.7884      1.00000
     22      -2.3454      1.00000
     23      -2.1629      1.00000
     24      -2.0211      1.00000
     25      -1.7624      1.00000
     26      -1.5831      1.00000
     27      -1.4600      1.00000
     28      -1.0422      1.00000
     29      -0.8088      1.00000
     30      -0.6222      1.00000
     31      -0.5725      1.00000
     32      -0.3865      1.00000
     33      -0.0644      1.00000
     34       0.2317      1.00000
     35       0.3801      1.00000
     36       0.4439      1.00000
     37       0.5541      1.00000
     38       0.6673      1.00000
     39       0.8003      1.00000
     40       0.9659      1.00000
     41       1.1880      1.00000
     42       1.3393      1.00000
     43       2.3251      0.00000
     44       2.4116      0.00000
     45       3.1502      0.00000
     46       3.6729      0.00000
     47       4.2499      0.00000
     48       4.5627      0.00000
     49       4.6859      0.00000
     50       4.8613      0.00000
     51       5.5234      0.00000
     52       5.9882      0.00000
     53       6.1022      0.00000
     54       6.2378      0.00000
     55       6.5979      0.00000

 k-point    16 :       0.3333    0.3333    0.0000
  band No.  band energies     occupation 
      1     -14.0144      1.00000
      2     -13.7058      1.00000
      3     -12.9695      1.00000
      4     -12.7656      1.00000
      5     -11.2880      1.00000
      6     -11.1905      1.00000
      7     -10.7839      1.00000
      8     -10.5364      1.00000
      9     -10.1935      1.00000
     10     -10.0008      1.00000
     11      -7.2211      1.00000
     12      -7.0637      1.00000
     13      -5.4554      1.00000
     14      -5.1068      1.00000
     15      -4.8839      1.00000
     16      -4.2318      1.00000
     17      -3.7848      1.00000
     18      -3.5398      1.00000
     19      -3.1032      1.00000
     20      -3.0383      1.00000
     21      -2.7177      1.00000
     22      -2.4098      1.00000
     23      -2.3114      1.00000
     24      -2.0017      1.00000
     25      -1.7706      1.00000
     26      -1.5462      1.00000
     27      -1.4339      1.00000
     28      -1.1142      1.00000
     29      -0.8001      1.00000
     30      -0.6045      1.00000
     31      -0.4397      1.00000
     32      -0.2651      1.00000
     33      -0.1063      1.00000
     34       0.2252      1.00000
     35       0.3597      1.00000
     36       0.4177      1.00000
     37       0.5753      1.00000
     38       0.6417      1.00000
     39       0.7853      1.00000
     40       0.9098      1.00000
     41       1.2184      1.00000
     42       1.4014      0.99956
     43       2.2921      0.00000
     44       2.3931      0.00000
     45       3.3300      0.00000
     46       3.5812      0.00000
     47       3.9364      0.00000
     48       4.4408      0.00000
     49       4.7288      0.00000
     50       4.9643      0.00000
     51       5.7564      0.00000
     52       6.0906      0.00000
     53       6.2640      0.00000
     54       6.4573      0.00000
     55       6.5859      0.00000

 k-point    17 :      -0.3333    0.3333    0.0000
  band No.  band energies     occupation 
      1     -14.0144      1.00000
      2     -13.7058      1.00000
      3     -12.9695      1.00000
      4     -12.7656      1.00000
      5     -11.2880      1.00000
      6     -11.1905      1.00000
      7     -10.7839      1.00000
      8     -10.5364      1.00000
      9     -10.1935      1.00000
     10     -10.0008      1.00000
     11      -7.2211      1.00000
     12      -7.0637      1.00000
     13      -5.4554      1.00000
     14      -5.1068      1.00000
     15      -4.8839      1.00000
     16      -4.2318      1.00000
     17      -3.7848      1.00000
     18      -3.5398      1.00000
     19      -3.1032      1.00000
     20      -3.0383      1.00000
     21      -2.7177      1.00000
     22      -2.4098      1.00000
     23      -2.3114      1.00000
     24      -2.0017      1.00000
     25      -1.7706      1.00000
     26      -1.5462      1.00000
     27      -1.4339      1.00000
     28      -1.1142      1.00000
     29      -0.8001      1.00000
     30      -0.6045      1.00000
     31      -0.4397      1.00000
     32      -0.2651      1.00000
     33      -0.1063      1.00000
     34       0.2252      1.00000
     35       0.3597      1.00000
     36       0.4177      1.00000
     37       0.5753      1.00000
     38       0.6417      1.00000
     39       0.7853      1.00000
     40       0.9098      1.00000
     41       1.2184      1.00000
     42       1.4014      0.99956
     43       2.2921      0.00000
     44       2.3931      0.00000
     45       3.3300      0.00000
     46       3.5812      0.00000
     47       3.9364      0.00000
     48       4.4408      0.00000
     49       4.7288      0.00000
     50       4.9643      0.00000
     51       5.7564      0.00000
     52       6.0906      0.00000
     53       6.2640      0.00000
     54       6.4573      0.00000
     55       6.5854      0.00000

 k-point    18 :       0.5000    0.3333    0.0000
  band No.  band energies     occupation 
      1     -14.0068      1.00000
      2     -13.7016      1.00000
      3     -12.9736      1.00000
      4     -12.7639      1.00000
      5     -11.3016      1.00000
      6     -11.2075      1.00000
      7     -10.8021      1.00000
      8     -10.5598      1.00000
      9     -10.1930      1.00000
     10      -9.9681      1.00000
     11      -7.1379      1.00000
     12      -7.0317      1.00000
     13      -5.4728      1.00000
     14      -5.1518      1.00000
     15      -4.8403      1.00000
     16      -4.2320      1.00000
     17      -3.8356      1.00000
     18      -3.5341      1.00000
     19      -3.0943      1.00000
     20      -3.0769      1.00000
     21      -2.6946      1.00000
     22      -2.4561      1.00000
     23      -2.1789      1.00000
     24      -2.0683      1.00000
     25      -1.8633      1.00000
     26      -1.4935      1.00000
     27      -1.4135      1.00000
     28      -1.1559      1.00000
     29      -0.7468      1.00000
     30      -0.6976      1.00000
     31      -0.3537      1.00000
     32      -0.2700      1.00000
     33      -0.0645      1.00000
     34       0.1400      1.00000
     35       0.3281      1.00000
     36       0.3912      1.00000
     37       0.6227      1.00000
     38       0.6855      1.00000
     39       0.7226      1.00000
     40       0.8529      1.00000
     41       1.2199      1.00000
     42       1.4396      0.98757
     43       2.3057      0.00000
     44       2.3161      0.00000
     45       3.3984      0.00000
     46       3.5248      0.00000
     47       3.9084      0.00000
     48       4.2952      0.00000
     49       4.7638      0.00000
     50       4.9923      0.00000
     51       5.9547      0.00000
     52       6.2727      0.00000
     53       6.3395      0.00000
     54       6.4990      0.00000
     55       6.6960      0.00000

 k-point    19 :      -0.3333    0.5000    0.0000
  band No.  band energies     occupation 
      1     -14.0114      1.00000
      2     -13.7041      1.00000
      3     -12.9680      1.00000
      4     -12.7627      1.00000
      5     -11.3040      1.00000
      6     -11.1897      1.00000
      7     -10.7995      1.00000
      8     -10.5384      1.00000
      9     -10.1927      1.00000
     10      -9.9964      1.00000
     11      -7.1982      1.00000
     12      -7.0589      1.00000
     13      -5.4383      1.00000
     14      -5.1379      1.00000
     15      -4.8885      1.00000
     16      -4.2190      1.00000
     17      -3.7866      1.00000
     18      -3.4979      1.00000
     19      -3.1314      1.00000
     20      -3.0756      1.00000
     21      -2.6745      1.00000
     22      -2.3050      1.00000
     23      -2.1588      1.00000
     24      -2.0599      1.00000
     25      -1.7664      1.00000
     26      -1.5039      1.00000
     27      -1.4671      1.00000
     28      -1.2407      1.00000
     29      -0.7207      1.00000
     30      -0.6665      1.00000
     31      -0.4188      1.00000
     32      -0.3548      1.00000
     33      -0.1509      1.00000
     34       0.2546      1.00000
     35       0.2889      1.00000
     36       0.3811      1.00000
     37       0.5354      1.00000
     38       0.6478      1.00000
     39       0.7849      1.00000
     40       0.9112      1.00000
     41       1.1908      1.00000
     42       1.3842      0.99993
     43       2.2904      0.00000
     44       2.3724      0.00000
     45       3.3050      0.00000
     46       3.6152      0.00000
     47       3.9553      0.00000
     48       4.3270      0.00000
     49       4.7261      0.00000
     50       4.9439      0.00000
     51       5.8672      0.00000
     52       6.2006      0.00000
     53       6.3404      0.00000
     54       6.4425      0.00000
     55       6.6027      0.00000

 k-point    20 :       0.5000    0.5000    0.0000
  band No.  band energies     occupation 
      1     -14.0047      1.00000
      2     -13.7005      1.00000
      3     -12.9691      1.00000
      4     -12.7593      1.00000
      5     -11.3191      1.00000
      6     -11.2030      1.00000
      7     -10.8286      1.00000
      8     -10.5667      1.00000
      9     -10.1903      1.00000
     10      -9.9595      1.00000
     11      -7.1151      1.00000
     12      -6.9918      1.00000
     13      -5.4834      1.00000
     14      -5.2092      1.00000
     15      -4.8393      1.00000
     16      -4.2154      1.00000
     17      -3.8375      1.00000
     18      -3.5250      1.00000
     19      -3.1318      1.00000
     20      -3.0830      1.00000
     21      -2.5856      1.00000
     22      -2.3442      1.00000
     23      -2.0868      1.00000
     24      -2.0820      1.00000
     25      -1.8825      1.00000
     26      -1.4328      1.00000
     27      -1.4312      1.00000
     28      -1.3465      1.00000
     29      -0.6896      1.00000
     30      -0.6821      1.00000
     31      -0.3475      1.00000
     32      -0.2699      1.00000
     33      -0.1831      1.00000
     34       0.1318      1.00000
     35       0.2485      1.00000
     36       0.2805      1.00000
     37       0.6262      1.00000
     38       0.6660      1.00000
     39       0.7582      1.00000
     40       0.8614      1.00000
     41       1.1895      1.00000
     42       1.4535      0.96805
     43       2.3359      0.00000
     44       2.3576      0.00000
     45       3.3935      0.00000
     46       3.5275      0.00000
     47       3.7714      0.00000
     48       4.1861      0.00000
     49       4.7841      0.00000
     50       4.9928      0.00000
     51       6.0798      0.00000
     52       6.3430      0.00000
     53       6.4273      0.00000
     54       6.4925      0.00000
     55       6.6496      0.00000

 k-point    21 :       0.0000    0.0000    0.2000
  band No.  band energies     occupation 
      1     -14.0249      1.00000
      2     -13.7638      1.00000
      3     -12.9204      1.00000
      4     -12.7819      1.00000
      5     -11.1841      1.00000
      6     -11.1255      1.00000
      7     -10.7516      1.00000
      8     -10.5169      1.00000
      9     -10.1687      1.00000
     10     -10.1061      1.00000
     11      -7.2660      1.00000
     12      -7.1650      1.00000
     13      -5.4908      1.00000
     14      -5.3496      1.00000
     15      -4.8589      1.00000
     16      -4.3033      1.00000
     17      -3.6887      1.00000
     18      -3.4841      1.00000
     19      -3.2231      1.00000
     20      -2.9108      1.00000
     21      -2.7707      1.00000
     22      -2.4716      1.00000
     23      -2.4176      1.00000
     24      -2.2032      1.00000
     25      -1.8227      1.00000
     26      -1.6696      1.00000
     27      -1.2389      1.00000
     28      -1.0681      1.00000
     29      -0.7613      1.00000
     30      -0.6096      1.00000
     31      -0.3742      1.00000
     32      -0.3032      1.00000
     33       0.1852      1.00000
     34       0.3491      1.00000
     35       0.4935      1.00000
     36       0.6915      1.00000
     37       0.7860      1.00000
     38       0.9179      1.00000
     39       0.9500      1.00000
     40       1.0551      1.00000
     41       1.0765      1.00000
     42       1.4144      0.99845
     43       2.5798      0.00000
     44       2.6412      0.00000
     45       3.2893      0.00000
     46       3.6003      0.00000
     47       3.9151      0.00000
     48       3.9347      0.00000
     49       4.4226      0.00000
     50       4.8261      0.00000
     51       5.4046      0.00000
     52       5.7800      0.00000
     53       6.2375      0.00000
     54       6.4841      0.00000
     55       6.5645      0.00000

 k-point    22 :       0.1667    0.0000    0.2000
  band No.  band energies     occupation 
      1     -14.0157      1.00000
      2     -13.7575      1.00000
      3     -12.9318      1.00000
      4     -12.7858      1.00000
      5     -11.2008      1.00000
      6     -11.1481      1.00000
      7     -10.7378      1.00000
      8     -10.5339      1.00000
      9     -10.1710      1.00000
     10     -10.0759      1.00000
     11      -7.2558      1.00000
     12      -7.1601      1.00000
     13      -5.4598      1.00000
     14      -5.2597      1.00000
     15      -4.8550      1.00000
     16      -4.3172      1.00000
     17      -3.7213      1.00000
     18      -3.5670      1.00000
     19      -3.1580      1.00000
     20      -2.9388      1.00000
     21      -2.7477      1.00000
     22      -2.5753      1.00000
     23      -2.3325      1.00000
     24      -2.2010      1.00000
     25      -1.8494      1.00000
     26      -1.6137      1.00000
     27      -1.3510      1.00000
     28      -1.0455      1.00000
     29      -0.7287      1.00000
     30      -0.4956      1.00000
     31      -0.4622      1.00000
     32      -0.2607      1.00000
     33       0.0801      1.00000
     34       0.3202      1.00000
     35       0.5146      1.00000
     36       0.6327      1.00000
     37       0.7751      1.00000
     38       0.8146      1.00000
     39       0.9005      1.00000
     40       1.0243      1.00000
     41       1.1484      1.00000
     42       1.4489      0.97626
     43       2.5358      0.00000
     44       2.5701      0.00000
     45       3.3230      0.00000
     46       3.5471      0.00000
     47       3.9605      0.00000
     48       4.1506      0.00000
     49       4.5121      0.00000
     50       4.8317      0.00000
     51       5.5220      0.00000
     52       5.8510      0.00000
     53       6.1486      0.00000
     54       6.3604      0.00000
     55       6.5247      0.00000

 k-point    23 :       0.0000    0.1667    0.2000
  band No.  band energies     occupation 
      1     -14.0199      1.00000
      2     -13.7600      1.00000
      3     -12.9270      1.00000
      4     -12.7847      1.00000
      5     -11.1973      1.00000
      6     -11.1332      1.00000
      7     -10.7357      1.00000
      8     -10.5060      1.00000
      9     -10.1753      1.00000
     10     -10.1080      1.00000
     11      -7.2942      1.00000
     12      -7.2005      1.00000
     13      -5.4371      1.00000
     14      -5.2838      1.00000
     15      -4.8583      1.00000
     16      -4.3120      1.00000
     17      -3.6614      1.00000
     18      -3.5341      1.00000
     19      -3.1681      1.00000
     20      -2.8764      1.00000
     21      -2.7435      1.00000
     22      -2.4657      1.00000
     23      -2.4125      1.00000
     24      -2.1435      1.00000
     25      -1.8827      1.00000
     26      -1.6438      1.00000
     27      -1.3045      1.00000
     28      -1.0231      1.00000
     29      -0.7232      1.00000
     30      -0.6469      1.00000
     31      -0.4395      1.00000
     32      -0.2703      1.00000
     33       0.1019      1.00000
     34       0.3726      1.00000
     35       0.4717      1.00000
     36       0.6281      1.00000
     37       0.6448      1.00000
     38       0.9054      1.00000
     39       0.9160      1.00000
     40       1.0549      1.00000
     41       1.0769      1.00000
     42       1.4153      0.99832
     43       2.5359      0.00000
     44       2.5634      0.00000
     45       3.2011      0.00000
     46       3.6289      0.00000
     47       4.0350      0.00000
     48       4.0922      0.00000
     49       4.5373      0.00000
     50       4.8171      0.00000
     51       5.4463      0.00000
     52       5.8237      0.00000
     53       6.0755      0.00000
     54       6.3359      0.00000
     55       6.6553      0.00000

 k-point    24 :      -0.1667    0.0000    0.2000
  band No.  band energies     occupation 
      1     -14.0157      1.00000
      2     -13.7575      1.00000
      3     -12.9318      1.00000
      4     -12.7858      1.00000
      5     -11.2008      1.00000
      6     -11.1481      1.00000
      7     -10.7378      1.00000
      8     -10.5339      1.00000
      9     -10.1710      1.00000
     10     -10.0759      1.00000
     11      -7.2558      1.00000
     12      -7.1601      1.00000
     13      -5.4598      1.00000
     14      -5.2597      1.00000
     15      -4.8550      1.00000
     16      -4.3172      1.00000
     17      -3.7213      1.00000
     18      -3.5670      1.00000
     19      -3.1580      1.00000
     20      -2.9388      1.00000
     21      -2.7477      1.00000
     22      -2.5753      1.00000
     23      -2.3325      1.00000
     24      -2.2010      1.00000
     25      -1.8494      1.00000
     26      -1.6137      1.00000
     27      -1.3510      1.00000
     28      -1.0455      1.00000
     29      -0.7287      1.00000
     30      -0.4956      1.00000
     31      -0.4622      1.00000
     32      -0.2607      1.00000
     33       0.0801      1.00000
     34       0.3202      1.00000
     35       0.5146      1.00000
     36       0.6327      1.00000
     37       0.7751      1.00000
     38       0.8146      1.00000
     39       0.9005      1.00000
     40       1.0243      1.00000
     41       1.1484      1.00000
     42       1.4489      0.97626
     43       2.5358      0.00000
     44       2.5701      0.00000
     45       3.3230      0.00000
     46       3.5471      0.00000
     47       3.9605      0.00000
     48       4.1506      0.00000
     49       4.5121      0.00000
     50       4.8317      0.00000
     51       5.5220      0.00000
     52       5.8510      0.00000
     53       6.1486      0.00000
     54       6.3604      0.00000
     55       6.5247      0.00000

 k-point    25 :       0.0000   -0.1667    0.2000
  band No.  band energies     occupation 
      1     -14.0197      1.00000
      2     -13.7604      1.00000
      3     -12.9274      1.00000
      4     -12.7843      1.00000
      5     -11.1964      1.00000
      6     -11.1345      1.00000
      7     -10.7369      1.00000
      8     -10.5037      1.00000
      9     -10.1735      1.00000
     10     -10.1102      1.00000
     11      -7.3060      1.00000
     12      -7.1931      1.00000
     13      -5.4212      1.00000
     14      -5.2871      1.00000
     15      -4.8571      1.00000
     16      -4.3086      1.00000
     17      -3.6483      1.00000
     18      -3.5499      1.00000
     19      -3.1870      1.00000
     20      -2.8657      1.00000
     21      -2.8486      1.00000
     22      -2.4272      1.00000
     23      -2.3352      1.00000
     24      -2.2269      1.00000
     25      -1.7092      1.00000
     26      -1.6913      1.00000
     27      -1.2611      1.00000
     28      -1.0369      1.00000
     29      -0.8387      1.00000
     30      -0.6306      1.00000
     31      -0.4025      1.00000
     32      -0.3392      1.00000
     33       0.1484      1.00000
     34       0.3017      1.00000
     35       0.4759      1.00000
     36       0.6527      1.00000
     37       0.6750      1.00000
     38       0.9027      1.00000
     39       0.9536      1.00000
     40       1.0505      1.00000
     41       1.0805      1.00000
     42       1.3807      0.99995
     43       2.5525      0.00000
     44       2.5857      0.00000
     45       3.2630      0.00000
     46       3.5721      0.00000
     47       4.0046      0.00000
     48       4.1390      0.00000
     49       4.4635      0.00000
     50       4.7850      0.00000
     51       5.4193      0.00000
     52       5.8590      0.00000
     53       6.1953      0.00000
     54       6.2581      0.00000
     55       6.5640      0.00000

 k-point    26 :       0.3333    0.0000    0.2000
  band No.  band energies     occupation 
      1     -13.9967      1.00000
      2     -13.7446      1.00000
      3     -12.9555      1.00000
      4     -12.7941      1.00000
      5     -11.2304      1.00000
      6     -11.1924      1.00000
      7     -10.7139      1.00000
      8     -10.5530      1.00000
      9     -10.1788      1.00000
     10     -10.0308      1.00000
     11      -7.2220      1.00000
     12      -7.1480      1.00000
     13      -5.4150      1.00000
     14      -5.0965      1.00000
     15      -4.8292      1.00000
     16      -4.3473      1.00000
     17      -3.7598      1.00000
     18      -3.6236      1.00000
     19      -3.1384      1.00000
     20      -2.9332      1.00000
     21      -2.7377      1.00000
     22      -2.7059      1.00000
     23      -2.4331      1.00000
     24      -2.0374      1.00000
     25      -1.9273      1.00000
     26      -1.6293      1.00000
     27      -1.3003      1.00000
     28      -1.0125      1.00000
     29      -0.6900      1.00000
     30      -0.6284      1.00000
     31      -0.4459      1.00000
     32      -0.3530      1.00000
     33       0.2033      1.00000
     34       0.2554      1.00000
     35       0.5118      1.00000
     36       0.5542      1.00000
     37       0.6905      1.00000
     38       0.8043      1.00000
     39       0.8641      1.00000
     40       0.9020      1.00000
     41       1.2264      1.00000
     42       1.4507      0.97330
     43       2.3577      0.00000
     44       2.4250      0.00000
     45       3.3935      0.00000
     46       3.5529      0.00000
     47       4.1293      0.00000
     48       4.4131      0.00000
     49       4.6704      0.00000
     50       4.8530      0.00000
     51       5.5955      0.00000
     52       5.9401      0.00000
     53       6.2078      0.00000
     54       6.3143      0.00000
     55       6.5075      0.00000

 k-point    27 :       0.0000    0.3333    0.2000
  band No.  band energies     occupation 
      1     -14.0095      1.00000
      2     -13.7527      1.00000
      3     -12.9410      1.00000
      4     -12.7899      1.00000
      5     -11.2214      1.00000
      6     -11.1492      1.00000
      7     -10.7050      1.00000
      8     -10.4811      1.00000
      9     -10.1884      1.00000
     10     -10.1157      1.00000
     11      -7.3572      1.00000
     12      -7.2592      1.00000
     13      -5.3262      1.00000
     14      -5.1563      1.00000
     15      -4.8424      1.00000
     16      -4.3255      1.00000
     17      -3.6247      1.00000
     18      -3.5820      1.00000
     19      -3.0936      1.00000
     20      -2.8412      1.00000
     21      -2.8022      1.00000
     22      -2.3925      1.00000
     23      -2.3357      1.00000
     24      -2.1334      1.00000
     25      -1.7912      1.00000
     26      -1.6576      1.00000
     27      -1.3451      1.00000
     28      -0.9232      1.00000
     29      -0.7780      1.00000
     30      -0.7771      1.00000
     31      -0.4346      1.00000
     32      -0.2989      1.00000
     33      -0.0418      1.00000
     34       0.2385      1.00000
     35       0.4462      1.00000
     36       0.4834      1.00000
     37       0.6330      1.00000
     38       0.8292      1.00000
     39       0.8351      1.00000
     40       1.0503      1.00000
     41       1.0919      1.00000
     42       1.3607      1.00000
     43       2.4547      0.00000
     44       2.4665      0.00000
     45       3.1327      0.00000
     46       3.6418      0.00000
     47       4.1795      0.00000
     48       4.4442      0.00000
     49       4.7586      0.00000
     50       4.7610      0.00000
     51       5.4699      0.00000
     52       5.8722      0.00000
     53       5.9023      0.00000
     54       6.1628      0.00000
     55       6.6608      0.00000

 k-point    28 :      -0.3333    0.0000    0.2000
  band No.  band energies     occupation 
      1     -13.9967      1.00000
      2     -13.7446      1.00000
      3     -12.9555      1.00000
      4     -12.7941      1.00000
      5     -11.2304      1.00000
      6     -11.1924      1.00000
      7     -10.7139      1.00000
      8     -10.5530      1.00000
      9     -10.1788      1.00000
     10     -10.0308      1.00000
     11      -7.2220      1.00000
     12      -7.1480      1.00000
     13      -5.4150      1.00000
     14      -5.0965      1.00000
     15      -4.8292      1.00000
     16      -4.3473      1.00000
     17      -3.7598      1.00000
     18      -3.6236      1.00000
     19      -3.1384      1.00000
     20      -2.9332      1.00000
     21      -2.7377      1.00000
     22      -2.7059      1.00000
     23      -2.4331      1.00000
     24      -2.0374      1.00000
     25      -1.9273      1.00000
     26      -1.6293      1.00000
     27      -1.3003      1.00000
     28      -1.0125      1.00000
     29      -0.6900      1.00000
     30      -0.6284      1.00000
     31      -0.4459      1.00000
     32      -0.3530      1.00000
     33       0.2033      1.00000
     34       0.2554      1.00000
     35       0.5118      1.00000
     36       0.5542      1.00000
     37       0.6905      1.00000
     38       0.8043      1.00000
     39       0.8641      1.00000
     40       0.9020      1.00000
     41       1.2264      1.00000
     42       1.4507      0.97330
     43       2.3577      0.00000
     44       2.4250      0.00000
     45       3.3935      0.00000
     46       3.5529      0.00000
     47       4.1293      0.00000
     48       4.4131      0.00000
     49       4.6704      0.00000
     50       4.8530      0.00000
     51       5.5955      0.00000
     52       5.9401      0.00000
     53       6.2078      0.00000
     54       6.3144      0.00000
     55       6.5085      0.00000

 k-point    29 :       0.0000   -0.3333    0.2000
  band No.  band energies     occupation 
      1     -14.0093      1.00000
      2     -13.7531      1.00000
      3     -12.9413      1.00000
      4     -12.7895      1.00000
      5     -11.2205      1.00000
      6     -11.1504      1.00000
      7     -10.7063      1.00000
      8     -10.4786      1.00000
      9     -10.1864      1.00000
     10     -10.1182      1.00000
     11      -7.3678      1.00000
     12      -7.2525      1.00000
     13      -5.3173      1.00000
     14      -5.1564      1.00000
     15      -4.8313      1.00000
     16      -4.3226      1.00000
     17      -3.6453      1.00000
     18      -3.5762      1.00000
     19      -3.1116      1.00000
     20      -2.9432      1.00000
     21      -2.7646      1.00000
     22      -2.3590      1.00000
     23      -2.3051      1.00000
     24      -2.1234      1.00000
     25      -1.7203      1.00000
     26      -1.6892      1.00000
     27      -1.2973      1.00000
     28      -0.9530      1.00000
     29      -0.8514      1.00000
     30      -0.7119      1.00000
     31      -0.4367      1.00000
     32      -0.4247      1.00000
     33       0.0359      1.00000
     34       0.2110      1.00000
     35       0.4165      1.00000
     36       0.4818      1.00000
     37       0.6721      1.00000
     38       0.8367      1.00000
     39       0.8759      1.00000
     40       1.0205      1.00000
     41       1.1226      1.00000
     42       1.3254      1.00000
     43       2.4688      0.00000
     44       2.4858      0.00000
     45       3.1685      0.00000
     46       3.6228      0.00000
     47       4.1955      0.00000
     48       4.4234      0.00000
     49       4.6402      0.00000
     50       4.7810      0.00000
     51       5.4422      0.00000
     52       5.9047      0.00000
     53       6.0366      0.00000
     54       6.0752      0.00000
     55       6.5651      0.00000

 k-point    30 :       0.5000    0.0000    0.2000
  band No.  band energies     occupation 
      1     -13.9868      1.00000
      2     -13.7380      1.00000
      3     -12.9679      1.00000
      4     -12.7986      1.00000
      5     -11.2415      1.00000
      6     -11.2163      1.00000
      7     -10.7035      1.00000
      8     -10.5567      1.00000
      9     -10.1845      1.00000
     10     -10.0139      1.00000
     11      -7.1941      1.00000
     12      -7.1453      1.00000
     13      -5.4034      1.00000
     14      -5.0284      1.00000
     15      -4.8044      1.00000
     16      -4.3636      1.00000
     17      -3.7686      1.00000
     18      -3.5758      1.00000
     19      -3.1549      1.00000
     20      -2.9770      1.00000
     21      -2.8188      1.00000
     22      -2.7572      1.00000
     23      -2.3477      1.00000
     24      -2.1387      1.00000
     25      -1.8416      1.00000
     26      -1.6181      1.00000
     27      -1.2605      1.00000
     28      -1.0405      1.00000
     29      -0.7975      1.00000
     30      -0.6338      1.00000
     31      -0.4911      1.00000
     32      -0.2827      1.00000
     33       0.1622      1.00000
     34       0.3302      1.00000
     35       0.5366      1.00000
     36       0.5377      1.00000
     37       0.7160      1.00000
     38       0.7677      1.00000
     39       0.8168      1.00000
     40       0.8697      1.00000
     41       1.2318      1.00000
     42       1.4285      0.99475
     43       2.2521      0.00000
     44       2.3431      0.00000
     45       3.4184      0.00000
     46       3.5732      0.00000
     47       4.2149      0.00000
     48       4.5624      0.00000
     49       4.7019      0.00000
     50       4.9142      0.00000
     51       5.5128      0.00000
     52       5.8617      0.00000
     53       6.3336      0.00000
     54       6.5462      0.00000
     55       6.5642      0.00000

 k-point    31 :       0.0000    0.5000    0.2000
  band No.  band energies     occupation 
      1     -14.0041      1.00000
      2     -13.7492      1.00000
      3     -12.9482      1.00000
      4     -12.7924      1.00000
      5     -11.2324      1.00000
      6     -11.1575      1.00000
      7     -10.6900      1.00000
      8     -10.4667      1.00000
      9     -10.1948      1.00000
     10     -10.1219      1.00000
     11      -7.3912      1.00000
     12      -7.2835      1.00000
     13      -5.2787      1.00000
     14      -5.0905      1.00000
     15      -4.8135      1.00000
     16      -4.3314      1.00000
     17      -3.6769      1.00000
     18      -3.5336      1.00000
     19      -3.0670      1.00000
     20      -2.9461      1.00000
     21      -2.7602      1.00000
     22      -2.3106      1.00000
     23      -2.2853      1.00000
     24      -2.1245      1.00000
     25      -1.7341      1.00000
     26      -1.7149      1.00000
     27      -1.2801      1.00000
     28      -0.9077      1.00000
     29      -0.8423      1.00000
     30      -0.7341      1.00000
     31      -0.4780      1.00000
     32      -0.4497      1.00000
     33      -0.0150      1.00000
     34       0.1261      1.00000
     35       0.4064      1.00000
     36       0.4310      1.00000
     37       0.6591      1.00000
     38       0.8029      1.00000
     39       0.8078      1.00000
     40       1.0227      1.00000
     41       1.1285      1.00000
     42       1.3074      1.00000
     43       2.4122      0.00000
     44       2.4412      0.00000
     45       3.1230      0.00000
     46       3.6547      0.00000
     47       4.2483      0.00000
     48       4.5542      0.00000
     49       4.8068      0.00000
     50       4.8356      0.00000
     51       5.4412      0.00000
     52       5.7977      0.00000
     53       5.8988      0.00000
     54       6.1543      0.00000
     55       6.5933      0.00000

 k-point    32 :       0.1667    0.1667    0.2000
  band No.  band energies     occupation 
      1     -14.0114      1.00000
      2     -13.7543      1.00000
      3     -12.9358      1.00000
      4     -12.7868      1.00000
      5     -11.2145      1.00000
      6     -11.1545      1.00000
      7     -10.7322      1.00000
      8     -10.5255      1.00000
      9     -10.1746      1.00000
     10     -10.0779      1.00000
     11      -7.2878      1.00000
     12      -7.1567      1.00000
     13      -5.4476      1.00000
     14      -5.1990      1.00000
     15      -4.8510      1.00000
     16      -4.3202      1.00000
     17      -3.7136      1.00000
     18      -3.5722      1.00000
     19      -3.1463      1.00000
     20      -2.9169      1.00000
     21      -2.6732      1.00000
     22      -2.5317      1.00000
     23      -2.3616      1.00000
     24      -2.2366      1.00000
     25      -1.8672      1.00000
     26      -1.5620      1.00000
     27      -1.3432      1.00000
     28      -1.0133      1.00000
     29      -0.7826      1.00000
     30      -0.6158      1.00000
     31      -0.3783      1.00000
     32      -0.2241      1.00000
     33       0.0214      1.00000
     34       0.2898      1.00000
     35       0.4935      1.00000
     36       0.5864      1.00000
     37       0.6460      1.00000
     38       0.7933      1.00000
     39       0.9198      1.00000
     40       1.0082      1.00000
     41       1.1355      1.00000
     42       1.4326      0.99272
     43       2.4702      0.00000
     44       2.5217      0.00000
     45       3.2809      0.00000
     46       3.5907      0.00000
     47       3.9913      0.00000
     48       4.2312      0.00000
     49       4.6441      0.00000
     50       4.8477      0.00000
     51       5.5691      0.00000
     52       5.8046      0.00000
     53       5.9665      0.00000
     54       6.4939      0.00000
     55       6.5806      0.00000

 k-point    33 :      -0.1667    0.1667    0.2000
  band No.  band energies     occupation 
      1     -14.0114      1.00000
      2     -13.7543      1.00000
      3     -12.9358      1.00000
      4     -12.7868      1.00000
      5     -11.2145      1.00000
      6     -11.1545      1.00000
      7     -10.7322      1.00000
      8     -10.5255      1.00000
      9     -10.1746      1.00000
     10     -10.0779      1.00000
     11      -7.2878      1.00000
     12      -7.1567      1.00000
     13      -5.4476      1.00000
     14      -5.1990      1.00000
     15      -4.8510      1.00000
     16      -4.3202      1.00000
     17      -3.7136      1.00000
     18      -3.5722      1.00000
     19      -3.1463      1.00000
     20      -2.9169      1.00000
     21      -2.6732      1.00000
     22      -2.5317      1.00000
     23      -2.3616      1.00000
     24      -2.2366      1.00000
     25      -1.8672      1.00000
     26      -1.5620      1.00000
     27      -1.3432      1.00000
     28      -1.0133      1.00000
     29      -0.7826      1.00000
     30      -0.6158      1.00000
     31      -0.3783      1.00000
     32      -0.2241      1.00000
     33       0.0214      1.00000
     34       0.2898      1.00000
     35       0.4935      1.00000
     36       0.5864      1.00000
     37       0.6460      1.00000
     38       0.7933      1.00000
     39       0.9198      1.00000
     40       1.0082      1.00000
     41       1.1355      1.00000
     42       1.4326      0.99272
     43       2.4702      0.00000
     44       2.5217      0.00000
     45       3.2809      0.00000
     46       3.5907      0.00000
     47       3.9913      0.00000
     48       4.2312      0.00000
     49       4.6441      0.00000
     50       4.8477      0.00000
     51       5.5691      0.00000
     52       5.8046      0.00000
     53       5.9665      0.00000
     54       6.4946      0.00000
     55       6.5940      0.00000

 k-point    34 :      -0.1667   -0.1667    0.2000
  band No.  band energies     occupation 
      1     -14.0112      1.00000
      2     -13.7546      1.00000
      3     -12.9361      1.00000
      4     -12.7863      1.00000
      5     -11.2156      1.00000
      6     -11.1536      1.00000
      7     -10.7330      1.00000
      8     -10.5240      1.00000
      9     -10.1748      1.00000
     10     -10.0777      1.00000
     11      -7.2961      1.00000
     12      -7.1509      1.00000
     13      -5.4385      1.00000
     14      -5.1992      1.00000
     15      -4.8601      1.00000
     16      -4.3135      1.00000
     17      -3.7099      1.00000
     18      -3.5622      1.00000
     19      -3.1363      1.00000
     20      -2.9101      1.00000
     21      -2.8095      1.00000
     22      -2.5611      1.00000
     23      -2.2981      1.00000
     24      -2.1822      1.00000
     25      -1.7645      1.00000
     26      -1.5820      1.00000
     27      -1.3540      1.00000
     28      -1.0420      1.00000
     29      -0.8279      1.00000
     30      -0.5629      1.00000
     31      -0.3727      1.00000
     32      -0.3126      1.00000
     33       0.0414      1.00000
     34       0.2866      1.00000
     35       0.4564      1.00000
     36       0.5950      1.00000
     37       0.6790      1.00000
     38       0.8072      1.00000
     39       0.8825      1.00000
     40       1.0310      1.00000
     41       1.1648      1.00000
     42       1.4148      0.99839
     43       2.4763      0.00000
     44       2.5558      0.00000
     45       3.3156      0.00000
     46       3.5856      0.00000
     47       3.9072      0.00000
     48       4.3157      0.00000
     49       4.5512      0.00000
     50       4.8432      0.00000
     51       5.5439      0.00000
     52       5.8969      0.00000
     53       5.9900      0.00000
     54       6.3664      0.00000
     55       6.5686      0.00000

 k-point    35 :       0.1667   -0.1667    0.2000
  band No.  band energies     occupation 
      1     -14.0112      1.00000
      2     -13.7546      1.00000
      3     -12.9361      1.00000
      4     -12.7863      1.00000
      5     -11.2156      1.00000
      6     -11.1536      1.00000
      7     -10.7330      1.00000
      8     -10.5240      1.00000
      9     -10.1748      1.00000
     10     -10.0777      1.00000
     11      -7.2961      1.00000
     12      -7.1509      1.00000
     13      -5.4385      1.00000
     14      -5.1992      1.00000
     15      -4.8601      1.00000
     16      -4.3135      1.00000
     17      -3.7099      1.00000
     18      -3.5622      1.00000
     19      -3.1363      1.00000
     20      -2.9101      1.00000
     21      -2.8095      1.00000
     22      -2.5611      1.00000
     23      -2.2981      1.00000
     24      -2.1822      1.00000
     25      -1.7645      1.00000
     26      -1.5820      1.00000
     27      -1.3540      1.00000
     28      -1.0420      1.00000
     29      -0.8279      1.00000
     30      -0.5629      1.00000
     31      -0.3727      1.00000
     32      -0.3126      1.00000
     33       0.0414      1.00000
     34       0.2866      1.00000
     35       0.4564      1.00000
     36       0.5950      1.00000
     37       0.6790      1.00000
     38       0.8072      1.00000
     39       0.8825      1.00000
     40       1.0310      1.00000
     41       1.1648      1.00000
     42       1.4148      0.99839
     43       2.4763      0.00000
     44       2.5558      0.00000
     45       3.3156      0.00000
     46       3.5856      0.00000
     47       3.9072      0.00000
     48       4.3157      0.00000
     49       4.5512      0.00000
     50       4.8432      0.00000
     51       5.5439      0.00000
     52       5.8969      0.00000
     53       5.9900      0.00000
     54       6.3664      0.00000
     55       6.5687      0.00000

 k-point    36 :       0.3333    0.1667    0.2000
  band No.  band energies     occupation 
      1     -13.9939      1.00000
      2     -13.7427      1.00000
      3     -12.9540      1.00000
      4     -12.7917      1.00000
      5     -11.2446      1.00000
      6     -11.1955      1.00000
      7     -10.7299      1.00000
      8     -10.5532      1.00000
      9     -10.1755      1.00000
     10     -10.0284      1.00000
     11      -7.2287      1.00000
     12      -7.1103      1.00000
     13      -5.4307      1.00000
     14      -5.0936      1.00000
     15      -4.8197      1.00000
     16      -4.3381      1.00000
     17      -3.7805      1.00000
     18      -3.6142      1.00000
     19      -3.1149      1.00000
     20      -2.9508      1.00000
     21      -2.7168      1.00000
     22      -2.5816      1.00000
     23      -2.4409      1.00000
     24      -2.1140      1.00000
     25      -1.8655      1.00000
     26      -1.6392      1.00000
     27      -1.2771      1.00000
     28      -1.0317      1.00000
     29      -0.7327      1.00000
     30      -0.5892      1.00000
     31      -0.4748      1.00000
     32      -0.2740      1.00000
     33       0.1193      1.00000
     34       0.1931      1.00000
     35       0.5214      1.00000
     36       0.5617      1.00000
     37       0.6096      1.00000
     38       0.7387      1.00000
     39       0.8245      1.00000
     40       0.9277      1.00000
     41       1.2279      1.00000
     42       1.4169      0.99805
     43       2.3208      0.00000
     44       2.4042      0.00000
     45       3.3980      0.00000
     46       3.5352      0.00000
     47       4.0599      0.00000
     48       4.4067      0.00000
     49       4.7262      0.00000
     50       4.9211      0.00000
     51       5.5588      0.00000
     52       5.9875      0.00000
     53       6.1328      0.00000
     54       6.4779      0.00000
     55       6.5749      0.00000

 k-point    37 :      -0.1667    0.3333    0.2000
  band No.  band energies     occupation 
      1     -14.0025      1.00000
      2     -13.7482      1.00000
      3     -12.9441      1.00000
      4     -12.7886      1.00000
      5     -11.2414      1.00000
      6     -11.1666      1.00000
      7     -10.7207      1.00000
      8     -10.5084      1.00000
      9     -10.1822      1.00000
     10     -10.0829      1.00000
     11      -7.3210      1.00000
     12      -7.1850      1.00000
     13      -5.3741      1.00000
     14      -5.1201      1.00000
     15      -4.8443      1.00000
     16      -4.3243      1.00000
     17      -3.7025      1.00000
     18      -3.5449      1.00000
     19      -3.1111      1.00000
     20      -2.9354      1.00000
     21      -2.6691      1.00000
     22      -2.4372      1.00000
     23      -2.3451      1.00000
     24      -2.1708      1.00000
     25      -1.8149      1.00000
     26      -1.5638      1.00000
     27      -1.3365      1.00000
     28      -0.9837      1.00000
     29      -0.8264      1.00000
     30      -0.6708      1.00000
     31      -0.4524      1.00000
     32      -0.2829      1.00000
     33      -0.0564      1.00000
     34       0.2617      1.00000
     35       0.3864      1.00000
     36       0.4556      1.00000
     37       0.6344      1.00000
     38       0.7501      1.00000
     39       0.8878      1.00000
     40       0.9583      1.00000
     41       1.1418      1.00000
     42       1.3692      0.99999
     43       2.3742      0.00000
     44       2.4430      0.00000
     45       3.2218      0.00000
     46       3.6317      0.00000
     47       4.1607      0.00000
     48       4.3684      0.00000
     49       4.7256      0.00000
     50       4.8895      0.00000
     51       5.5461      0.00000
     52       5.8081      0.00000
     53       6.0308      0.00000
     54       6.3986      0.00000
     55       6.6073      0.00000

 k-point    38 :      -0.3333   -0.1667    0.2000
  band No.  band energies     occupation 
      1     -13.9938      1.00000
      2     -13.7429      1.00000
      3     -12.9542      1.00000
      4     -12.7912      1.00000
      5     -11.2481      1.00000
      6     -11.1927      1.00000
      7     -10.7292      1.00000
      8     -10.5529      1.00000
      9     -10.1794      1.00000
     10     -10.0247      1.00000
     11      -7.2335      1.00000
     12      -7.1046      1.00000
     13      -5.4245      1.00000
     14      -5.1080      1.00000
     15      -4.8413      1.00000
     16      -4.3257      1.00000
     17      -3.7403      1.00000
     18      -3.6036      1.00000
     19      -3.0834      1.00000
     20      -2.9577      1.00000
     21      -2.8107      1.00000
     22      -2.6626      1.00000
     23      -2.3851      1.00000
     24      -1.9973      1.00000
     25      -1.8861      1.00000
     26      -1.5854      1.00000
     27      -1.3353      1.00000
     28      -1.0311      1.00000
     29      -0.7839      1.00000
     30      -0.5850      1.00000
     31      -0.4508      1.00000
     32      -0.2867      1.00000
     33       0.0909      1.00000
     34       0.2250      1.00000
     35       0.4408      1.00000
     36       0.5380      1.00000
     37       0.6724      1.00000
     38       0.7168      1.00000
     39       0.8336      1.00000
     40       0.9446      1.00000
     41       1.2308      1.00000
     42       1.4235      0.99652
     43       2.3372      0.00000
     44       2.4311      0.00000
     45       3.3954      0.00000
     46       3.5588      0.00000
     47       4.0131      0.00000
     48       4.4649      0.00000
     49       4.6629      0.00000
     50       4.9204      0.00000
     51       5.6366      0.00000
     52       5.9825      0.00000
     53       6.1795      0.00000
     54       6.4098      0.00000
     55       6.5680      0.00000

 k-point    39 :       0.1667   -0.3333    0.2000
  band No.  band energies     occupation 
      1     -14.0023      1.00000
      2     -13.7485      1.00000
      3     -12.9444      1.00000
      4     -12.7881      1.00000
      5     -11.2424      1.00000
      6     -11.1658      1.00000
      7     -10.7216      1.00000
      8     -10.5069      1.00000
      9     -10.1825      1.00000
     10     -10.0827      1.00000
     11      -7.3282      1.00000
     12      -7.1805      1.00000
     13      -5.3618      1.00000
     14      -5.1244      1.00000
     15      -4.8533      1.00000
     16      -4.3123      1.00000
     17      -3.7071      1.00000
     18      -3.5292      1.00000
     19      -3.1135      1.00000
     20      -2.9315      1.00000
     21      -2.7987      1.00000
     22      -2.4786      1.00000
     23      -2.2457      1.00000
     24      -2.1057      1.00000
     25      -1.7253      1.00000
     26      -1.5869      1.00000
     27      -1.3579      1.00000
     28      -1.0289      1.00000
     29      -0.8181      1.00000
     30      -0.6383      1.00000
     31      -0.5466      1.00000
     32      -0.3071      1.00000
     33      -0.0089      1.00000
     34       0.2495      1.00000
     35       0.3848      1.00000
     36       0.4869      1.00000
     37       0.6033      1.00000
     38       0.7629      1.00000
     39       0.8429      1.00000
     40       0.9944      1.00000
     41       1.1767      1.00000
     42       1.3398      1.00000
     43       2.4038      0.00000
     44       2.4618      0.00000
     45       3.2439      0.00000
     46       3.6316      0.00000
     47       4.0679      0.00000
     48       4.4579      0.00000
     49       4.6283      0.00000
     50       4.9053      0.00000
     51       5.5630      0.00000
     52       5.8201      0.00000
     53       6.0747      0.00000
     54       6.3021      0.00000
     55       6.5885      0.00000

 k-point    40 :      -0.3333    0.1667   -0.2000
  band No.  band energies     occupation 
      1     -13.9938      1.00000
      2     -13.7429      1.00000
      3     -12.9542      1.00000
      4     -12.7912      1.00000
      5     -11.2481      1.00000
      6     -11.1927      1.00000
      7     -10.7292      1.00000
      8     -10.5529      1.00000
      9     -10.1794      1.00000
     10     -10.0247      1.00000
     11      -7.2335      1.00000
     12      -7.1046      1.00000
     13      -5.4245      1.00000
     14      -5.1080      1.00000
     15      -4.8413      1.00000
     16      -4.3257      1.00000
     17      -3.7403      1.00000
     18      -3.6036      1.00000
     19      -3.0834      1.00000
     20      -2.9577      1.00000
     21      -2.8107      1.00000
     22      -2.6626      1.00000
     23      -2.3851      1.00000
     24      -1.9973      1.00000
     25      -1.8861      1.00000
     26      -1.5854      1.00000
     27      -1.3353      1.00000
     28      -1.0311      1.00000
     29      -0.7839      1.00000
     30      -0.5850      1.00000
     31      -0.4508      1.00000
     32      -0.2867      1.00000
     33       0.0909      1.00000
     34       0.2250      1.00000
     35       0.4408      1.00000
     36       0.5380      1.00000
     37       0.6724      1.00000
     38       0.7168      1.00000
     39       0.8336      1.00000
     40       0.9446      1.00000
     41       1.2308      1.00000
     42       1.4235      0.99652
     43       2.3372      0.00000
     44       2.4311      0.00000
     45       3.3954      0.00000
     46       3.5588      0.00000
     47       4.0131      0.00000
     48       4.4649      0.00000
     49       4.6629      0.00000
     50       4.9204      0.00000
     51       5.6366      0.00000
     52       5.9825      0.00000
     53       6.1795      0.00000
     54       6.4098      0.00000
     55       6.5690      0.00000

 k-point    41 :       0.1667    0.3333   -0.2000
  band No.  band energies     occupation 
      1     -14.0023      1.00000
      2     -13.7485      1.00000
      3     -12.9444      1.00000
      4     -12.7881      1.00000
      5     -11.2424      1.00000
      6     -11.1658      1.00000
      7     -10.7216      1.00000
      8     -10.5069      1.00000
      9     -10.1825      1.00000
     10     -10.0827      1.00000
     11      -7.3282      1.00000
     12      -7.1805      1.00000
     13      -5.3618      1.00000
     14      -5.1244      1.00000
     15      -4.8533      1.00000
     16      -4.3123      1.00000
     17      -3.7071      1.00000
     18      -3.5292      1.00000
     19      -3.1135      1.00000
     20      -2.9315      1.00000
     21      -2.7987      1.00000
     22      -2.4786      1.00000
     23      -2.2457      1.00000
     24      -2.1057      1.00000
     25      -1.7253      1.00000
     26      -1.5869      1.00000
     27      -1.3579      1.00000
     28      -1.0289      1.00000
     29      -0.8181      1.00000
     30      -0.6383      1.00000
     31      -0.5466      1.00000
     32      -0.3071      1.00000
     33      -0.0089      1.00000
     34       0.2495      1.00000
     35       0.3848      1.00000
     36       0.4869      1.00000
     37       0.6033      1.00000
     38       0.7629      1.00000
     39       0.8429      1.00000
     40       0.9944      1.00000
     41       1.1767      1.00000
     42       1.3398      1.00000
     43       2.4038      0.00000
     44       2.4618      0.00000
     45       3.2439      0.00000
     46       3.6316      0.00000
     47       4.0679      0.00000
     48       4.4579      0.00000
     49       4.6283      0.00000
     50       4.9053      0.00000
     51       5.5630      0.00000
     52       5.8201      0.00000
     53       6.0747      0.00000
     54       6.3021      0.00000
     55       6.5921      0.00000

 k-point    42 :       0.3333   -0.1667   -0.2000
  band No.  band energies     occupation 
      1     -13.9939      1.00000
      2     -13.7427      1.00000
      3     -12.9540      1.00000
      4     -12.7917      1.00000
      5     -11.2446      1.00000
      6     -11.1955      1.00000
      7     -10.7299      1.00000
      8     -10.5532      1.00000
      9     -10.1755      1.00000
     10     -10.0284      1.00000
     11      -7.2287      1.00000
     12      -7.1103      1.00000
     13      -5.4307      1.00000
     14      -5.0936      1.00000
     15      -4.8197      1.00000
     16      -4.3381      1.00000
     17      -3.7805      1.00000
     18      -3.6142      1.00000
     19      -3.1149      1.00000
     20      -2.9508      1.00000
     21      -2.7168      1.00000
     22      -2.5816      1.00000
     23      -2.4409      1.00000
     24      -2.1140      1.00000
     25      -1.8655      1.00000
     26      -1.6392      1.00000
     27      -1.2771      1.00000
     28      -1.0317      1.00000
     29      -0.7327      1.00000
     30      -0.5892      1.00000
     31      -0.4748      1.00000
     32      -0.2740      1.00000
     33       0.1193      1.00000
     34       0.1931      1.00000
     35       0.5214      1.00000
     36       0.5617      1.00000
     37       0.6096      1.00000
     38       0.7387      1.00000
     39       0.8245      1.00000
     40       0.9277      1.00000
     41       1.2279      1.00000
     42       1.4169      0.99805
     43       2.3208      0.00000
     44       2.4042      0.00000
     45       3.3980      0.00000
     46       3.5352      0.00000
     47       4.0599      0.00000
     48       4.4067      0.00000
     49       4.7262      0.00000
     50       4.9211      0.00000
     51       5.5588      0.00000
     52       5.9875      0.00000
     53       6.1328      0.00000
     54       6.4779      0.00000
     55       6.5747      0.00000

 k-point    43 :      -0.1667   -0.3333   -0.2000
  band No.  band energies     occupation 
      1     -14.0025      1.00000
      2     -13.7482      1.00000
      3     -12.9441      1.00000
      4     -12.7886      1.00000
      5     -11.2414      1.00000
      6     -11.1666      1.00000
      7     -10.7207      1.00000
      8     -10.5084      1.00000
      9     -10.1822      1.00000
     10     -10.0829      1.00000
     11      -7.3210      1.00000
     12      -7.1850      1.00000
     13      -5.3741      1.00000
     14      -5.1201      1.00000
     15      -4.8443      1.00000
     16      -4.3243      1.00000
     17      -3.7025      1.00000
     18      -3.5449      1.00000
     19      -3.1111      1.00000
     20      -2.9354      1.00000
     21      -2.6691      1.00000
     22      -2.4372      1.00000
     23      -2.3451      1.00000
     24      -2.1708      1.00000
     25      -1.8149      1.00000
     26      -1.5638      1.00000
     27      -1.3365      1.00000
     28      -0.9837      1.00000
     29      -0.8264      1.00000
     30      -0.6708      1.00000
     31      -0.4524      1.00000
     32      -0.2829      1.00000
     33      -0.0564      1.00000
     34       0.2617      1.00000
     35       0.3864      1.00000
     36       0.4556      1.00000
     37       0.6344      1.00000
     38       0.7501      1.00000
     39       0.8878      1.00000
     40       0.9583      1.00000
     41       1.1418      1.00000
     42       1.3692      0.99999
     43       2.3742      0.00000
     44       2.4430      0.00000
     45       3.2218      0.00000
     46       3.6317      0.00000
     47       4.1607      0.00000
     48       4.3684      0.00000
     49       4.7256      0.00000
     50       4.8895      0.00000
     51       5.5461      0.00000
     52       5.8081      0.00000
     53       6.0308      0.00000
     54       6.3986      0.00000
     55       6.6056      0.00000

 k-point    44 :       0.5000    0.1667    0.2000
  band No.  band energies     occupation 
      1     -13.9848      1.00000
      2     -13.7368      1.00000
      3     -12.9634      1.00000
      4     -12.7944      1.00000
      5     -11.2563      1.00000
      6     -11.2173      1.00000
      7     -10.7295      1.00000
      8     -10.5647      1.00000
      9     -10.1762      1.00000
     10     -10.0077      1.00000
     11      -7.1691      1.00000
     12      -7.1143      1.00000
     13      -5.4194      1.00000
     14      -5.0600      1.00000
     15      -4.7942      1.00000
     16      -4.3497      1.00000
     17      -3.8087      1.00000
     18      -3.5848      1.00000
     19      -3.1154      1.00000
     20      -2.9625      1.00000
     21      -2.8505      1.00000
     22      -2.6204      1.00000
     23      -2.2991      1.00000
     24      -2.1029      1.00000
     25      -1.9708      1.00000
     26      -1.5540      1.00000
     27      -1.2828      1.00000
     28      -1.0915      1.00000
     29      -0.7323      1.00000
     30      -0.5951      1.00000
     31      -0.4930      1.00000
     32      -0.2846      1.00000
     33       0.0867      1.00000
     34       0.2452      1.00000
     35       0.5586      1.00000
     36       0.6070      1.00000
     37       0.6522      1.00000
     38       0.6850      1.00000
     39       0.7761      1.00000
     40       0.8496      1.00000
     41       1.2492      1.00000
     42       1.3944      0.99979
     43       2.2506      0.00000
     44       2.3126      0.00000
     45       3.4275      0.00000
     46       3.5518      0.00000
     47       4.1340      0.00000
     48       4.4511      0.00000
     49       4.6952      0.00000
     50       4.9540      0.00000
     51       5.6191      0.00000
     52       5.9855      0.00000
     53       6.3560      0.00000
     54       6.5236      0.00000
     55       6.6394      0.00000

 k-point    45 :      -0.1667    0.5000    0.2000
  band No.  band energies     occupation 
      1     -13.9979      1.00000
      2     -13.7453      1.00000
      3     -12.9485      1.00000
      4     -12.7894      1.00000
      5     -11.2546      1.00000
      6     -11.1723      1.00000
      7     -10.7150      1.00000
      8     -10.4995      1.00000
      9     -10.1864      1.00000
     10     -10.0858      1.00000
     11      -7.3259      1.00000
     12      -7.2125      1.00000
     13      -5.3154      1.00000
     14      -5.0989      1.00000
     15      -4.8439      1.00000
     16      -4.3200      1.00000
     17      -3.7068      1.00000
     18      -3.5032      1.00000
     19      -3.1042      1.00000
     20      -2.9592      1.00000
     21      -2.7691      1.00000
     22      -2.3762      1.00000
     23      -2.2443      1.00000
     24      -2.0471      1.00000
     25      -1.7839      1.00000
     26      -1.6583      1.00000
     27      -1.3013      1.00000
     28      -1.0334      1.00000
     29      -0.7681      1.00000
     30      -0.6514      1.00000
     31      -0.5833      1.00000
     32      -0.4106      1.00000
     33      -0.0194      1.00000
     34       0.2219      1.00000
     35       0.3632      1.00000
     36       0.4251      1.00000
     37       0.6209      1.00000
     38       0.7170      1.00000
     39       0.8438      1.00000
     40       0.9526      1.00000
     41       1.1718      1.00000
     42       1.3123      1.00000
     43       2.3456      0.00000
     44       2.4131      0.00000
     45       3.2017      0.00000
     46       3.6454      0.00000
     47       4.2493      0.00000
     48       4.4939      0.00000
     49       4.6921      0.00000
     50       4.8325      0.00000
     51       5.5511      0.00000
     52       5.9606      0.00000
     53       6.0728      0.00000
     54       6.2448      0.00000
     55       6.5854      0.00000

 k-point    46 :       0.5000   -0.1667    0.2000
  band No.  band energies     occupation 
      1     -13.9847      1.00000
      2     -13.7370      1.00000
      3     -12.9636      1.00000
      4     -12.7940      1.00000
      5     -11.2603      1.00000
      6     -11.2142      1.00000
      7     -10.7276      1.00000
      8     -10.5648      1.00000
      9     -10.1820      1.00000
     10     -10.0025      1.00000
     11      -7.1731      1.00000
     12      -7.1076      1.00000
     13      -5.4116      1.00000
     14      -5.0958      1.00000
     15      -4.8101      1.00000
     16      -4.3328      1.00000
     17      -3.7613      1.00000
     18      -3.5576      1.00000
     19      -3.0939      1.00000
     20      -3.0451      1.00000
     21      -2.7571      1.00000
     22      -2.7385      1.00000
     23      -2.3126      1.00000
     24      -2.1112      1.00000
     25      -1.7890      1.00000
     26      -1.6752      1.00000
     27      -1.2426      1.00000
     28      -1.0264      1.00000
     29      -0.8479      1.00000
     30      -0.6645      1.00000
     31      -0.4564      1.00000
     32      -0.2485      1.00000
     33       0.1638      1.00000
     34       0.2076      1.00000
     35       0.4349      1.00000
     36       0.5208      1.00000
     37       0.6983      1.00000
     38       0.7425      1.00000
     39       0.7570      1.00000
     40       0.9075      1.00000
     41       1.2210      1.00000
     42       1.4145      0.99843
     43       2.2972      0.00000
     44       2.3152      0.00000
     45       3.4278      0.00000
     46       3.5462      0.00000
     47       4.1500      0.00000
     48       4.4609      0.00000
     49       4.7159      0.00000
     50       4.8943      0.00000
     51       5.6983      0.00000
     52       6.0805      0.00000
     53       6.2928      0.00000
     54       6.5385      0.00000
     55       6.6335      0.00000

 k-point    47 :       0.1667    0.5000    0.2000
  band No.  band energies     occupation 
      1     -13.9979      1.00000
      2     -13.7453      1.00000
      3     -12.9485      1.00000
      4     -12.7894      1.00000
      5     -11.2546      1.00000
      6     -11.1723      1.00000
      7     -10.7150      1.00000
      8     -10.4995      1.00000
      9     -10.1864      1.00000
     10     -10.0858      1.00000
     11      -7.3259      1.00000
     12      -7.2125      1.00000
     13      -5.3154      1.00000
     14      -5.0989      1.00000
     15      -4.8439      1.00000
     16      -4.3200      1.00000
     17      -3.7068      1.00000
     18      -3.5032      1.00000
     19      -3.1042      1.00000
     20      -2.9592      1.00000
     21      -2.7691      1.00000
     22      -2.3762      1.00000
     23      -2.2443      1.00000
     24      -2.0471      1.00000
     25      -1.7839      1.00000
     26      -1.6583      1.00000
     27      -1.3013      1.00000
     28      -1.0334      1.00000
     29      -0.7681      1.00000
     30      -0.6514      1.00000
     31      -0.5833      1.00000
     32      -0.4106      1.00000
     33      -0.0194      1.00000
     34       0.2219      1.00000
     35       0.3632      1.00000
     36       0.4251      1.00000
     37       0.6209      1.00000
     38       0.7170      1.00000
     39       0.8438      1.00000
     40       0.9526      1.00000
     41       1.1718      1.00000
     42       1.3123      1.00000
     43       2.3456      0.00000
     44       2.4131      0.00000
     45       3.2017      0.00000
     46       3.6454      0.00000
     47       4.2493      0.00000
     48       4.4939      0.00000
     49       4.6921      0.00000
     50       4.8325      0.00000
     51       5.5511      0.00000
     52       5.9606      0.00000
     53       6.0728      0.00000
     54       6.2448      0.00000
     55       6.5843      0.00000

 k-point    48 :       0.3333    0.3333    0.2000
  band No.  band energies     occupation 
      1     -13.9882      1.00000
      2     -13.7390      1.00000
      3     -12.9509      1.00000
      4     -12.7864      1.00000
      5     -11.2757      1.00000
      6     -11.1994      1.00000
      7     -10.7577      1.00000
      8     -10.5570      1.00000
      9     -10.1729      1.00000
     10     -10.0202      1.00000
     11      -7.2070      1.00000
     12      -7.0728      1.00000
     13      -5.4315      1.00000
     14      -5.1229      1.00000
     15      -4.8233      1.00000
     16      -4.3137      1.00000
     17      -3.7853      1.00000
     18      -3.5721      1.00000
     19      -3.0847      1.00000
     20      -2.9880      1.00000
     21      -2.6974      1.00000
     22      -2.4015      1.00000
     23      -2.3234      1.00000
     24      -2.1934      1.00000
     25      -1.8063      1.00000
     26      -1.5814      1.00000
     27      -1.3307      1.00000
     28      -1.1183      1.00000
     29      -0.7410      1.00000
     30      -0.5729      1.00000
     31      -0.4524      1.00000
     32      -0.2997      1.00000
     33      -0.0609      1.00000
     34       0.1742      1.00000
     35       0.3634      1.00000
     36       0.4496      1.00000
     37       0.6223      1.00000
     38       0.7219      1.00000
     39       0.7968      1.00000
     40       0.9184      1.00000
     41       1.2202      1.00000
     42       1.3709      0.99999
     43       2.2984      0.00000
     44       2.3762      0.00000
     45       3.3699      0.00000
     46       3.5592      0.00000
     47       3.9864      0.00000
     48       4.3534      0.00000
     49       4.7170      0.00000
     50       4.9265      0.00000
     51       5.7142      0.00000
     52       6.1269      0.00000
     53       6.2172      0.00000
     54       6.4994      0.00000
     55       6.6258      0.00000

 k-point    49 :      -0.3333    0.3333    0.2000
  band No.  band energies     occupation 
      1     -13.9882      1.00000
      2     -13.7390      1.00000
      3     -12.9509      1.00000
      4     -12.7864      1.00000
      5     -11.2757      1.00000
      6     -11.1994      1.00000
      7     -10.7577      1.00000
      8     -10.5570      1.00000
      9     -10.1729      1.00000
     10     -10.0202      1.00000
     11      -7.2070      1.00000
     12      -7.0728      1.00000
     13      -5.4315      1.00000
     14      -5.1229      1.00000
     15      -4.8233      1.00000
     16      -4.3137      1.00000
     17      -3.7853      1.00000
     18      -3.5721      1.00000
     19      -3.0847      1.00000
     20      -2.9880      1.00000
     21      -2.6974      1.00000
     22      -2.4015      1.00000
     23      -2.3234      1.00000
     24      -2.1934      1.00000
     25      -1.8063      1.00000
     26      -1.5814      1.00000
     27      -1.3307      1.00000
     28      -1.1183      1.00000
     29      -0.7410      1.00000
     30      -0.5729      1.00000
     31      -0.4524      1.00000
     32      -0.2997      1.00000
     33      -0.0609      1.00000
     34       0.1742      1.00000
     35       0.3634      1.00000
     36       0.4496      1.00000
     37       0.6223      1.00000
     38       0.7219      1.00000
     39       0.7968      1.00000
     40       0.9184      1.00000
     41       1.2202      1.00000
     42       1.3709      0.99999
     43       2.2984      0.00000
     44       2.3762      0.00000
     45       3.3699      0.00000
     46       3.5592      0.00000
     47       3.9864      0.00000
     48       4.3534      0.00000
     49       4.7170      0.00000
     50       4.9265      0.00000
     51       5.7142      0.00000
     52       6.1269      0.00000
     53       6.2172      0.00000
     54       6.4994      0.00000
     55       6.6260      0.00000

 k-point    50 :      -0.3333   -0.3333    0.2000
  band No.  band energies     occupation 
      1     -13.9880      1.00000
      2     -13.7393      1.00000
      3     -12.9512      1.00000
      4     -12.7859      1.00000
      5     -11.2789      1.00000
      6     -11.1966      1.00000
      7     -10.7572      1.00000
      8     -10.5567      1.00000
      9     -10.1768      1.00000
     10     -10.0165      1.00000
     11      -7.2110      1.00000
     12      -7.0678      1.00000
     13      -5.4215      1.00000
     14      -5.1418      1.00000
     15      -4.8463      1.00000
     16      -4.2949      1.00000
     17      -3.7538      1.00000
     18      -3.5482      1.00000
     19      -3.0715      1.00000
     20      -3.0155      1.00000
     21      -2.7686      1.00000
     22      -2.4990      1.00000
     23      -2.3140      1.00000
     24      -1.9852      1.00000
     25      -1.8129      1.00000
     26      -1.5731      1.00000
     27      -1.3358      1.00000
     28      -1.1639      1.00000
     29      -0.7832      1.00000
     30      -0.5757      1.00000
     31      -0.4677      1.00000
     32      -0.2820      1.00000
     33      -0.0796      1.00000
     34       0.2097      1.00000
     35       0.3658      1.00000
     36       0.4599      1.00000
     37       0.5559      1.00000
     38       0.7012      1.00000
     39       0.7848      1.00000
     40       0.9711      1.00000
     41       1.2095      1.00000
     42       1.3759      0.99997
     43       2.3147      0.00000
     44       2.4183      0.00000
     45       3.3695      0.00000
     46       3.5834      0.00000
     47       3.9131      0.00000
     48       4.4189      0.00000
     49       4.6746      0.00000
     50       4.9229      0.00000
     51       5.8096      0.00000
     52       6.0661      0.00000
     53       6.2877      0.00000
     54       6.4648      0.00000
     55       6.6021      0.00000

 k-point    51 :       0.3333   -0.3333    0.2000
  band No.  band energies     occupation 
      1     -13.9880      1.00000
      2     -13.7393      1.00000
      3     -12.9512      1.00000
      4     -12.7859      1.00000
      5     -11.2789      1.00000
      6     -11.1966      1.00000
      7     -10.7572      1.00000
      8     -10.5567      1.00000
      9     -10.1768      1.00000
     10     -10.0165      1.00000
     11      -7.2110      1.00000
     12      -7.0678      1.00000
     13      -5.4215      1.00000
     14      -5.1418      1.00000
     15      -4.8463      1.00000
     16      -4.2949      1.00000
     17      -3.7538      1.00000
     18      -3.5482      1.00000
     19      -3.0715      1.00000
     20      -3.0155      1.00000
     21      -2.7686      1.00000
     22      -2.4990      1.00000
     23      -2.3140      1.00000
     24      -1.9852      1.00000
     25      -1.8129      1.00000
     26      -1.5731      1.00000
     27      -1.3358      1.00000
     28      -1.1639      1.00000
     29      -0.7832      1.00000
     30      -0.5757      1.00000
     31      -0.4677      1.00000
     32      -0.2820      1.00000
     33      -0.0796      1.00000
     34       0.2097      1.00000
     35       0.3658      1.00000
     36       0.4599      1.00000
     37       0.5559      1.00000
     38       0.7012      1.00000
     39       0.7848      1.00000
     40       0.9711      1.00000
     41       1.2095      1.00000
     42       1.3759      0.99997
     43       2.3147      0.00000
     44       2.4183      0.00000
     45       3.3695      0.00000
     46       3.5834      0.00000
     47       3.9131      0.00000
     48       4.4189      0.00000
     49       4.6746      0.00000
     50       4.9229      0.00000
     51       5.8096      0.00000
     52       6.0661      0.00000
     53       6.2877      0.00000
     54       6.4646      0.00000
     55       6.5964      0.00000

 k-point    52 :       0.5000    0.3333    0.2000
  band No.  band energies     occupation 
      1     -13.9808      1.00000
      2     -13.7344      1.00000
      3     -12.9546      1.00000
      4     -12.7855      1.00000
      5     -11.2894      1.00000
      6     -11.2160      1.00000
      7     -10.7773      1.00000
      8     -10.5807      1.00000
      9     -10.1679      1.00000
     10      -9.9908      1.00000
     11      -7.1215      1.00000
     12      -7.0422      1.00000
     13      -5.4459      1.00000
     14      -5.1618      1.00000
     15      -4.7904      1.00000
     16      -4.3060      1.00000
     17      -3.8420      1.00000
     18      -3.5765      1.00000
     19      -3.0429      1.00000
     20      -3.0116      1.00000
     21      -2.7662      1.00000
     22      -2.4086      1.00000
     23      -2.1924      1.00000
     24      -2.1649      1.00000
     25      -1.9670      1.00000
     26      -1.5182      1.00000
     27      -1.3340      1.00000
     28      -1.2025      1.00000
     29      -0.6613      1.00000
     30      -0.6265      1.00000
     31      -0.3740      1.00000
     32      -0.3390      1.00000
     33      -0.0365      1.00000
     34       0.0995      1.00000
     35       0.4062      1.00000
     36       0.4283      1.00000
     37       0.6004      1.00000
     38       0.7444      1.00000
     39       0.7908      1.00000
     40       0.8473      1.00000
     41       1.2311      1.00000
     42       1.4005      0.99960
     43       2.3056      0.00000
     44       2.3155      0.00000
     45       3.4376      0.00000
     46       3.5100      0.00000
     47       3.9407      0.00000
     48       4.2312      0.00000
     49       4.7248      0.00000
     50       4.9589      0.00000
     51       5.8797      0.00000
     52       6.2573      0.00000
     53       6.3351      0.00000
     54       6.5373      0.00000
     55       6.7633      0.00000

 k-point    53 :      -0.3333    0.5000    0.2000
  band No.  band energies     occupation 
      1     -13.9852      1.00000
      2     -13.7373      1.00000
      3     -12.9495      1.00000
      4     -12.7835      1.00000
      5     -11.2923      1.00000
      6     -11.2000      1.00000
      7     -10.7703      1.00000
      8     -10.5598      1.00000
      9     -10.1738      1.00000
     10     -10.0143      1.00000
     11      -7.1819      1.00000
     12      -7.0698      1.00000
     13      -5.4089      1.00000
     14      -5.1627      1.00000
     15      -4.8384      1.00000
     16      -4.2914      1.00000
     17      -3.7753      1.00000
     18      -3.5282      1.00000
     19      -3.0980      1.00000
     20      -3.0242      1.00000
     21      -2.6860      1.00000
     22      -2.3593      1.00000
     23      -2.2731      1.00000
     24      -2.0498      1.00000
     25      -1.7777      1.00000
     26      -1.5889      1.00000
     27      -1.3654      1.00000
     28      -1.2356      1.00000
     29      -0.7058      1.00000
     30      -0.6005      1.00000
     31      -0.4459      1.00000
     32      -0.3831      1.00000
     33      -0.1064      1.00000
     34       0.2294      1.00000
     35       0.2904      1.00000
     36       0.3775      1.00000
     37       0.5541      1.00000
     38       0.7082      1.00000
     39       0.7959      1.00000
     40       0.9636      1.00000
     41       1.1898      1.00000
     42       1.3589      1.00000
     43       2.3127      0.00000
     44       2.3787      0.00000
     45       3.3423      0.00000
     46       3.5944      0.00000
     47       3.9844      0.00000
     48       4.2611      0.00000
     49       4.7029      0.00000
     50       4.9009      0.00000
     51       5.8697      0.00000
     52       6.2137      0.00000
     53       6.2912      0.00000
     54       6.5259      0.00000
     55       6.5819      0.00000

 k-point    54 :       0.5000   -0.3333    0.2000
  band No.  band energies     occupation 
      1     -13.9807      1.00000
      2     -13.7346      1.00000
      3     -12.9548      1.00000
      4     -12.7850      1.00000
      5     -11.2932      1.00000
      6     -11.2128      1.00000
      7     -10.7757      1.00000
      8     -10.5809      1.00000
      9     -10.1734      1.00000
     10      -9.9857      1.00000
     11      -7.1258      1.00000
     12      -7.0347      1.00000
     13      -5.4378      1.00000
     14      -5.1953      1.00000
     15      -4.8065      1.00000
     16      -4.2895      1.00000
     17      -3.7931      1.00000
     18      -3.5505      1.00000
     19      -3.0924      1.00000
     20      -3.0388      1.00000
     21      -2.6226      1.00000
     22      -2.6210      1.00000
     23      -2.1917      1.00000
     24      -2.1100      1.00000
     25      -1.7727      1.00000
     26      -1.6781      1.00000
     27      -1.2994      1.00000
     28      -1.1802      1.00000
     29      -0.7805      1.00000
     30      -0.5779      1.00000
     31      -0.4221      1.00000
     32      -0.2565      1.00000
     33      -0.0529      1.00000
     34       0.1315      1.00000
     35       0.3317      1.00000
     36       0.4036      1.00000
     37       0.6253      1.00000
     38       0.6841      1.00000
     39       0.7494      1.00000
     40       0.9634      1.00000
     41       1.2049      1.00000
     42       1.4086      0.99910
     43       2.3218      0.00000
     44       2.3554      0.00000
     45       3.4232      0.00000
     46       3.5312      0.00000
     47       3.9372      0.00000
     48       4.2410      0.00000
     49       4.7267      0.00000
     50       4.9252      0.00000
     51       5.9897      0.00000
     52       6.3484      0.00000
     53       6.4029      0.00000
     54       6.5344      0.00000
     55       6.6583      0.00000

 k-point    55 :       0.3333    0.5000    0.2000
  band No.  band energies     occupation 
      1     -13.9852      1.00000
      2     -13.7373      1.00000
      3     -12.9495      1.00000
      4     -12.7835      1.00000
      5     -11.2923      1.00000
      6     -11.2000      1.00000
      7     -10.7703      1.00000
      8     -10.5598      1.00000
      9     -10.1738      1.00000
     10     -10.0143      1.00000
     11      -7.1819      1.00000
     12      -7.0698      1.00000
     13      -5.4089      1.00000
     14      -5.1627      1.00000
     15      -4.8384      1.00000
     16      -4.2914      1.00000
     17      -3.7753      1.00000
     18      -3.5282      1.00000
     19      -3.0980      1.00000
     20      -3.0242      1.00000
     21      -2.6860      1.00000
     22      -2.3593      1.00000
     23      -2.2731      1.00000
     24      -2.0498      1.00000
     25      -1.7777      1.00000
     26      -1.5889      1.00000
     27      -1.3654      1.00000
     28      -1.2356      1.00000
     29      -0.7058      1.00000
     30      -0.6005      1.00000
     31      -0.4459      1.00000
     32      -0.3831      1.00000
     33      -0.1064      1.00000
     34       0.2294      1.00000
     35       0.2904      1.00000
     36       0.3775      1.00000
     37       0.5541      1.00000
     38       0.7082      1.00000
     39       0.7959      1.00000
     40       0.9636      1.00000
     41       1.1898      1.00000
     42       1.3589      1.00000
     43       2.3127      0.00000
     44       2.3787      0.00000
     45       3.3423      0.00000
     46       3.5944      0.00000
     47       3.9844      0.00000
     48       4.2611      0.00000
     49       4.7029      0.00000
     50       4.9009      0.00000
     51       5.8697      0.00000
     52       6.2137      0.00000
     53       6.2912      0.00000
     54       6.5259      0.00000
     55       6.5816      0.00000

 k-point    56 :       0.5000    0.5000    0.2000
  band No.  band energies     occupation 
      1     -13.9788      1.00000
      2     -13.7333      1.00000
      3     -12.9502      1.00000
      4     -12.7807      1.00000
      5     -11.3075      1.00000
      6     -11.2136      1.00000
      7     -10.7997      1.00000
      8     -10.5888      1.00000
      9     -10.1674      1.00000
     10      -9.9801      1.00000
     11      -7.0991      1.00000
     12      -7.0001      1.00000
     13      -5.4561      1.00000
     14      -5.2302      1.00000
     15      -4.7968      1.00000
     16      -4.2766      1.00000
     17      -3.8339      1.00000
     18      -3.5602      1.00000
     19      -3.0745      1.00000
     20      -3.0319      1.00000
     21      -2.6103      1.00000
     22      -2.4008      1.00000
     23      -2.2042      1.00000
     24      -2.1156      1.00000
     25      -1.8203      1.00000
     26      -1.5538      1.00000
     27      -1.3660      1.00000
     28      -1.3423      1.00000
     29      -0.6522      1.00000
     30      -0.5783      1.00000
     31      -0.3680      1.00000
     32      -0.3267      1.00000
     33      -0.1655      1.00000
     34       0.1190      1.00000
     35       0.2812      1.00000
     36       0.3002      1.00000
     37       0.5749      1.00000
     38       0.7138      1.00000
     39       0.7828      1.00000
     40       0.9603      1.00000
     41       1.1908      1.00000
     42       1.4238      0.99645
     43       2.3497      0.00000
     44       2.3735      0.00000
     45       3.4215      0.00000
     46       3.5118      0.00000
     47       3.8102      0.00000
     48       4.1256      0.00000
     49       4.7448      0.00000
     50       4.9487      0.00000
     51       6.0521      0.00000
     52       6.3645      0.00000
     53       6.3971      0.00000
     54       6.5727      0.00000
     55       6.6971      0.00000

 k-point    57 :       0.0000    0.0000    0.4000
  band No.  band energies     occupation 
      1     -13.9504      1.00000
      2     -13.8512      1.00000
      3     -12.8777      1.00000
      4     -12.8247      1.00000
      5     -11.1647      1.00000
      6     -11.1424      1.00000
      7     -10.6727      1.00000
      8     -10.5834      1.00000
      9     -10.1486      1.00000
     10     -10.1246      1.00000
     11      -7.2326      1.00000
     12      -7.1943      1.00000
     13      -5.4419      1.00000
     14      -5.3874      1.00000
     15      -4.7123      1.00000
     16      -4.4996      1.00000
     17      -3.6069      1.00000
     18      -3.5149      1.00000
     19      -3.1526      1.00000
     20      -2.9763      1.00000
     21      -2.7654      1.00000
     22      -2.5342      1.00000
     23      -2.4644      1.00000
     24      -2.4374      1.00000
     25      -1.7081      1.00000
     26      -1.6733      1.00000
     27      -1.0890      1.00000
     28      -1.0544      1.00000
     29      -0.6677      1.00000
     30      -0.5508      1.00000
     31      -0.4706      1.00000
     32      -0.4133      1.00000
     33       0.2764      1.00000
     34       0.3262      1.00000
     35       0.6581      1.00000
     36       0.7464      1.00000
     37       0.7568      1.00000
     38       0.8500      1.00000
     39       0.9937      1.00000
     40       1.0177      1.00000
     41       1.1748      1.00000
     42       1.3268      1.00000
     43       2.5764      0.00000
     44       2.5965      0.00000
     45       3.3981      0.00000
     46       3.5084      0.00000
     47       3.9262      0.00000
     48       3.9428      0.00000
     49       4.4383      0.00000
     50       4.6120      0.00000
     51       5.5002      0.00000
     52       5.6451      0.00000
     53       6.3689      0.00000
     54       6.4557      0.00000
     55       6.6511      0.00000

 k-point    58 :       0.1667    0.0000    0.4000
  band No.  band energies     occupation 
      1     -13.9420      1.00000
      2     -13.8438      1.00000
      3     -12.8873      1.00000
      4     -12.8314      1.00000
      5     -11.1815      1.00000
      6     -11.1610      1.00000
      7     -10.6700      1.00000
      8     -10.5920      1.00000
      9     -10.1413      1.00000
     10     -10.1047      1.00000
     11      -7.2235      1.00000
     12      -7.1872      1.00000
     13      -5.3926      1.00000
     14      -5.3152      1.00000
     15      -4.7142      1.00000
     16      -4.5090      1.00000
     17      -3.6663      1.00000
     18      -3.6017      1.00000
     19      -3.0860      1.00000
     20      -2.9402      1.00000
     21      -2.7714      1.00000
     22      -2.5565      1.00000
     23      -2.4652      1.00000
     24      -2.4025      1.00000
     25      -1.7414      1.00000
     26      -1.6555      1.00000
     27      -1.1845      1.00000
     28      -1.0877      1.00000
     29      -0.6360      1.00000
     30      -0.5420      1.00000
     31      -0.4273      1.00000
     32      -0.3394      1.00000
     33       0.1489      1.00000
     34       0.2500      1.00000
     35       0.6626      1.00000
     36       0.7205      1.00000
     37       0.7744      1.00000
     38       0.7905      1.00000
     39       0.9459      1.00000
     40       1.0290      1.00000
     41       1.1817      1.00000
     42       1.3453      1.00000
     43       2.5309      0.00000
     44       2.5433      0.00000
     45       3.4207      0.00000
     46       3.5023      0.00000
     47       4.0188      0.00000
     48       4.1011      0.00000
     49       4.4972      0.00000
     50       4.6320      0.00000
     51       5.6041      0.00000
     52       5.7393      0.00000
     53       6.2210      0.00000
     54       6.3200      0.00000
     55       6.6308      0.00000

 k-point    59 :       0.0000    0.1667    0.4000
  band No.  band energies     occupation 
      1     -13.9459      1.00000
      2     -13.8468      1.00000
      3     -12.8832      1.00000
      4     -12.8291      1.00000
      5     -11.1764      1.00000
      6     -11.1507      1.00000
      7     -10.6575      1.00000
      8     -10.5722      1.00000
      9     -10.1551      1.00000
     10     -10.1268      1.00000
     11      -7.2576      1.00000
     12      -7.2340      1.00000
     13      -5.3878      1.00000
     14      -5.3172      1.00000
     15      -4.7131      1.00000
     16      -4.5012      1.00000
     17      -3.6130      1.00000
     18      -3.5392      1.00000
     19      -3.1197      1.00000
     20      -2.9561      1.00000
     21      -2.7636      1.00000
     22      -2.4663      1.00000
     23      -2.4267      1.00000
     24      -2.3984      1.00000
     25      -1.7845      1.00000
     26      -1.6413      1.00000
     27      -1.1367      1.00000
     28      -1.0190      1.00000
     29      -0.6597      1.00000
     30      -0.6544      1.00000
     31      -0.4752      1.00000
     32      -0.3639      1.00000
     33       0.1812      1.00000
     34       0.3674      1.00000
     35       0.5472      1.00000
     36       0.5768      1.00000
     37       0.7831      1.00000
     38       0.8781      1.00000
     39       0.9878      1.00000
     40       0.9981      1.00000
     41       1.1207      1.00000
     42       1.3397      1.00000
     43       2.5384      0.00000
     44       2.5429      0.00000
     45       3.3155      0.00000
     46       3.5602      0.00000
     47       4.0510      0.00000
     48       4.0512      0.00000
     49       4.5496      0.00000
     50       4.6257      0.00000
     51       5.5488      0.00000
     52       5.6489      0.00000
     53       6.1548      0.00000
     54       6.3126      0.00000
     55       6.7977      0.00000

 k-point    60 :      -0.1667    0.0000    0.4000
  band No.  band energies     occupation 
      1     -13.9420      1.00000
      2     -13.8438      1.00000
      3     -12.8873      1.00000
      4     -12.8314      1.00000
      5     -11.1815      1.00000
      6     -11.1610      1.00000
      7     -10.6700      1.00000
      8     -10.5920      1.00000
      9     -10.1413      1.00000
     10     -10.1047      1.00000
     11      -7.2235      1.00000
     12      -7.1872      1.00000
     13      -5.3926      1.00000
     14      -5.3152      1.00000
     15      -4.7142      1.00000
     16      -4.5090      1.00000
     17      -3.6663      1.00000
     18      -3.6017      1.00000
     19      -3.0860      1.00000
     20      -2.9402      1.00000
     21      -2.7714      1.00000
     22      -2.5565      1.00000
     23      -2.4652      1.00000
     24      -2.4025      1.00000
     25      -1.7414      1.00000
     26      -1.6555      1.00000
     27      -1.1845      1.00000
     28      -1.0877      1.00000
     29      -0.6360      1.00000
     30      -0.5420      1.00000
     31      -0.4273      1.00000
     32      -0.3394      1.00000
     33       0.1489      1.00000
     34       0.2500      1.00000
     35       0.6626      1.00000
     36       0.7205      1.00000
     37       0.7744      1.00000
     38       0.7905      1.00000
     39       0.9459      1.00000
     40       1.0290      1.00000
     41       1.1817      1.00000
     42       1.3453      1.00000
     43       2.5309      0.00000
     44       2.5433      0.00000
     45       3.4207      0.00000
     46       3.5023      0.00000
     47       4.0188      0.00000
     48       4.1011      0.00000
     49       4.4972      0.00000
     50       4.6320      0.00000
     51       5.6041      0.00000
     52       5.7393      0.00000
     53       6.2210      0.00000
     54       6.3200      0.00000
     55       6.6307      0.00000

 k-point    61 :       0.0000   -0.1667    0.4000
  band No.  band energies     occupation 
      1     -13.9455      1.00000
      2     -13.8473      1.00000
      3     -12.8838      1.00000
      4     -12.8285      1.00000
      5     -11.1747      1.00000
      6     -11.1526      1.00000
      7     -10.6600      1.00000
      8     -10.5690      1.00000
      9     -10.1519      1.00000
     10     -10.1302      1.00000
     11      -7.2745      1.00000
     12      -7.2198      1.00000
     13      -5.3697      1.00000
     14      -5.3278      1.00000
     15      -4.7090      1.00000
     16      -4.5029      1.00000
     17      -3.5913      1.00000
     18      -3.5594      1.00000
     19      -3.1348      1.00000
     20      -3.0145      1.00000
     21      -2.6880      1.00000
     22      -2.5560      1.00000
     23      -2.4145      1.00000
     24      -2.3497      1.00000
     25      -1.7274      1.00000
     26      -1.6539      1.00000
     27      -1.0774      1.00000
     28      -1.0488      1.00000
     29      -0.7710      1.00000
     30      -0.5990      1.00000
     31      -0.4303      1.00000
     32      -0.4285      1.00000
     33       0.2431      1.00000
     34       0.2914      1.00000
     35       0.4914      1.00000
     36       0.6486      1.00000
     37       0.7873      1.00000
     38       0.8761      1.00000
     39       0.9660      1.00000
     40       1.0330      1.00000
     41       1.1864      1.00000
     42       1.2679      1.00000
     43       2.5462      0.00000
     44       2.5605      0.00000
     45       3.4200      0.00000
     46       3.4569      0.00000
     47       4.0162      0.00000
     48       4.1155      0.00000
     49       4.4620      0.00000
     50       4.6302      0.00000
     51       5.5030      0.00000
     52       5.7201      0.00000
     53       6.2084      0.00000
     54       6.2748      0.00000
     55       6.6641      0.00000

 k-point    62 :       0.3333    0.0000    0.4000
  band No.  band energies     occupation 
      1     -13.9244      1.00000
      2     -13.8286      1.00000
      3     -12.9072      1.00000
      4     -12.8455      1.00000
      5     -11.2133      1.00000
      6     -11.1980      1.00000
      7     -10.6626      1.00000
      8     -10.6007      1.00000
      9     -10.1320      1.00000
     10     -10.0752      1.00000
     11      -7.1948      1.00000
     12      -7.1668      1.00000
     13      -5.3153      1.00000
     14      -5.1925      1.00000
     15      -4.7059      1.00000
     16      -4.5237      1.00000
     17      -3.7002      1.00000
     18      -3.6481      1.00000
     19      -3.1065      1.00000
     20      -2.9902      1.00000
     21      -2.7569      1.00000
     22      -2.6491      1.00000
     23      -2.4274      1.00000
     24      -2.2548      1.00000
     25      -1.8390      1.00000
     26      -1.7130      1.00000
     27      -1.1724      1.00000
     28      -1.0721      1.00000
     29      -0.6444      1.00000
     30      -0.5854      1.00000
     31      -0.4387      1.00000
     32      -0.4081      1.00000
     33       0.1505      1.00000
     34       0.1877      1.00000
     35       0.6300      1.00000
     36       0.7023      1.00000
     37       0.7426      1.00000
     38       0.7968      1.00000
     39       0.9290      1.00000
     40       0.9890      1.00000
     41       1.1887      1.00000
     42       1.3239      1.00000
     43       2.3730      0.00000
     44       2.3994      0.00000
     45       3.4954      0.00000
     46       3.5595      0.00000
     47       4.1900      0.00000
     48       4.3143      0.00000
     49       4.6345      0.00000
     50       4.7089      0.00000
     51       5.6580      0.00000
     52       5.8079      0.00000
     53       6.2555      0.00000
     54       6.2982      0.00000
     55       6.6148      0.00000

 k-point    63 :       0.0000    0.3333    0.4000
  band No.  band energies     occupation 
      1     -13.9363      1.00000
      2     -13.8383      1.00000
      3     -12.8949      1.00000
      4     -12.8376      1.00000
      5     -11.1971      1.00000
      6     -11.1685      1.00000
      7     -10.6289      1.00000
      8     -10.5459      1.00000
      9     -10.1668      1.00000
     10     -10.1362      1.00000
     11      -7.3199      1.00000
     12      -7.2938      1.00000
     13      -5.2657      1.00000
     14      -5.1929      1.00000
     15      -4.7066      1.00000
     16      -4.5004      1.00000
     17      -3.6023      1.00000
     18      -3.6014      1.00000
     19      -3.0661      1.00000
     20      -2.9677      1.00000
     21      -2.7085      1.00000
     22      -2.4078      1.00000
     23      -2.3185      1.00000
     24      -2.3161      1.00000
     25      -1.7947      1.00000
     26      -1.6795      1.00000
     27      -1.1602      1.00000
     28      -0.9388      1.00000
     29      -0.8042      1.00000
     30      -0.7175      1.00000
     31      -0.4707      1.00000
     32      -0.3370      1.00000
     33       0.0269      1.00000
     34       0.2145      1.00000
     35       0.4490      1.00000
     36       0.4527      1.00000
     37       0.7985      1.00000
     38       0.8236      1.00000
     39       0.9464      1.00000
     40       0.9967      1.00000
     41       1.0781      1.00000
     42       1.2808      1.00000
     43       2.4701      0.00000
     44       2.4721      0.00000
     45       3.2919      0.00000
     46       3.5482      0.00000
     47       4.1909      0.00000
     48       4.3429      0.00000
     49       4.6597      0.00000
     50       4.7688      0.00000
     51       5.5519      0.00000
     52       5.6869      0.00000
     53       5.9617      0.00000
     54       6.1199      0.00000
     55       6.8238      0.00000

 k-point    64 :      -0.3333    0.0000    0.4000
  band No.  band energies     occupation 
      1     -13.9244      1.00000
      2     -13.8286      1.00000
      3     -12.9072      1.00000
      4     -12.8455      1.00000
      5     -11.2133      1.00000
      6     -11.1980      1.00000
      7     -10.6626      1.00000
      8     -10.6007      1.00000
      9     -10.1320      1.00000
     10     -10.0752      1.00000
     11      -7.1948      1.00000
     12      -7.1668      1.00000
     13      -5.3153      1.00000
     14      -5.1925      1.00000
     15      -4.7059      1.00000
     16      -4.5237      1.00000
     17      -3.7002      1.00000
     18      -3.6481      1.00000
     19      -3.1065      1.00000
     20      -2.9902      1.00000
     21      -2.7569      1.00000
     22      -2.6491      1.00000
     23      -2.4274      1.00000
     24      -2.2548      1.00000
     25      -1.8390      1.00000
     26      -1.7130      1.00000
     27      -1.1724      1.00000
     28      -1.0721      1.00000
     29      -0.6444      1.00000
     30      -0.5854      1.00000
     31      -0.4387      1.00000
     32      -0.4081      1.00000
     33       0.1505      1.00000
     34       0.1877      1.00000
     35       0.6300      1.00000
     36       0.7023      1.00000
     37       0.7426      1.00000
     38       0.7968      1.00000
     39       0.9290      1.00000
     40       0.9890      1.00000
     41       1.1887      1.00000
     42       1.3239      1.00000
     43       2.3730      0.00000
     44       2.3994      0.00000
     45       3.4954      0.00000
     46       3.5595      0.00000
     47       4.1900      0.00000
     48       4.3143      0.00000
     49       4.6345      0.00000
     50       4.7089      0.00000
     51       5.6580      0.00000
     52       5.8079      0.00000
     53       6.2556      0.00000
     54       6.2982      0.00000
     55       6.6145      0.00000

 k-point    65 :       0.0000   -0.3333    0.4000
  band No.  band energies     occupation 
      1     -13.9358      1.00000
      2     -13.8388      1.00000
      3     -12.8955      1.00000
      4     -12.8370      1.00000
      5     -11.1954      1.00000
      6     -11.1703      1.00000
      7     -10.6316      1.00000
      8     -10.5425      1.00000
      9     -10.1633      1.00000
     10     -10.1399      1.00000
     11      -7.3353      1.00000
     12      -7.2808      1.00000
     13      -5.2572      1.00000
     14      -5.1964      1.00000
     15      -4.6890      1.00000
     16      -4.5100      1.00000
     17      -3.6266      1.00000
     18      -3.5859      1.00000
     19      -3.0782      1.00000
     20      -3.0195      1.00000
     21      -2.6097      1.00000
     22      -2.5373      1.00000
     23      -2.3377      1.00000
     24      -2.1880      1.00000
     25      -1.7645      1.00000
     26      -1.7183      1.00000
     27      -1.0688      1.00000
     28      -1.0095      1.00000
     29      -0.8066      1.00000
     30      -0.7038      1.00000
     31      -0.4906      1.00000
     32      -0.4056      1.00000
     33       0.1330      1.00000
     34       0.1460      1.00000
     35       0.4099      1.00000
     36       0.4705      1.00000
     37       0.7985      1.00000
     38       0.8408      1.00000
     39       0.9229      1.00000
     40       1.0451      1.00000
     41       1.1315      1.00000
     42       1.2106      1.00000
     43       2.4761      0.00000
     44       2.4863      0.00000
     45       3.3565      0.00000
     46       3.4946      0.00000
     47       4.2340      0.00000
     48       4.2988      0.00000
     49       4.6082      0.00000
     50       4.7562      0.00000
     51       5.5283      0.00000
     52       5.7271      0.00000
     53       6.0316      0.00000
     54       6.0846      0.00000
     55       6.6848      0.00000

 k-point    66 :       0.5000    0.0000    0.4000
  band No.  band energies     occupation 
      1     -13.9153      1.00000
      2     -13.8207      1.00000
      3     -12.9175      1.00000
      4     -12.8530      1.00000
      5     -11.2276      1.00000
      6     -11.2169      1.00000
      7     -10.6581      1.00000
      8     -10.6016      1.00000
      9     -10.1299      1.00000
     10     -10.0645      1.00000
     11      -7.1734      1.00000
     12      -7.1554      1.00000
     13      -5.2912      1.00000
     14      -5.1473      1.00000
     15      -4.6925      1.00000
     16      -4.5264      1.00000
     17      -3.6795      1.00000
     18      -3.6044      1.00000
     19      -3.1393      1.00000
     20      -3.0347      1.00000
     21      -2.8355      1.00000
     22      -2.7978      1.00000
     23      -2.2316      1.00000
     24      -2.0803      1.00000
     25      -1.9740      1.00000
     26      -1.8336      1.00000
     27      -1.0795      1.00000
     28      -1.0274      1.00000
     29      -0.7562      1.00000
     30      -0.7030      1.00000
     31      -0.4452      1.00000
     32      -0.3790      1.00000
     33       0.1443      1.00000
     34       0.2116      1.00000
     35       0.6554      1.00000
     36       0.6954      1.00000
     37       0.7886      1.00000
     38       0.7959      1.00000
     39       0.9147      1.00000
     40       0.9550      1.00000
     41       1.1830      1.00000
     42       1.2794      1.00000
     43       2.2780      0.00000
     44       2.3141      0.00000
     45       3.5299      0.00000
     46       3.5952      0.00000
     47       4.2635      0.00000
     48       4.3982      0.00000
     49       4.7092      0.00000
     50       4.8064      0.00000
     51       5.5834      0.00000
     52       5.7267      0.00000
     53       6.3889      0.00000
     54       6.4492      0.00000
     55       6.6716      0.00000

 k-point    67 :       0.0000    0.5000    0.4000
  band No.  band energies     occupation 
      1     -13.9312      1.00000
      2     -13.8342      1.00000
      3     -12.9012      1.00000
      4     -12.8416      1.00000
      5     -11.2062      1.00000
      6     -11.1779      1.00000
      7     -10.6156      1.00000
      8     -10.5304      1.00000
      9     -10.1717      1.00000
     10     -10.1438      1.00000
     11      -7.3561      1.00000
     12      -7.3154      1.00000
     13      -5.2087      1.00000
     14      -5.1314      1.00000
     15      -4.6834      1.00000
     16      -4.5056      1.00000
     17      -3.6463      1.00000
     18      -3.5891      1.00000
     19      -3.0402      1.00000
     20      -2.9941      1.00000
     21      -2.6447      1.00000
     22      -2.4822      1.00000
     23      -2.2565      1.00000
     24      -2.1655      1.00000
     25      -1.7913      1.00000
     26      -1.7642      1.00000
     27      -1.0925      1.00000
     28      -0.9566      1.00000
     29      -0.7400      1.00000
     30      -0.7361      1.00000
     31      -0.5192      1.00000
     32      -0.4920      1.00000
     33       0.0427      1.00000
     34       0.0997      1.00000
     35       0.4004      1.00000
     36       0.4177      1.00000
     37       0.7897      1.00000
     38       0.8005      1.00000
     39       0.9115      1.00000
     40       1.0209      1.00000
     41       1.0818      1.00000
     42       1.2188      1.00000
     43       2.4381      0.00000
     44       2.4492      0.00000
     45       3.3112      0.00000
     46       3.5345      0.00000
     47       4.2705      0.00000
     48       4.3888      0.00000
     49       4.8115      0.00000
     50       4.8240      0.00000
     51       5.5187      0.00000
     52       5.6620      0.00000
     53       5.9580      0.00000
     54       6.0494      0.00000
     55       6.7584      0.00000

 k-point    68 :       0.1667    0.1667    0.4000
  band No.  band energies     occupation 
      1     -13.9381      1.00000
      2     -13.8400      1.00000
      3     -12.8905      1.00000
      4     -12.8335      1.00000
      5     -11.1926      1.00000
      6     -11.1704      1.00000
      7     -10.6639      1.00000
      8     -10.5833      1.00000
      9     -10.1445      1.00000
     10     -10.1073      1.00000
     11      -7.2689      1.00000
     12      -7.1711      1.00000
     13      -5.3979      1.00000
     14      -5.2342      1.00000
     15      -4.7101      1.00000
     16      -4.5080      1.00000
     17      -3.6923      1.00000
     18      -3.5738      1.00000
     19      -3.0997      1.00000
     20      -2.9087      1.00000
     21      -2.7091      1.00000
     22      -2.5251      1.00000
     23      -2.4704      1.00000
     24      -2.3902      1.00000
     25      -1.8104      1.00000
     26      -1.5677      1.00000
     27      -1.2134      1.00000
     28      -1.0205      1.00000
     29      -0.7646      1.00000
     30      -0.6027      1.00000
     31      -0.3796      1.00000
     32      -0.2936      1.00000
     33       0.0953      1.00000
     34       0.2575      1.00000
     35       0.5223      1.00000
     36       0.6035      1.00000
     37       0.7486      1.00000
     38       0.8157      1.00000
     39       0.9505      1.00000
     40       1.0443      1.00000
     41       1.1466      1.00000
     42       1.3440      1.00000
     43       2.4683      0.00000
     44       2.5121      0.00000
     45       3.3941      0.00000
     46       3.5436      0.00000
     47       3.9932      0.00000
     48       4.2055      0.00000
     49       4.5733      0.00000
     50       4.7218      0.00000
     51       5.6606      0.00000
     52       5.7499      0.00000
     53       5.8982      0.00000
     54       6.5316      0.00000
     55       6.6779      0.00000

 k-point    69 :      -0.1667    0.1667    0.4000
  band No.  band energies     occupation 
      1     -13.9381      1.00000
      2     -13.8400      1.00000
      3     -12.8905      1.00000
      4     -12.8335      1.00000
      5     -11.1926      1.00000
      6     -11.1704      1.00000
      7     -10.6639      1.00000
      8     -10.5833      1.00000
      9     -10.1445      1.00000
     10     -10.1073      1.00000
     11      -7.2689      1.00000
     12      -7.1711      1.00000
     13      -5.3979      1.00000
     14      -5.2342      1.00000
     15      -4.7101      1.00000
     16      -4.5080      1.00000
     17      -3.6923      1.00000
     18      -3.5738      1.00000
     19      -3.0997      1.00000
     20      -2.9087      1.00000
     21      -2.7091      1.00000
     22      -2.5251      1.00000
     23      -2.4704      1.00000
     24      -2.3902      1.00000
     25      -1.8104      1.00000
     26      -1.5677      1.00000
     27      -1.2134      1.00000
     28      -1.0205      1.00000
     29      -0.7646      1.00000
     30      -0.6027      1.00000
     31      -0.3796      1.00000
     32      -0.2936      1.00000
     33       0.0953      1.00000
     34       0.2575      1.00000
     35       0.5223      1.00000
     36       0.6035      1.00000
     37       0.7486      1.00000
     38       0.8157      1.00000
     39       0.9505      1.00000
     40       1.0443      1.00000
     41       1.1466      1.00000
     42       1.3440      1.00000
     43       2.4683      0.00000
     44       2.5121      0.00000
     45       3.3941      0.00000
     46       3.5436      0.00000
     47       3.9932      0.00000
     48       4.2055      0.00000
     49       4.5733      0.00000
     50       4.7218      0.00000
     51       5.6606      0.00000
     52       5.7499      0.00000
     53       5.8982      0.00000
     54       6.5315      0.00000
     55       6.6793      0.00000

 k-point    70 :      -0.1667   -0.1667    0.4000
  band No.  band energies     occupation 
      1     -13.9377      1.00000
      2     -13.8405      1.00000
      3     -12.8910      1.00000
      4     -12.8329      1.00000
      5     -11.1943      1.00000
      6     -11.1689      1.00000
      7     -10.6656      1.00000
      8     -10.5811      1.00000
      9     -10.1449      1.00000
     10     -10.1069      1.00000
     11      -7.2754      1.00000
     12      -7.1662      1.00000
     13      -5.3904      1.00000
     14      -5.2365      1.00000
     15      -4.7206      1.00000
     16      -4.4987      1.00000
     17      -3.6883      1.00000
     18      -3.5686      1.00000
     19      -3.0545      1.00000
     20      -2.9973      1.00000
     21      -2.7287      1.00000
     22      -2.5850      1.00000
     23      -2.4135      1.00000
     24      -2.3359      1.00000
     25      -1.7720      1.00000
     26      -1.5744      1.00000
     27      -1.2111      1.00000
     28      -1.0435      1.00000
     29      -0.7807      1.00000
     30      -0.5561      1.00000
     31      -0.3814      1.00000
     32      -0.3519      1.00000
     33       0.1022      1.00000
     34       0.2536      1.00000
     35       0.4869      1.00000
     36       0.6369      1.00000
     37       0.7309      1.00000
     38       0.8237      1.00000
     39       0.9533      1.00000
     40       1.0482      1.00000
     41       1.1923      1.00000
     42       1.3096      1.00000
     43       2.4726      0.00000
     44       2.5333      0.00000
     45       3.4417      0.00000
     46       3.5172      0.00000
     47       3.9327      0.00000
     48       4.2848      0.00000
     49       4.4840      0.00000
     50       4.7316      0.00000
     51       5.6145      0.00000
     52       5.8155      0.00000
     53       5.9403      0.00000
     54       6.4524      0.00000
     55       6.6763      0.00000

 k-point    71 :       0.1667   -0.1667    0.4000
  band No.  band energies     occupation 
      1     -13.9377      1.00000
      2     -13.8405      1.00000
      3     -12.8910      1.00000
      4     -12.8329      1.00000
      5     -11.1943      1.00000
      6     -11.1689      1.00000
      7     -10.6656      1.00000
      8     -10.5811      1.00000
      9     -10.1449      1.00000
     10     -10.1069      1.00000
     11      -7.2754      1.00000
     12      -7.1662      1.00000
     13      -5.3904      1.00000
     14      -5.2365      1.00000
     15      -4.7206      1.00000
     16      -4.4987      1.00000
     17      -3.6883      1.00000
     18      -3.5686      1.00000
     19      -3.0545      1.00000
     20      -2.9973      1.00000
     21      -2.7287      1.00000
     22      -2.5850      1.00000
     23      -2.4135      1.00000
     24      -2.3359      1.00000
     25      -1.7720      1.00000
     26      -1.5744      1.00000
     27      -1.2111      1.00000
     28      -1.0435      1.00000
     29      -0.7807      1.00000
     30      -0.5561      1.00000
     31      -0.3814      1.00000
     32      -0.3519      1.00000
     33       0.1022      1.00000
     34       0.2536      1.00000
     35       0.4869      1.00000
     36       0.6369      1.00000
     37       0.7309      1.00000
     38       0.8237      1.00000
     39       0.9533      1.00000
     40       1.0482      1.00000
     41       1.1923      1.00000
     42       1.3096      1.00000
     43       2.4726      0.00000
     44       2.5333      0.00000
     45       3.4417      0.00000
     46       3.5172      0.00000
     47       3.9327      0.00000
     48       4.2848      0.00000
     49       4.4840      0.00000
     50       4.7316      0.00000
     51       5.6145      0.00000
     52       5.8155      0.00000
     53       5.9403      0.00000
     54       6.4524      0.00000
     55       6.6984      0.00000

 k-point    72 :       0.3333    0.1667    0.4000
  band No.  band energies     occupation 
      1     -13.9220      1.00000
      2     -13.8262      1.00000
      3     -12.9053      1.00000
      4     -12.8434      1.00000
      5     -11.2234      1.00000
      6     -11.2075      1.00000
      7     -10.6754      1.00000
      8     -10.6020      1.00000
      9     -10.1270      1.00000
     10     -10.0745      1.00000
     11      -7.2123      1.00000
     12      -7.1180      1.00000
     13      -5.3539      1.00000
     14      -5.1679      1.00000
     15      -4.6868      1.00000
     16      -4.5219      1.00000
     17      -3.7309      1.00000
     18      -3.6287      1.00000
     19      -3.1054      1.00000
     20      -2.9228      1.00000
     21      -2.7292      1.00000
     22      -2.6358      1.00000
     23      -2.4303      1.00000
     24      -2.2498      1.00000
     25      -1.8364      1.00000
     26      -1.7002      1.00000
     27      -1.1875      1.00000
     28      -1.0512      1.00000
     29      -0.6794      1.00000
     30      -0.6037      1.00000
     31      -0.4592      1.00000
     32      -0.3135      1.00000
     33       0.0870      1.00000
     34       0.1637      1.00000
     35       0.5453      1.00000
     36       0.6478      1.00000
     37       0.6859      1.00000
     38       0.7624      1.00000
     39       0.9130      1.00000
     40       1.0247      1.00000
     41       1.1950      1.00000
     42       1.3057      1.00000
     43       2.3296      0.00000
     44       2.4067      0.00000
     45       3.5002      0.00000
     46       3.5288      0.00000
     47       4.0877      0.00000
     48       4.3277      0.00000
     49       4.6311      0.00000
     50       4.8424      0.00000
     51       5.6117      0.00000
     52       5.9009      0.00000
     53       6.1294      0.00000
     54       6.5705      0.00000
     55       6.6176      0.00000

 k-point    73 :      -0.1667    0.3333    0.4000
  band No.  band energies     occupation 
      1     -13.9299      1.00000
      2     -13.8328      1.00000
      3     -12.8971      1.00000
      4     -12.8378      1.00000
      5     -11.2153      1.00000
      6     -11.1877      1.00000
      7     -10.6496      1.00000
      8     -10.5674      1.00000
      9     -10.1516      1.00000
     10     -10.1133      1.00000
     11      -7.2987      1.00000
     12      -7.2032      1.00000
     13      -5.3196      1.00000
     14      -5.1558      1.00000
     15      -4.7046      1.00000
     16      -4.5079      1.00000
     17      -3.6832      1.00000
     18      -3.5610      1.00000
     19      -3.0702      1.00000
     20      -2.9502      1.00000
     21      -2.6735      1.00000
     22      -2.5031      1.00000
     23      -2.3488      1.00000
     24      -2.2800      1.00000
     25      -1.8425      1.00000
     26      -1.5726      1.00000
     27      -1.1942      1.00000
     28      -0.9740      1.00000
     29      -0.7992      1.00000
     30      -0.7154      1.00000
     31      -0.4349      1.00000
     32      -0.3358      1.00000
     33       0.0181      1.00000
     34       0.2473      1.00000
     35       0.3576      1.00000
     36       0.4586      1.00000
     37       0.7114      1.00000
     38       0.7899      1.00000
     39       0.9544      1.00000
     40       1.0268      1.00000
     41       1.1113      1.00000
     42       1.2892      1.00000
     43       2.3919      0.00000
     44       2.4522      0.00000
     45       3.3640      0.00000
     46       3.5569      0.00000
     47       4.1484      0.00000
     48       4.3142      0.00000
     49       4.6175      0.00000
     50       4.8634      0.00000
     51       5.6203      0.00000
     52       5.8106      0.00000
     53       5.8937      0.00000
     54       6.3918      0.00000
     55       6.7503      0.00000

 k-point    74 :      -0.3333   -0.1667    0.4000
  band No.  band energies     occupation 
      1     -13.9217      1.00000
      2     -13.8265      1.00000
      3     -12.9058      1.00000
      4     -12.8428      1.00000
      5     -11.2286      1.00000
      6     -11.2026      1.00000
      7     -10.6749      1.00000
      8     -10.6019      1.00000
      9     -10.1332      1.00000
     10     -10.0685      1.00000
     11      -7.2160      1.00000
     12      -7.1137      1.00000
     13      -5.3453      1.00000
     14      -5.1809      1.00000
     15      -4.7219      1.00000
     16      -4.4909      1.00000
     17      -3.7013      1.00000
     18      -3.6290      1.00000
     19      -3.0513      1.00000
     20      -2.9740      1.00000
     21      -2.8337      1.00000
     22      -2.6181      1.00000
     23      -2.3956      1.00000
     24      -2.1931      1.00000
     25      -1.8629      1.00000
     26      -1.6737      1.00000
     27      -1.1607      1.00000
     28      -1.0913      1.00000
     29      -0.7243      1.00000
     30      -0.5815      1.00000
     31      -0.4508      1.00000
     32      -0.3132      1.00000
     33       0.0659      1.00000
     34       0.1782      1.00000
     35       0.4976      1.00000
     36       0.6490      1.00000
     37       0.7071      1.00000
     38       0.7570      1.00000
     39       0.9538      1.00000
     40       0.9913      1.00000
     41       1.1935      1.00000
     42       1.3174      1.00000
     43       2.3392      0.00000
     44       2.4240      0.00000
     45       3.4729      0.00000
     46       3.5778      0.00000
     47       4.0375      0.00000
     48       4.3875      0.00000
     49       4.5828      0.00000
     50       4.8410      0.00000
     51       5.6575      0.00000
     52       5.8909      0.00000
     53       6.1602      0.00000
     54       6.5127      0.00000
     55       6.6735      0.00000

 k-point    75 :       0.1667   -0.3333    0.4000
  band No.  band energies     occupation 
      1     -13.9295      1.00000
      2     -13.8333      1.00000
      3     -12.8977      1.00000
      4     -12.8371      1.00000
      5     -11.2168      1.00000
      6     -11.1864      1.00000
      7     -10.6513      1.00000
      8     -10.5652      1.00000
      9     -10.1520      1.00000
     10     -10.1130      1.00000
     11      -7.3045      1.00000
     12      -7.1989      1.00000
     13      -5.3089      1.00000
     14      -5.1618      1.00000
     15      -4.7176      1.00000
     16      -4.4929      1.00000
     17      -3.6874      1.00000
     18      -3.5497      1.00000
     19      -3.0566      1.00000
     20      -2.9937      1.00000
     21      -2.7029      1.00000
     22      -2.5522      1.00000
     23      -2.3191      1.00000
     24      -2.1978      1.00000
     25      -1.8056      1.00000
     26      -1.5995      1.00000
     27      -1.1778      1.00000
     28      -1.0067      1.00000
     29      -0.8031      1.00000
     30      -0.6817      1.00000
     31      -0.5026      1.00000
     32      -0.3422      1.00000
     33       0.0628      1.00000
     34       0.2076      1.00000
     35       0.3786      1.00000
     36       0.4704      1.00000
     37       0.6745      1.00000
     38       0.7817      1.00000
     39       0.9424      1.00000
     40       1.0883      1.00000
     41       1.1382      1.00000
     42       1.2421      1.00000
     43       2.4094      0.00000
     44       2.4637      0.00000
     45       3.4014      0.00000
     46       3.5357      0.00000
     47       4.0835      0.00000
     48       4.3806      0.00000
     49       4.5616      0.00000
     50       4.8647      0.00000
     51       5.6472      0.00000
     52       5.7529      0.00000
     53       5.9719      0.00000
     54       6.3485      0.00000
     55       6.6983      0.00000

 k-point    76 :      -0.3333    0.1667   -0.4000
  band No.  band energies     occupation 
      1     -13.9217      1.00000
      2     -13.8265      1.00000
      3     -12.9058      1.00000
      4     -12.8428      1.00000
      5     -11.2286      1.00000
      6     -11.2026      1.00000
      7     -10.6749      1.00000
      8     -10.6019      1.00000
      9     -10.1332      1.00000
     10     -10.0685      1.00000
     11      -7.2160      1.00000
     12      -7.1137      1.00000
     13      -5.3453      1.00000
     14      -5.1809      1.00000
     15      -4.7219      1.00000
     16      -4.4909      1.00000
     17      -3.7013      1.00000
     18      -3.6290      1.00000
     19      -3.0513      1.00000
     20      -2.9740      1.00000
     21      -2.8337      1.00000
     22      -2.6181      1.00000
     23      -2.3956      1.00000
     24      -2.1931      1.00000
     25      -1.8629      1.00000
     26      -1.6737      1.00000
     27      -1.1607      1.00000
     28      -1.0913      1.00000
     29      -0.7243      1.00000
     30      -0.5815      1.00000
     31      -0.4508      1.00000
     32      -0.3132      1.00000
     33       0.0659      1.00000
     34       0.1782      1.00000
     35       0.4976      1.00000
     36       0.6490      1.00000
     37       0.7071      1.00000
     38       0.7570      1.00000
     39       0.9538      1.00000
     40       0.9913      1.00000
     41       1.1935      1.00000
     42       1.3174      1.00000
     43       2.3392      0.00000
     44       2.4240      0.00000
     45       3.4729      0.00000
     46       3.5778      0.00000
     47       4.0375      0.00000
     48       4.3875      0.00000
     49       4.5828      0.00000
     50       4.8410      0.00000
     51       5.6575      0.00000
     52       5.8909      0.00000
     53       6.1602      0.00000
     54       6.5127      0.00000
     55       6.6781      0.00000

 k-point    77 :       0.1667    0.3333   -0.4000
  band No.  band energies     occupation 
      1     -13.9295      1.00000
      2     -13.8333      1.00000
      3     -12.8977      1.00000
      4     -12.8371      1.00000
      5     -11.2168      1.00000
      6     -11.1864      1.00000
      7     -10.6513      1.00000
      8     -10.5652      1.00000
      9     -10.1520      1.00000
     10     -10.1130      1.00000
     11      -7.3045      1.00000
     12      -7.1989      1.00000
     13      -5.3089      1.00000
     14      -5.1618      1.00000
     15      -4.7176      1.00000
     16      -4.4929      1.00000
     17      -3.6874      1.00000
     18      -3.5497      1.00000
     19      -3.0566      1.00000
     20      -2.9937      1.00000
     21      -2.7029      1.00000
     22      -2.5522      1.00000
     23      -2.3191      1.00000
     24      -2.1978      1.00000
     25      -1.8056      1.00000
     26      -1.5995      1.00000
     27      -1.1778      1.00000
     28      -1.0067      1.00000
     29      -0.8031      1.00000
     30      -0.6817      1.00000
     31      -0.5026      1.00000
     32      -0.3422      1.00000
     33       0.0628      1.00000
     34       0.2076      1.00000
     35       0.3786      1.00000
     36       0.4704      1.00000
     37       0.6745      1.00000
     38       0.7817      1.00000
     39       0.9424      1.00000
     40       1.0883      1.00000
     41       1.1382      1.00000
     42       1.2421      1.00000
     43       2.4094      0.00000
     44       2.4637      0.00000
     45       3.4014      0.00000
     46       3.5357      0.00000
     47       4.0835      0.00000
     48       4.3806      0.00000
     49       4.5616      0.00000
     50       4.8647      0.00000
     51       5.6472      0.00000
     52       5.7529      0.00000
     53       5.9719      0.00000
     54       6.3486      0.00000
     55       6.7338      0.00000

 k-point    78 :       0.3333   -0.1667   -0.4000
  band No.  band energies     occupation 
      1     -13.9220      1.00000
      2     -13.8262      1.00000
      3     -12.9053      1.00000
      4     -12.8434      1.00000
      5     -11.2234      1.00000
      6     -11.2075      1.00000
      7     -10.6754      1.00000
      8     -10.6020      1.00000
      9     -10.1270      1.00000
     10     -10.0745      1.00000
     11      -7.2123      1.00000
     12      -7.1180      1.00000
     13      -5.3539      1.00000
     14      -5.1679      1.00000
     15      -4.6868      1.00000
     16      -4.5219      1.00000
     17      -3.7309      1.00000
     18      -3.6287      1.00000
     19      -3.1054      1.00000
     20      -2.9228      1.00000
     21      -2.7292      1.00000
     22      -2.6358      1.00000
     23      -2.4303      1.00000
     24      -2.2498      1.00000
     25      -1.8364      1.00000
     26      -1.7002      1.00000
     27      -1.1875      1.00000
     28      -1.0512      1.00000
     29      -0.6794      1.00000
     30      -0.6037      1.00000
     31      -0.4592      1.00000
     32      -0.3135      1.00000
     33       0.0870      1.00000
     34       0.1637      1.00000
     35       0.5453      1.00000
     36       0.6478      1.00000
     37       0.6859      1.00000
     38       0.7624      1.00000
     39       0.9130      1.00000
     40       1.0247      1.00000
     41       1.1950      1.00000
     42       1.3057      1.00000
     43       2.3296      0.00000
     44       2.4067      0.00000
     45       3.5002      0.00000
     46       3.5288      0.00000
     47       4.0877      0.00000
     48       4.3277      0.00000
     49       4.6311      0.00000
     50       4.8424      0.00000
     51       5.6117      0.00000
     52       5.9009      0.00000
     53       6.1294      0.00000
     54       6.5695      0.00000
     55       6.6187      0.00000

 k-point    79 :      -0.1667   -0.3333   -0.4000
  band No.  band energies     occupation 
      1     -13.9299      1.00000
      2     -13.8328      1.00000
      3     -12.8971      1.00000
      4     -12.8378      1.00000
      5     -11.2153      1.00000
      6     -11.1877      1.00000
      7     -10.6496      1.00000
      8     -10.5674      1.00000
      9     -10.1516      1.00000
     10     -10.1133      1.00000
     11      -7.2987      1.00000
     12      -7.2032      1.00000
     13      -5.3196      1.00000
     14      -5.1558      1.00000
     15      -4.7046      1.00000
     16      -4.5079      1.00000
     17      -3.6832      1.00000
     18      -3.5610      1.00000
     19      -3.0702      1.00000
     20      -2.9502      1.00000
     21      -2.6735      1.00000
     22      -2.5031      1.00000
     23      -2.3488      1.00000
     24      -2.2800      1.00000
     25      -1.8425      1.00000
     26      -1.5726      1.00000
     27      -1.1942      1.00000
     28      -0.9740      1.00000
     29      -0.7992      1.00000
     30      -0.7154      1.00000
     31      -0.4349      1.00000
     32      -0.3358      1.00000
     33       0.0181      1.00000
     34       0.2473      1.00000
     35       0.3576      1.00000
     36       0.4586      1.00000
     37       0.7114      1.00000
     38       0.7899      1.00000
     39       0.9544      1.00000
     40       1.0268      1.00000
     41       1.1113      1.00000
     42       1.2892      1.00000
     43       2.3919      0.00000
     44       2.4522      0.00000
     45       3.3640      0.00000
     46       3.5569      0.00000
     47       4.1484      0.00000
     48       4.3142      0.00000
     49       4.6175      0.00000
     50       4.8634      0.00000
     51       5.6203      0.00000
     52       5.8106      0.00000
     53       5.8937      0.00000
     54       6.3918      0.00000
     55       6.8045      0.00000

 k-point    80 :       0.5000    0.1667    0.4000
  band No.  band energies     occupation 
      1     -13.9137      1.00000
      2     -13.8191      1.00000
      3     -12.9129      1.00000
      4     -12.8489      1.00000
      5     -11.2371      1.00000
      6     -11.2258      1.00000
      7     -10.6778      1.00000
      8     -10.6135      1.00000
      9     -10.1190      1.00000
     10     -10.0611      1.00000
     11      -7.1427      1.00000
     12      -7.1290      1.00000
     13      -5.3228      1.00000
     14      -5.1660      1.00000
     15      -4.6626      1.00000
     16      -4.5302      1.00000
     17      -3.7174      1.00000
     18      -3.6247      1.00000
     19      -3.1160      1.00000
     20      -2.9374      1.00000
     21      -2.8577      1.00000
     22      -2.7141      1.00000
     23      -2.2032      1.00000
     24      -2.1436      1.00000
     25      -1.9994      1.00000
     26      -1.7764      1.00000
     27      -1.1545      1.00000
     28      -1.0475      1.00000
     29      -0.6786      1.00000
     30      -0.6314      1.00000
     31      -0.4694      1.00000
     32      -0.3775      1.00000
     33       0.0589      1.00000
     34       0.2180      1.00000
     35       0.6054      1.00000
     36       0.6676      1.00000
     37       0.6852      1.00000
     38       0.7558      1.00000
     39       0.8972      1.00000
     40       0.9687      1.00000
     41       1.2078      1.00000
     42       1.2634      1.00000
     43       2.2666      0.00000
     44       2.3231      0.00000
     45       3.5239      0.00000
     46       3.5592      0.00000
     47       4.2157      0.00000
     48       4.3083      0.00000
     49       4.6488      0.00000
     50       4.8404      0.00000
     51       5.7218      0.00000
     52       5.8388      0.00000
     53       6.4217      0.00000
     54       6.4954      0.00000
     55       6.6584      0.00000

 k-point    81 :      -0.1667    0.5000    0.4000
  band No.  band energies     occupation 
      1     -13.9255      1.00000
      2     -13.8294      1.00000
      3     -12.9006      1.00000
      4     -12.8399      1.00000
      5     -11.2268      1.00000
      6     -11.1956      1.00000
      7     -10.6419      1.00000
      8     -10.5597      1.00000
      9     -10.1555      1.00000
     10     -10.1168      1.00000
     11      -7.2884      1.00000
     12      -7.2455      1.00000
     13      -5.2406      1.00000
     14      -5.1539      1.00000
     15      -4.7043      1.00000
     16      -4.5070      1.00000
     17      -3.6522      1.00000
     18      -3.5705      1.00000
     19      -3.0548      1.00000
     20      -2.9861      1.00000
     21      -2.6843      1.00000
     22      -2.5380      1.00000
     23      -2.2301      1.00000
     24      -2.1234      1.00000
     25      -1.7973      1.00000
     26      -1.7403      1.00000
     27      -1.1235      1.00000
     28      -1.0309      1.00000
     29      -0.7161      1.00000
     30      -0.6837      1.00000
     31      -0.5668      1.00000
     32      -0.4772      1.00000
     33       0.0750      1.00000
     34       0.1734      1.00000
     35       0.3678      1.00000
     36       0.3858      1.00000
     37       0.6687      1.00000
     38       0.7471      1.00000
     39       0.9565      1.00000
     40       1.0330      1.00000
     41       1.1227      1.00000
     42       1.2280      1.00000
     43       2.3863      0.00000
     44       2.4104      0.00000
     45       3.3632      0.00000
     46       3.5489      0.00000
     47       4.2644      0.00000
     48       4.3608      0.00000
     49       4.7055      0.00000
     50       4.7633      0.00000
     51       5.6434      0.00000
     52       5.8075      0.00000
     53       6.1085      0.00000
     54       6.1862      0.00000
     55       6.7135      0.00000

 k-point    82 :       0.5000   -0.1667    0.4000
  band No.  band energies     occupation 
      1     -13.9134      1.00000
      2     -13.8194      1.00000
      3     -12.9134      1.00000
      4     -12.8483      1.00000
      5     -11.2432      1.00000
      6     -11.2202      1.00000
      7     -10.6758      1.00000
      8     -10.6144      1.00000
      9     -10.1281      1.00000
     10     -10.0524      1.00000
     11      -7.1505      1.00000
     12      -7.1194      1.00000
     13      -5.3032      1.00000
     14      -5.1998      1.00000
     15      -4.7046      1.00000
     16      -4.4869      1.00000
     17      -3.6851      1.00000
     18      -3.6150      1.00000
     19      -3.0684      1.00000
     20      -3.0338      1.00000
     21      -2.8719      1.00000
     22      -2.6855      1.00000
     23      -2.2634      1.00000
     24      -2.0848      1.00000
     25      -1.8944      1.00000
     26      -1.8706      1.00000
     27      -1.0763      1.00000
     28      -1.0501      1.00000
     29      -0.7940      1.00000
     30      -0.6783      1.00000
     31      -0.4247      1.00000
     32      -0.3430      1.00000
     33       0.0975      1.00000
     34       0.1895      1.00000
     35       0.5253      1.00000
     36       0.6486      1.00000
     37       0.7134      1.00000
     38       0.7793      1.00000
     39       0.9205      1.00000
     40       0.9594      1.00000
     41       1.1824      1.00000
     42       1.2882      1.00000
     43       2.2978      0.00000
     44       2.3224      0.00000
     45       3.5146      0.00000
     46       3.5722      0.00000
     47       4.1983      0.00000
     48       4.3345      0.00000
     49       4.7259      0.00000
     50       4.7396      0.00000
     51       5.7285      0.00000
     52       5.9282      0.00000
     53       6.3502      0.00000
     54       6.5370      0.00000
     55       6.7049      0.00000

 k-point    83 :       0.1667    0.5000    0.4000
  band No.  band energies     occupation 
      1     -13.9255      1.00000
      2     -13.8294      1.00000
      3     -12.9006      1.00000
      4     -12.8399      1.00000
      5     -11.2268      1.00000
      6     -11.1956      1.00000
      7     -10.6419      1.00000
      8     -10.5597      1.00000
      9     -10.1555      1.00000
     10     -10.1168      1.00000
     11      -7.2884      1.00000
     12      -7.2455      1.00000
     13      -5.2406      1.00000
     14      -5.1539      1.00000
     15      -4.7043      1.00000
     16      -4.5070      1.00000
     17      -3.6522      1.00000
     18      -3.5705      1.00000
     19      -3.0548      1.00000
     20      -2.9861      1.00000
     21      -2.6843      1.00000
     22      -2.5380      1.00000
     23      -2.2301      1.00000
     24      -2.1234      1.00000
     25      -1.7973      1.00000
     26      -1.7403      1.00000
     27      -1.1235      1.00000
     28      -1.0309      1.00000
     29      -0.7161      1.00000
     30      -0.6837      1.00000
     31      -0.5668      1.00000
     32      -0.4772      1.00000
     33       0.0749      1.00000
     34       0.1734      1.00000
     35       0.3678      1.00000
     36       0.3858      1.00000
     37       0.6687      1.00000
     38       0.7471      1.00000
     39       0.9565      1.00000
     40       1.0330      1.00000
     41       1.1227      1.00000
     42       1.2280      1.00000
     43       2.3863      0.00000
     44       2.4104      0.00000
     45       3.3632      0.00000
     46       3.5489      0.00000
     47       4.2644      0.00000
     48       4.3608      0.00000
     49       4.7055      0.00000
     50       4.7633      0.00000
     51       5.6434      0.00000
     52       5.8075      0.00000
     53       6.1085      0.00000
     54       6.1862      0.00000
     55       6.7174      0.00000

 k-point    84 :       0.3333    0.3333    0.4000
  band No.  band energies     occupation 
      1     -13.9168      1.00000
      2     -13.8218      1.00000
      3     -12.9017      1.00000
      4     -12.8390      1.00000
      5     -11.2481      1.00000
      6     -11.2222      1.00000
      7     -10.6927      1.00000
      8     -10.6120      1.00000
      9     -10.1228      1.00000
     10     -10.0683      1.00000
     11      -7.1850      1.00000
     12      -7.0858      1.00000
     13      -5.3660      1.00000
     14      -5.1844      1.00000
     15      -4.6769      1.00000
     16      -4.5069      1.00000
     17      -3.7245      1.00000
     18      -3.6226      1.00000
     19      -3.0236      1.00000
     20      -2.9291      1.00000
     21      -2.7362      1.00000
     22      -2.5444      1.00000
     23      -2.3763      1.00000
     24      -2.1550      1.00000
     25      -1.9034      1.00000
     26      -1.6078      1.00000
     27      -1.2551      1.00000
     28      -1.1063      1.00000
     29      -0.6639      1.00000
     30      -0.6098      1.00000
     31      -0.4322      1.00000
     32      -0.3590      1.00000
     33       0.0156      1.00000
     34       0.1111      1.00000
     35       0.3705      1.00000
     36       0.4850      1.00000
     37       0.6382      1.00000
     38       0.7066      1.00000
     39       0.9631      1.00000
     40       1.0331      1.00000
     41       1.1920      1.00000
     42       1.2767      1.00000
     43       2.3278      0.00000
     44       2.3920      0.00000
     45       3.4736      0.00000
     46       3.5238      0.00000
     47       3.9959      0.00000
     48       4.2757      0.00000
     49       4.6643      0.00000
     50       4.8333      0.00000
     51       5.7672      0.00000
     52       6.0399      0.00000
     53       6.2147      0.00000
     54       6.5888      0.00000
     55       6.6709      0.00000

 k-point    85 :      -0.3333    0.3333    0.4000
  band No.  band energies     occupation 
      1     -13.9168      1.00000
      2     -13.8218      1.00000
      3     -12.9017      1.00000
      4     -12.8390      1.00000
      5     -11.2481      1.00000
      6     -11.2222      1.00000
      7     -10.6927      1.00000
      8     -10.6120      1.00000
      9     -10.1228      1.00000
     10     -10.0683      1.00000
     11      -7.1850      1.00000
     12      -7.0858      1.00000
     13      -5.3660      1.00000
     14      -5.1844      1.00000
     15      -4.6769      1.00000
     16      -4.5069      1.00000
     17      -3.7245      1.00000
     18      -3.6226      1.00000
     19      -3.0236      1.00000
     20      -2.9291      1.00000
     21      -2.7362      1.00000
     22      -2.5444      1.00000
     23      -2.3763      1.00000
     24      -2.1550      1.00000
     25      -1.9034      1.00000
     26      -1.6078      1.00000
     27      -1.2551      1.00000
     28      -1.1063      1.00000
     29      -0.6639      1.00000
     30      -0.6098      1.00000
     31      -0.4322      1.00000
     32      -0.3590      1.00000
     33       0.0156      1.00000
     34       0.1111      1.00000
     35       0.3705      1.00000
     36       0.4850      1.00000
     37       0.6382      1.00000
     38       0.7066      1.00000
     39       0.9631      1.00000
     40       1.0331      1.00000
     41       1.1920      1.00000
     42       1.2767      1.00000
     43       2.3278      0.00000
     44       2.3920      0.00000
     45       3.4736      0.00000
     46       3.5238      0.00000
     47       3.9959      0.00000
     48       4.2757      0.00000
     49       4.6643      0.00000
     50       4.8333      0.00000
     51       5.7672      0.00000
     52       6.0399      0.00000
     53       6.2147      0.00000
     54       6.5887      0.00000
     55       6.6688      0.00000

 k-point    86 :      -0.3333   -0.3333    0.4000
  band No.  band energies     occupation 
      1     -13.9165      1.00000
      2     -13.8221      1.00000
      3     -12.9022      1.00000
      4     -12.8383      1.00000
      5     -11.2530      1.00000
      6     -11.2175      1.00000
      7     -10.6924      1.00000
      8     -10.6118      1.00000
      9     -10.1289      1.00000
     10     -10.0622      1.00000
     11      -7.1883      1.00000
     12      -7.0819      1.00000
     13      -5.3537      1.00000
     14      -5.2013      1.00000
     15      -4.7181      1.00000
     16      -4.4659      1.00000
     17      -3.7110      1.00000
     18      -3.6064      1.00000
     19      -3.0011      1.00000
     20      -2.9401      1.00000
     21      -2.8256      1.00000
     22      -2.5729      1.00000
     23      -2.3241      1.00000
     24      -2.0841      1.00000
     25      -1.9079      1.00000
     26      -1.6179      1.00000
     27      -1.2273      1.00000
     28      -1.1353      1.00000
     29      -0.7230      1.00000
     30      -0.5912      1.00000
     31      -0.4571      1.00000
     32      -0.3313      1.00000
     33       0.0068      1.00000
     34       0.1314      1.00000
     35       0.3662      1.00000
     36       0.5006      1.00000
     37       0.5993      1.00000
     38       0.6980      1.00000
     39       0.9581      1.00000
     40       1.0564      1.00000
     41       1.1786      1.00000
     42       1.2853      1.00000
     43       2.3348      0.00000
     44       2.4200      0.00000
     45       3.4570      0.00000
     46       3.5647      0.00000
     47       3.9325      0.00000
     48       4.3230      0.00000
     49       4.6460      0.00000
     50       4.8267      0.00000
     51       5.8399      0.00000
     52       5.9770      0.00000
     53       6.2447      0.00000
     54       6.5793      0.00000
     55       6.7191      0.00000

 k-point    87 :       0.3333   -0.3333    0.4000
  band No.  band energies     occupation 
      1     -13.9165      1.00000
      2     -13.8221      1.00000
      3     -12.9022      1.00000
      4     -12.8383      1.00000
      5     -11.2530      1.00000
      6     -11.2175      1.00000
      7     -10.6924      1.00000
      8     -10.6118      1.00000
      9     -10.1289      1.00000
     10     -10.0622      1.00000
     11      -7.1883      1.00000
     12      -7.0819      1.00000
     13      -5.3537      1.00000
     14      -5.2013      1.00000
     15      -4.7181      1.00000
     16      -4.4659      1.00000
     17      -3.7110      1.00000
     18      -3.6064      1.00000
     19      -3.0011      1.00000
     20      -2.9401      1.00000
     21      -2.8256      1.00000
     22      -2.5729      1.00000
     23      -2.3241      1.00000
     24      -2.0841      1.00000
     25      -1.9079      1.00000
     26      -1.6179      1.00000
     27      -1.2273      1.00000
     28      -1.1353      1.00000
     29      -0.7230      1.00000
     30      -0.5912      1.00000
     31      -0.4571      1.00000
     32      -0.3313      1.00000
     33       0.0068      1.00000
     34       0.1314      1.00000
     35       0.3662      1.00000
     36       0.5006      1.00000
     37       0.5993      1.00000
     38       0.6980      1.00000
     39       0.9581      1.00000
     40       1.0564      1.00000
     41       1.1786      1.00000
     42       1.2853      1.00000
     43       2.3348      0.00000
     44       2.4200      0.00000
     45       3.4570      0.00000
     46       3.5647      0.00000
     47       3.9325      0.00000
     48       4.3230      0.00000
     49       4.6460      0.00000
     50       4.8267      0.00000
     51       5.8399      0.00000
     52       5.9770      0.00000
     53       6.2447      0.00000
     54       6.5791      0.00000
     55       6.7195      0.00000

 k-point    88 :       0.5000    0.3333    0.4000
  band No.  band energies     occupation 
      1     -13.9101      1.00000
      2     -13.8161      1.00000
      3     -12.9040      1.00000
      4     -12.8400      1.00000
      5     -11.2622      1.00000
      6     -11.2383      1.00000
      7     -10.7129      1.00000
      8     -10.6372      1.00000
      9     -10.1083      1.00000
     10     -10.0468      1.00000
     11      -7.0868      1.00000
     12      -7.0643      1.00000
     13      -5.3690      1.00000
     14      -5.2395      1.00000
     15      -4.6484      1.00000
     16      -4.4980      1.00000
     17      -3.7555      1.00000
     18      -3.6515      1.00000
     19      -2.9732      1.00000
     20      -2.9083      1.00000
     21      -2.8363      1.00000
     22      -2.5410      1.00000
     23      -2.2561      1.00000
     24      -2.1875      1.00000
     25      -1.9147      1.00000
     26      -1.7110      1.00000
     27      -1.2586      1.00000
     28      -1.1665      1.00000
     29      -0.5923      1.00000
     30      -0.5415      1.00000
     31      -0.4231      1.00000
     32      -0.4145      1.00000
     33       0.0046      1.00000
     34       0.0651      1.00000
     35       0.4301      1.00000
     36       0.4688      1.00000
     37       0.6178      1.00000
     38       0.6649      1.00000
     39       0.9562      1.00000
     40       1.0363      1.00000
     41       1.1950      1.00000
     42       1.3001      1.00000
     43       2.3228      0.00000
     44       2.3542      0.00000
     45       3.4965      0.00000
     46       3.5144      0.00000
     47       4.0269      0.00000
     48       4.1005      0.00000
     49       4.6863      0.00000
     50       4.8267      0.00000
     51       5.9459      0.00000
     52       6.0983      0.00000
     53       6.4548      0.00000
     54       6.5510      0.00000
     55       6.7502      0.00000

 k-point    89 :      -0.3333    0.5000    0.4000
  band No.  band energies     occupation 
      1     -13.9140      1.00000
      2     -13.8197      1.00000
      3     -12.8999      1.00000
      4     -12.8366      1.00000
      5     -11.2626      1.00000
      6     -11.2274      1.00000
      7     -10.6989      1.00000
      8     -10.6190      1.00000
      9     -10.1238      1.00000
     10     -10.0625      1.00000
     11      -7.1427      1.00000
     12      -7.1003      1.00000
     13      -5.3303      1.00000
     14      -5.2343      1.00000
     15      -4.6934      1.00000
     16      -4.4833      1.00000
     17      -3.7096      1.00000
     18      -3.6097      1.00000
     19      -3.0017      1.00000
     20      -2.9461      1.00000
     21      -2.7019      1.00000
     22      -2.5893      1.00000
     23      -2.2350      1.00000
     24      -2.1356      1.00000
     25      -1.7688      1.00000
     26      -1.7066      1.00000
     27      -1.2571      1.00000
     28      -1.2223      1.00000
     29      -0.6418      1.00000
     30      -0.5495      1.00000
     31      -0.4919      1.00000
     32      -0.4370      1.00000
     33       0.0137      1.00000
     34       0.1470      1.00000
     35       0.3202      1.00000
     36       0.3597      1.00000
     37       0.5806      1.00000
     38       0.6645      1.00000
     39       0.9862      1.00000
     40       1.1003      1.00000
     41       1.1466      1.00000
     42       1.2662      1.00000
     43       2.3576      0.00000
     44       2.3833      0.00000
     45       3.4443      0.00000
     46       3.5428      0.00000
     47       4.0454      0.00000
     48       4.1360      0.00000
     49       4.6915      0.00000
     50       4.7826      0.00000
     51       5.9234      0.00000
     52       6.0698      0.00000
     53       6.3684      0.00000
     54       6.4944      0.00000
     55       6.7218      0.00000

 k-point    90 :       0.5000   -0.3333    0.4000
  band No.  band energies     occupation 
      1     -13.9098      1.00000
      2     -13.8164      1.00000
      3     -12.9045      1.00000
      4     -12.8393      1.00000
      5     -11.2682      1.00000
      6     -11.2327      1.00000
      7     -10.7113      1.00000
      8     -10.6379      1.00000
      9     -10.1169      1.00000
     10     -10.0384      1.00000
     11      -7.0953      1.00000
     12      -7.0538      1.00000
     13      -5.3488      1.00000
     14      -5.2735      1.00000
     15      -4.6898      1.00000
     16      -4.4524      1.00000
     17      -3.7338      1.00000
     18      -3.6360      1.00000
     19      -3.0102      1.00000
     20      -2.9364      1.00000
     21      -2.7854      1.00000
     22      -2.5937      1.00000
     23      -2.2448      1.00000
     24      -2.1507      1.00000
     25      -1.8372      1.00000
     26      -1.7909      1.00000
     27      -1.2208      1.00000
     28      -1.1732      1.00000
     29      -0.6889      1.00000
     30      -0.5495      1.00000
     31      -0.4531      1.00000
     32      -0.3129      1.00000
     33       0.0097      1.00000
     34       0.0729      1.00000
     35       0.3846      1.00000
     36       0.4647      1.00000
     37       0.6189      1.00000
     38       0.6492      1.00000
     39       0.9554      1.00000
     40       1.0499      1.00000
     41       1.2016      1.00000
     42       1.2972      1.00000
     43       2.3332      0.00000
     44       2.3786      0.00000
     45       3.4756      0.00000
     46       3.5469      0.00000
     47       3.9982      0.00000
     48       4.1255      0.00000
     49       4.7117      0.00000
     50       4.7828      0.00000
     51       5.9887      0.00000
     52       6.1452      0.00000
     53       6.5188      0.00000
     54       6.5656      0.00000
     55       6.7679      0.00000

 k-point    91 :       0.3333    0.5000    0.4000
  band No.  band energies     occupation 
      1     -13.9140      1.00000
      2     -13.8197      1.00000
      3     -12.8999      1.00000
      4     -12.8366      1.00000
      5     -11.2626      1.00000
      6     -11.2274      1.00000
      7     -10.6989      1.00000
      8     -10.6190      1.00000
      9     -10.1238      1.00000
     10     -10.0625      1.00000
     11      -7.1427      1.00000
     12      -7.1003      1.00000
     13      -5.3303      1.00000
     14      -5.2343      1.00000
     15      -4.6934      1.00000
     16      -4.4833      1.00000
     17      -3.7096      1.00000
     18      -3.6097      1.00000
     19      -3.0017      1.00000
     20      -2.9461      1.00000
     21      -2.7019      1.00000
     22      -2.5893      1.00000
     23      -2.2350      1.00000
     24      -2.1356      1.00000
     25      -1.7688      1.00000
     26      -1.7066      1.00000
     27      -1.2571      1.00000
     28      -1.2223      1.00000
     29      -0.6418      1.00000
     30      -0.5495      1.00000
     31      -0.4919      1.00000
     32      -0.4370      1.00000
     33       0.0137      1.00000
     34       0.1470      1.00000
     35       0.3202      1.00000
     36       0.3597      1.00000
     37       0.5806      1.00000
     38       0.6645      1.00000
     39       0.9862      1.00000
     40       1.1003      1.00000
     41       1.1466      1.00000
     42       1.2662      1.00000
     43       2.3576      0.00000
     44       2.3833      0.00000
     45       3.4443      0.00000
     46       3.5428      0.00000
     47       4.0454      0.00000
     48       4.1360      0.00000
     49       4.6915      0.00000
     50       4.7826      0.00000
     51       5.9234      0.00000
     52       6.0698      0.00000
     53       6.3684      0.00000
     54       6.4944      0.00000
     55       6.7264      0.00000

 k-point    92 :       0.5000    0.5000    0.4000
  band No.  band energies     occupation 
      1     -13.9082      1.00000
      2     -13.8148      1.00000
      3     -12.8998      1.00000
      4     -12.8351      1.00000
      5     -11.2778      1.00000
      6     -11.2419      1.00000
      7     -10.7288      1.00000
      8     -10.6489      1.00000
      9     -10.1079      1.00000
     10     -10.0360      1.00000
     11      -7.0621      1.00000
     12      -7.0248      1.00000
     13      -5.3833      1.00000
     14      -5.2948      1.00000
     15      -4.6633      1.00000
     16      -4.4598      1.00000
     17      -3.7650      1.00000
     18      -3.6528      1.00000
     19      -2.9495      1.00000
     20      -2.9192      1.00000
     21      -2.6706      1.00000
     22      -2.5853      1.00000
     23      -2.2465      1.00000
     24      -2.1941      1.00000
     25      -1.7720      1.00000
     26      -1.7049      1.00000
     27      -1.3169      1.00000
     28      -1.3079      1.00000
     29      -0.5767      1.00000
     30      -0.4970      1.00000
     31      -0.4123      1.00000
     32      -0.3981      1.00000
     33      -0.0677      1.00000
     34       0.0576      1.00000
     35       0.3340      1.00000
     36       0.3353      1.00000
     37       0.5590      1.00000
     38       0.6263      1.00000
     39       0.9800      1.00000
     40       1.1291      1.00000
     41       1.1639      1.00000
     42       1.3245      1.00000
     43       2.3805      0.00000
     44       2.3938      0.00000
     45       3.4760      0.00000
     46       3.4997      0.00000
     47       3.8935      0.00000
     48       3.9994      0.00000
     49       4.7171      0.00000
     50       4.8195      0.00000
     51       6.0705      0.00000
     52       6.1974      0.00000
     53       6.4952      0.00000
     54       6.6069      0.00000
     55       6.7922      0.00000
 Fermi energy:         1.5189729369

 spin component 2

 k-point     1 :       0.0000    0.0000    0.0000
  band No.  band energies     occupation 
      1     -14.0031      1.00000
      2     -13.6822      1.00000
      3     -12.8917      1.00000
      4     -12.7175      1.00000
      5     -11.1237      1.00000
      6     -11.0517      1.00000
      7     -10.7368      1.00000
      8     -10.4395      1.00000
      9      -9.5377      1.00000
     10      -9.4487      1.00000
     11      -7.2438      1.00000
     12      -7.1190      1.00000
     13      -5.4772      1.00000
     14      -5.3005      1.00000
     15      -4.8526      1.00000
     16      -4.1936      1.00000
     17      -3.6664      1.00000
     18      -3.4320      1.00000
     19      -3.1794      1.00000
     20      -2.8802      1.00000
     21      -2.6080      1.00000
     22      -2.3442      1.00000
     23      -2.0997      1.00000
     24      -2.0557      1.00000
     25      -1.8401      1.00000
     26      -1.5899      1.00000
     27      -1.2824      1.00000
     28      -0.9706      1.00000
     29      -0.7363      1.00000
     30      -0.4644      1.00000
     31      -0.2771      1.00000
     32      -0.0963      1.00000
     33       0.2565      1.00000
     34       0.4991      1.00000
     35       0.5092      1.00000
     36       0.7850      1.00000
     37       1.1025      1.00000
     38       1.1969      1.00000
     39       1.2880      1.00000
     40       1.3828      0.99994
     41       1.9101      0.00000
     42       2.0122      0.00000
     43       2.6541      0.00000
     44       2.7224      0.00000
     45       3.2918      0.00000
     46       3.6856      0.00000
     47       3.9523      0.00000
     48       3.9740      0.00000
     49       4.5060      0.00000
     50       4.9761      0.00000
     51       5.4723      0.00000
     52       5.8492      0.00000
     53       6.2215      0.00000
     54       6.5469      0.00000
     55       6.5946      0.00000

 k-point     2 :       0.1667    0.0000    0.0000
  band No.  band energies     occupation 
      1     -13.9946      1.00000
      2     -13.6771      1.00000
      3     -12.9023      1.00000
      4     -12.7188      1.00000
      5     -11.1417      1.00000
      6     -11.0783      1.00000
      7     -10.7126      1.00000
      8     -10.4433      1.00000
      9      -9.5541      1.00000
     10      -9.4277      1.00000
     11      -7.2330      1.00000
     12      -7.1138      1.00000
     13      -5.4526      1.00000
     14      -5.2020      1.00000
     15      -4.8434      1.00000
     16      -4.2060      1.00000
     17      -3.6935      1.00000
     18      -3.5104      1.00000
     19      -3.0999      1.00000
     20      -2.9138      1.00000
     21      -2.6261      1.00000
     22      -2.4055      1.00000
     23      -2.1176      1.00000
     24      -2.0227      1.00000
     25      -1.8254      1.00000
     26      -1.5651      1.00000
     27      -1.3376      1.00000
     28      -0.9160      1.00000
     29      -0.7241      1.00000
     30      -0.4166      1.00000
     31      -0.3054      1.00000
     32      -0.1128      1.00000
     33       0.1859      1.00000
     34       0.4917      1.00000
     35       0.5092      1.00000
     36       0.6913      1.00000
     37       1.0403      1.00000
     38       1.1439      1.00000
     39       1.3208      1.00000
     40       1.3968      0.99973
     41       1.9265      0.00000
     42       2.0151      0.00000
     43       2.6148      0.00000
     44       2.6443      0.00000
     45       3.3248      0.00000
     46       3.6100      0.00000
     47       3.9827      0.00000
     48       4.2056      0.00000
     49       4.6058      0.00000
     50       4.9761      0.00000
     51       5.5980      0.00000
     52       5.8976      0.00000
     53       6.1697      0.00000
     54       6.4057      0.00000
     55       6.5620      0.00000

 k-point     3 :       0.0000    0.1667    0.0000
  band No.  band energies     occupation 
      1     -13.9980      1.00000
      2     -13.6790      1.00000
      3     -12.8991      1.00000
      4     -12.7197      1.00000
      5     -11.1384      1.00000
      6     -11.0592      1.00000
      7     -10.7191      1.00000
      8     -10.4269      1.00000
      9      -9.5441      1.00000
     10      -9.4526      1.00000
     11      -7.2783      1.00000
     12      -7.1505      1.00000
     13      -5.4135      1.00000
     14      -5.2363      1.00000
     15      -4.8557      1.00000
     16      -4.2023      1.00000
     17      -3.6234      1.00000
     18      -3.4883      1.00000
     19      -3.1342      1.00000
     20      -2.8404      1.00000
     21      -2.6616      1.00000
     22      -2.3288      1.00000
     23      -2.1456      1.00000
     24      -2.0079      1.00000
     25      -1.7490      1.00000
     26      -1.5764      1.00000
     27      -1.3363      1.00000
     28      -0.9310      1.00000
     29      -0.7487      1.00000
     30      -0.5017      1.00000
     31      -0.3300      1.00000
     32      -0.1037      1.00000
     33       0.2370      1.00000
     34       0.5235      1.00000
     35       0.5256      1.00000
     36       0.7552      1.00000
     37       1.0521      1.00000
     38       1.1480      1.00000
     39       1.2636      1.00000
     40       1.3854      0.99992
     41       1.8241      0.00000
     42       1.9253      0.00000
     43       2.6143      0.00000
     44       2.6517      0.00000
     45       3.2321      0.00000
     46       3.6765      0.00000
     47       4.0688      0.00000
     48       4.1759      0.00000
     49       4.5661      0.00000
     50       4.9395      0.00000
     51       5.5093      0.00000
     52       5.9200      0.00000
     53       6.1378      0.00000
     54       6.3690      0.00000
     55       6.6052      0.00000

 k-point     4 :       0.3333    0.0000    0.0000
  band No.  band energies     occupation 
      1     -13.9769      1.00000
      2     -13.6668      1.00000
      3     -12.9241      1.00000
      4     -12.7221      1.00000
      5     -11.1723      1.00000
      6     -11.1280      1.00000
      7     -10.6723      1.00000
      8     -10.4471      1.00000
      9      -9.5822      1.00000
     10      -9.3988      1.00000
     11      -7.1954      1.00000
     12      -7.1019      1.00000
     13      -5.4163      1.00000
     14      -5.0231      1.00000
     15      -4.8037      1.00000
     16      -4.2356      1.00000
     17      -3.7453      1.00000
     18      -3.5733      1.00000
     19      -2.9988      1.00000
     20      -2.9304      1.00000
     21      -2.7032      1.00000
     22      -2.4935      1.00000
     23      -2.3160      1.00000
     24      -1.8783      1.00000
     25      -1.8136      1.00000
     26      -1.5977      1.00000
     27      -1.2566      1.00000
     28      -0.8740      1.00000
     29      -0.6655      1.00000
     30      -0.5232      1.00000
     31      -0.3292      1.00000
     32      -0.2600      1.00000
     33       0.3772      1.00000
     34       0.4090      1.00000
     35       0.5219      1.00000
     36       0.5702      1.00000
     37       0.8875      1.00000
     38       1.1115      1.00000
     39       1.3379      1.00000
     40       1.4616      0.94763
     41       1.9308      0.00000
     42       1.9515      0.00000
     43       2.4346      0.00000
     44       2.5211      0.00000
     45       3.3904      0.00000
     46       3.5745      0.00000
     47       4.1626      0.00000
     48       4.4822      0.00000
     49       4.7495      0.00000
     50       4.9712      0.00000
     51       5.6635      0.00000
     52       5.9835      0.00000
     53       6.2354      0.00000
     54       6.3628      0.00000
     55       6.5517      0.00000

 k-point     5 :       0.0000    0.3333    0.0000
  band No.  band energies     occupation 
      1     -13.9877      1.00000
      2     -13.6725      1.00000
      3     -12.9141      1.00000
      4     -12.7243      1.00000
      5     -11.1652      1.00000
      6     -11.0736      1.00000
      7     -10.6858      1.00000
      8     -10.4020      1.00000
      9      -9.5576      1.00000
     10      -9.4610      1.00000
     11      -7.3411      1.00000
     12      -7.2090      1.00000
     13      -5.3021      1.00000
     14      -5.1068      1.00000
     15      -4.8440      1.00000
     16      -4.2180      1.00000
     17      -3.5778      1.00000
     18      -3.5265      1.00000
     19      -3.0607      1.00000
     20      -2.7890      1.00000
     21      -2.7780      1.00000
     22      -2.2775      1.00000
     23      -2.1586      1.00000
     24      -1.9703      1.00000
     25      -1.6129      1.00000
     26      -1.5774      1.00000
     27      -1.3863      1.00000
     28      -0.8479      1.00000
     29      -0.7778      1.00000
     30      -0.6377      1.00000
     31      -0.3124      1.00000
     32      -0.1631      1.00000
     33       0.2242      1.00000
     34       0.5233      1.00000
     35       0.5313      1.00000
     36       0.7359      1.00000
     37       0.9034      1.00000
     38       1.0828      1.00000
     39       1.2033      1.00000
     40       1.3901      0.99987
     41       1.6472      0.00014
     42       1.7883      0.00000
     43       2.5210      0.00000
     44       2.5332      0.00000
     45       3.1609      0.00000
     46       3.7046      0.00000
     47       4.2444      0.00000
     48       4.5231      0.00000
     49       4.7421      0.00000
     50       4.8778      0.00000
     51       5.5273      0.00000
     52       5.9767      0.00000
     53       6.0136      0.00000
     54       6.1755      0.00000
     55       6.6338      0.00000

 k-point     6 :       0.5000    0.0000    0.0000
  band No.  band energies     occupation 
      1     -13.9677      1.00000
      2     -13.6616      1.00000
      3     -12.9353      1.00000
      4     -12.7240      1.00000
      5     -11.1825      1.00000
      6     -11.1549      1.00000
      7     -10.6546      1.00000
      8     -10.4473      1.00000
      9      -9.5959      1.00000
     10      -9.3889      1.00000
     11      -7.1632      1.00000
     12      -7.1009      1.00000
     13      -5.4068      1.00000
     14      -4.9468      1.00000
     15      -4.7707      1.00000
     16      -4.2555      1.00000
     17      -3.7711      1.00000
     18      -3.5272      1.00000
     19      -2.9949      1.00000
     20      -2.9568      1.00000
     21      -2.8015      1.00000
     22      -2.4833      1.00000
     23      -2.2868      1.00000
     24      -2.1190      1.00000
     25      -1.6358      1.00000
     26      -1.4396      1.00000
     27      -1.3631      1.00000
     28      -0.9267      1.00000
     29      -0.6286      1.00000
     30      -0.5730      1.00000
     31      -0.4372      1.00000
     32      -0.1788      1.00000
     33       0.3516      1.00000
     34       0.4444      1.00000
     35       0.5568      1.00000
     36       0.5593      1.00000
     37       0.8773      1.00000
     38       1.0526      1.00000
     39       1.3470      1.00000
     40       1.4975      0.72796
     41       1.8702      0.00000
     42       1.9183      0.00000
     43       2.3439      0.00000
     44       2.4586      0.00000
     45       3.4070      0.00000
     46       3.5769      0.00000
     47       4.2551      0.00000
     48       4.6714      0.00000
     49       4.7537      0.00000
     50       4.9982      0.00000
     51       5.5610      0.00000
     52       5.9254      0.00000
     53       6.3167      0.00000
     54       6.5999      0.00000
     55       6.6193      0.00000

 k-point     7 :       0.0000    0.5000    0.0000
  band No.  band energies     occupation 
      1     -13.9824      1.00000
      2     -13.6692      1.00000
      3     -12.9217      1.00000
      4     -12.7266      1.00000
      5     -11.1776      1.00000
      6     -11.0804      1.00000
      7     -10.6699      1.00000
      8     -10.3897      1.00000
      9      -9.5648      1.00000
     10      -9.4656      1.00000
     11      -7.3699      1.00000
     12      -7.2365      1.00000
     13      -5.2577      1.00000
     14      -5.0405      1.00000
     15      -4.8250      1.00000
     16      -4.2255      1.00000
     17      -3.6175      1.00000
     18      -3.4677      1.00000
     19      -3.0274      1.00000
     20      -2.8643      1.00000
     21      -2.7592      1.00000
     22      -2.2275      1.00000
     23      -2.1416      1.00000
     24      -1.9931      1.00000
     25      -1.6111      1.00000
     26      -1.5749      1.00000
     27      -1.3394      1.00000
     28      -0.8215      1.00000
     29      -0.8019      1.00000
     30      -0.6569      1.00000
     31      -0.2987      1.00000
     32      -0.2209      1.00000
     33       0.2362      1.00000
     34       0.5130      1.00000
     35       0.5144      1.00000
     36       0.7371      1.00000
     37       0.8170      1.00000
     38       1.0487      1.00000
     39       1.1619      1.00000
     40       1.3952      0.99977
     41       1.5676      0.08458
     42       1.7410      0.00000
     43       2.4556      0.00000
     44       2.4888      0.00000
     45       3.1412      0.00000
     46       3.7247      0.00000
     47       4.3059      0.00000
     48       4.6760      0.00000
     49       4.8744      0.00000
     50       4.8801      0.00000
     51       5.4912      0.00000
     52       5.8683      0.00000
     53       5.9745      0.00000
     54       6.2178      0.00000
     55       6.6328      0.00000

 k-point     8 :       0.1667    0.1667    0.0000
  band No.  band energies     occupation 
      1     -13.9902      1.00000
      2     -13.6744      1.00000
      3     -12.9070      1.00000
      4     -12.7196      1.00000
      5     -11.1574      1.00000
      6     -11.0809      1.00000
      7     -10.7077      1.00000
      8     -10.4324      1.00000
      9      -9.5591      1.00000
     10      -9.4309      1.00000
     11      -7.2666      1.00000
     12      -7.1102      1.00000
     13      -5.4316      1.00000
     14      -5.1428      1.00000
     15      -4.8492      1.00000
     16      -4.2080      1.00000
     17      -3.6728      1.00000
     18      -3.5155      1.00000
     19      -3.0885      1.00000
     20      -2.8900      1.00000
     21      -2.6346      1.00000
     22      -2.4021      1.00000
     23      -2.1189      1.00000
     24      -2.0538      1.00000
     25      -1.7372      1.00000
     26      -1.5406      1.00000
     27      -1.3235      1.00000
     28      -0.9114      1.00000
     29      -0.7670      1.00000
     30      -0.4913      1.00000
     31      -0.2662      1.00000
     32      -0.1322      1.00000
     33       0.1792      1.00000
     34       0.4870      1.00000
     35       0.5183      1.00000
     36       0.6881      1.00000
     37       0.9979      1.00000
     38       1.1099      1.00000
     39       1.2718      1.00000
     40       1.3852      0.99992
     41       1.8480      0.00000
     42       1.9252      0.00000
     43       2.5582      0.00000
     44       2.6123      0.00000
     45       3.2936      0.00000
     46       3.6551      0.00000
     47       3.9826      0.00000
     48       4.3420      0.00000
     49       4.6862      0.00000
     50       4.9700      0.00000
     51       5.6359      0.00000
     52       5.8814      0.00000
     53       6.0440      0.00000
     54       6.4460      0.00000
     55       6.6073      0.00000

 k-point     9 :      -0.1667    0.1667    0.0000
  band No.  band energies     occupation 
      1     -13.9902      1.00000
      2     -13.6744      1.00000
      3     -12.9070      1.00000
      4     -12.7196      1.00000
      5     -11.1574      1.00000
      6     -11.0809      1.00000
      7     -10.7077      1.00000
      8     -10.4324      1.00000
      9      -9.5591      1.00000
     10      -9.4309      1.00000
     11      -7.2666      1.00000
     12      -7.1102      1.00000
     13      -5.4316      1.00000
     14      -5.1428      1.00000
     15      -4.8492      1.00000
     16      -4.2080      1.00000
     17      -3.6728      1.00000
     18      -3.5155      1.00000
     19      -3.0885      1.00000
     20      -2.8900      1.00000
     21      -2.6346      1.00000
     22      -2.4021      1.00000
     23      -2.1189      1.00000
     24      -2.0538      1.00000
     25      -1.7372      1.00000
     26      -1.5406      1.00000
     27      -1.3235      1.00000
     28      -0.9114      1.00000
     29      -0.7670      1.00000
     30      -0.4913      1.00000
     31      -0.2662      1.00000
     32      -0.1322      1.00000
     33       0.1792      1.00000
     34       0.4870      1.00000
     35       0.5183      1.00000
     36       0.6881      1.00000
     37       0.9979      1.00000
     38       1.1099      1.00000
     39       1.2718      1.00000
     40       1.3852      0.99992
     41       1.8480      0.00000
     42       1.9252      0.00000
     43       2.5582      0.00000
     44       2.6123      0.00000
     45       3.2936      0.00000
     46       3.6551      0.00000
     47       3.9826      0.00000
     48       4.3420      0.00000
     49       4.6862      0.00000
     50       4.9700      0.00000
     51       5.6359      0.00000
     52       5.8814      0.00000
     53       6.0440      0.00000
     54       6.4457      0.00000
     55       6.5933      0.00000

 k-point    10 :       0.3333    0.1667    0.0000
  band No.  band energies     occupation 
      1     -13.9740      1.00000
      2     -13.6652      1.00000
      3     -12.9234      1.00000
      4     -12.7199      1.00000
      5     -11.1887      1.00000
      6     -11.1250      1.00000
      7     -10.6887      1.00000
      8     -10.4424      1.00000
      9      -9.5834      1.00000
     10      -9.3981      1.00000
     11      -7.2024      1.00000
     12      -7.0646      1.00000
     13      -5.4244      1.00000
     14      -5.0313      1.00000
     15      -4.8093      1.00000
     16      -4.2238      1.00000
     17      -3.7389      1.00000
     18      -3.5558      1.00000
     19      -3.0010      1.00000
     20      -2.9396      1.00000
     21      -2.6859      1.00000
     22      -2.4543      1.00000
     23      -2.3016      1.00000
     24      -1.8614      1.00000
     25      -1.7890      1.00000
     26      -1.5560      1.00000
     27      -1.2715      1.00000
     28      -0.8989      1.00000
     29      -0.7241      1.00000
     30      -0.4964      1.00000
     31      -0.3411      1.00000
     32      -0.1981      1.00000
     33       0.2775      1.00000
     34       0.4057      1.00000
     35       0.5366      1.00000
     36       0.5840      1.00000
     37       0.8750      1.00000
     38       1.0899      1.00000
     39       1.2785      1.00000
     40       1.4366      0.99010
     41       1.8314      0.00000
     42       1.8847      0.00000
     43       2.4419      0.00000
     44       2.4928      0.00000
     45       3.3913      0.00000
     46       3.5832      0.00000
     47       4.0649      0.00000
     48       4.5240      0.00000
     49       4.7879      0.00000
     50       5.0126      0.00000
     51       5.6509      0.00000
     52       6.0760      0.00000
     53       6.1651      0.00000
     54       6.4767      0.00000
     55       6.5979      0.00000

 k-point    11 :      -0.1667    0.3333    0.0000
  band No.  band energies     occupation 
      1     -13.9813      1.00000
      2     -13.6690      1.00000
      3     -12.9166      1.00000
      4     -12.7213      1.00000
      5     -11.1855      1.00000
      6     -11.0879      1.00000
      7     -10.6969      1.00000
      8     -10.4126      1.00000
      9      -9.5691      1.00000
     10      -9.4381      1.00000
     11      -7.3006      1.00000
     12      -7.1377      1.00000
     13      -5.3548      1.00000
     14      -5.0616      1.00000
     15      -4.8532      1.00000
     16      -4.2118      1.00000
     17      -3.6560      1.00000
     18      -3.4798      1.00000
     19      -3.0657      1.00000
     20      -2.9054      1.00000
     21      -2.6706      1.00000
     22      -2.3523      1.00000
     23      -2.0887      1.00000
     24      -2.0118      1.00000
     25      -1.6209      1.00000
     26      -1.5220      1.00000
     27      -1.3637      1.00000
     28      -0.9364      1.00000
     29      -0.7497      1.00000
     30      -0.5601      1.00000
     31      -0.3508      1.00000
     32      -0.1482      1.00000
     33       0.1892      1.00000
     34       0.4923      1.00000
     35       0.5403      1.00000
     36       0.6878      1.00000
     37       0.8951      1.00000
     38       1.0637      1.00000
     39       1.1587      1.00000
     40       1.3691      0.99999
     41       1.6808      0.00000
     42       1.7746      0.00000
     43       2.4642      0.00000
     44       2.5236      0.00000
     45       3.2334      0.00000
     46       3.7020      0.00000
     47       4.1597      0.00000
     48       4.5026      0.00000
     49       4.7696      0.00000
     50       4.9763      0.00000
     51       5.6124      0.00000
     52       5.8827      0.00000
     53       6.1278      0.00000
     54       6.3806      0.00000
     55       6.6335      0.00000

 k-point    12 :      -0.3333    0.1667    0.0000
  band No.  band energies     occupation 
      1     -13.9740      1.00000
      2     -13.6652      1.00000
      3     -12.9234      1.00000
      4     -12.7199      1.00000
      5     -11.1887      1.00000
      6     -11.1250      1.00000
      7     -10.6887      1.00000
      8     -10.4424      1.00000
      9      -9.5834      1.00000
     10      -9.3981      1.00000
     11      -7.2024      1.00000
     12      -7.0646      1.00000
     13      -5.4244      1.00000
     14      -5.0313      1.00000
     15      -4.8093      1.00000
     16      -4.2238      1.00000
     17      -3.7389      1.00000
     18      -3.5558      1.00000
     19      -3.0010      1.00000
     20      -2.9396      1.00000
     21      -2.6859      1.00000
     22      -2.4543      1.00000
     23      -2.3016      1.00000
     24      -1.8614      1.00000
     25      -1.7890      1.00000
     26      -1.5560      1.00000
     27      -1.2715      1.00000
     28      -0.8989      1.00000
     29      -0.7241      1.00000
     30      -0.4964      1.00000
     31      -0.3411      1.00000
     32      -0.1981      1.00000
     33       0.2775      1.00000
     34       0.4057      1.00000
     35       0.5366      1.00000
     36       0.5840      1.00000
     37       0.8750      1.00000
     38       1.0899      1.00000
     39       1.2785      1.00000
     40       1.4366      0.99010
     41       1.8314      0.00000
     42       1.8847      0.00000
     43       2.4419      0.00000
     44       2.4928      0.00000
     45       3.3913      0.00000
     46       3.5832      0.00000
     47       4.0649      0.00000
     48       4.5240      0.00000
     49       4.7879      0.00000
     50       5.0126      0.00000
     51       5.6509      0.00000
     52       6.0760      0.00000
     53       6.1651      0.00000
     54       6.4764      0.00000
     55       6.5968      0.00000

 k-point    13 :       0.1667    0.3333    0.0000
  band No.  band energies     occupation 
      1     -13.9813      1.00000
      2     -13.6690      1.00000
      3     -12.9166      1.00000
      4     -12.7213      1.00000
      5     -11.1855      1.00000
      6     -11.0879      1.00000
      7     -10.6969      1.00000
      8     -10.4126      1.00000
      9      -9.5691      1.00000
     10      -9.4381      1.00000
     11      -7.3006      1.00000
     12      -7.1377      1.00000
     13      -5.3548      1.00000
     14      -5.0616      1.00000
     15      -4.8532      1.00000
     16      -4.2118      1.00000
     17      -3.6560      1.00000
     18      -3.4798      1.00000
     19      -3.0657      1.00000
     20      -2.9054      1.00000
     21      -2.6706      1.00000
     22      -2.3523      1.00000
     23      -2.0887      1.00000
     24      -2.0118      1.00000
     25      -1.6209      1.00000
     26      -1.5220      1.00000
     27      -1.3637      1.00000
     28      -0.9364      1.00000
     29      -0.7497      1.00000
     30      -0.5601      1.00000
     31      -0.3508      1.00000
     32      -0.1482      1.00000
     33       0.1892      1.00000
     34       0.4923      1.00000
     35       0.5403      1.00000
     36       0.6878      1.00000
     37       0.8951      1.00000
     38       1.0637      1.00000
     39       1.1587      1.00000
     40       1.3691      0.99999
     41       1.6808      0.00000
     42       1.7746      0.00000
     43       2.4642      0.00000
     44       2.5236      0.00000
     45       3.2334      0.00000
     46       3.7020      0.00000
     47       4.1597      0.00000
     48       4.5026      0.00000
     49       4.7696      0.00000
     50       4.9763      0.00000
     51       5.6124      0.00000
     52       5.8827      0.00000
     53       6.1278      0.00000
     54       6.3806      0.00000
     55       6.6287      0.00000

 k-point    14 :       0.5000    0.1667    0.0000
  band No.  band energies     occupation 
      1     -13.9657      1.00000
      2     -13.6605      1.00000
      3     -12.9318      1.00000
      4     -12.7203      1.00000
      5     -11.2000      1.00000
      6     -11.1492      1.00000
      7     -10.6800      1.00000
      8     -10.4477      1.00000
      9      -9.5942      1.00000
     10      -9.3850      1.00000
     11      -7.1427      1.00000
     12      -7.0662      1.00000
     13      -5.4156      1.00000
     14      -5.0039      1.00000
     15      -4.7693      1.00000
     16      -4.2361      1.00000
     17      -3.7814      1.00000
     18      -3.5124      1.00000
     19      -2.9919      1.00000
     20      -2.9825      1.00000
     21      -2.7566      1.00000
     22      -2.4428      1.00000
     23      -2.2288      1.00000
     24      -2.0663      1.00000
     25      -1.6993      1.00000
     26      -1.4304      1.00000
     27      -1.3271      1.00000
     28      -0.9473      1.00000
     29      -0.6437      1.00000
     30      -0.6150      1.00000
     31      -0.3853      1.00000
     32      -0.1543      1.00000
     33       0.3382      1.00000
     34       0.3564      1.00000
     35       0.5653      1.00000
     36       0.5834      1.00000
     37       0.8388      1.00000
     38       1.0325      1.00000
     39       1.3332      1.00000
     40       1.4680      0.92531
     41       1.7595      0.00000
     42       1.8561      0.00000
     43       2.3807      0.00000
     44       2.4224      0.00000
     45       3.4235      0.00000
     46       3.5665      0.00000
     47       4.1677      0.00000
     48       4.5527      0.00000
     49       4.7786      0.00000
     50       5.0204      0.00000
     51       5.7072      0.00000
     52       6.0958      0.00000
     53       6.3173      0.00000
     54       6.6015      0.00000
     55       6.6738      0.00000

 k-point    15 :      -0.1667    0.5000    0.0000
  band No.  band energies     occupation 
      1     -13.9768      1.00000
      2     -13.6662      1.00000
      3     -12.9214      1.00000
      4     -12.7222      1.00000
      5     -11.1986      1.00000
      6     -11.0917      1.00000
      7     -10.6912      1.00000
      8     -10.4035      1.00000
      9      -9.5741      1.00000
     10      -9.4421      1.00000
     11      -7.3053      1.00000
     12      -7.1640      1.00000
     13      -5.3032      1.00000
     14      -5.0348      1.00000
     15      -4.8533      1.00000
     16      -4.2125      1.00000
     17      -3.6601      1.00000
     18      -3.4337      1.00000
     19      -3.0627      1.00000
     20      -2.9279      1.00000
     21      -2.7269      1.00000
     22      -2.2593      1.00000
     23      -2.0761      1.00000
     24      -1.9282      1.00000
     25      -1.6797      1.00000
     26      -1.5102      1.00000
     27      -1.3556      1.00000
     28      -0.9816      1.00000
     29      -0.7099      1.00000
     30      -0.5524      1.00000
     31      -0.4114      1.00000
     32      -0.1862      1.00000
     33       0.2013      1.00000
     34       0.4846      1.00000
     35       0.5703      1.00000
     36       0.7017      1.00000
     37       0.8412      1.00000
     38       1.0424      1.00000
     39       1.0823      1.00000
     40       1.3596      1.00000
     41       1.6021      0.00932
     42       1.7162      0.00000
     43       2.3897      0.00000
     44       2.4980      0.00000
     45       3.2081      0.00000
     46       3.7164      0.00000
     47       4.3073      0.00000
     48       4.6108      0.00000
     49       4.7364      0.00000
     50       4.9135      0.00000
     51       5.6057      0.00000
     52       6.0630      0.00000
     53       6.1264      0.00000
     54       6.2871      0.00000
     55       6.6477      0.00000

 k-point    16 :       0.3333    0.3333    0.0000
  band No.  band energies     occupation 
      1     -13.9683      1.00000
      2     -13.6619      1.00000
      3     -12.9219      1.00000
      4     -12.7156      1.00000
      5     -11.2200      1.00000
      6     -11.1187      1.00000
      7     -10.7202      1.00000
      8     -10.4362      1.00000
      9      -9.5855      1.00000
     10      -9.3970      1.00000
     11      -7.1839      1.00000
     12      -7.0260      1.00000
     13      -5.4189      1.00000
     14      -5.0680      1.00000
     15      -4.8196      1.00000
     16      -4.2011      1.00000
     17      -3.7363      1.00000
     18      -3.4960      1.00000
     19      -3.0436      1.00000
     20      -2.9866      1.00000
     21      -2.6356      1.00000
     22      -2.3066      1.00000
     23      -2.2111      1.00000
     24      -1.9101      1.00000
     25      -1.6710      1.00000
     26      -1.4821      1.00000
     27      -1.3349      1.00000
     28      -1.0431      1.00000
     29      -0.7147      1.00000
     30      -0.4954      1.00000
     31      -0.3460      1.00000
     32      -0.1406      1.00000
     33       0.1371      1.00000
     34       0.3934      1.00000
     35       0.5451      1.00000
     36       0.5711      1.00000
     37       0.8499      1.00000
     38       1.0658      1.00000
     39       1.1590      1.00000
     40       1.4090      0.99906
     41       1.6512      0.00009
     42       1.7804      0.00000
     43       2.4080      0.00000
     44       2.4922      0.00000
     45       3.3569      0.00000
     46       3.6318      0.00000
     47       3.9770      0.00000
     48       4.4856      0.00000
     49       4.7790      0.00000
     50       5.0138      0.00000
     51       5.8288      0.00000
     52       6.1655      0.00000
     53       6.2981      0.00000
     54       6.4966      0.00000
     55       6.6434      0.00000

 k-point    17 :      -0.3333    0.3333    0.0000
  band No.  band energies     occupation 
      1     -13.9683      1.00000
      2     -13.6619      1.00000
      3     -12.9219      1.00000
      4     -12.7156      1.00000
      5     -11.2200      1.00000
      6     -11.1187      1.00000
      7     -10.7202      1.00000
      8     -10.4362      1.00000
      9      -9.5855      1.00000
     10      -9.3970      1.00000
     11      -7.1839      1.00000
     12      -7.0260      1.00000
     13      -5.4189      1.00000
     14      -5.0680      1.00000
     15      -4.8196      1.00000
     16      -4.2011      1.00000
     17      -3.7363      1.00000
     18      -3.4960      1.00000
     19      -3.0436      1.00000
     20      -2.9866      1.00000
     21      -2.6356      1.00000
     22      -2.3066      1.00000
     23      -2.2111      1.00000
     24      -1.9101      1.00000
     25      -1.6710      1.00000
     26      -1.4821      1.00000
     27      -1.3349      1.00000
     28      -1.0431      1.00000
     29      -0.7147      1.00000
     30      -0.4954      1.00000
     31      -0.3460      1.00000
     32      -0.1406      1.00000
     33       0.1371      1.00000
     34       0.3934      1.00000
     35       0.5451      1.00000
     36       0.5711      1.00000
     37       0.8499      1.00000
     38       1.0658      1.00000
     39       1.1590      1.00000
     40       1.4090      0.99906
     41       1.6512      0.00009
     42       1.7804      0.00000
     43       2.4080      0.00000
     44       2.4922      0.00000
     45       3.3569      0.00000
     46       3.6318      0.00000
     47       3.9770      0.00000
     48       4.4856      0.00000
     49       4.7790      0.00000
     50       5.0138      0.00000
     51       5.8288      0.00000
     52       6.1655      0.00000
     53       6.2981      0.00000
     54       6.4966      0.00000
     55       6.6466      0.00000

 k-point    18 :       0.5000    0.3333    0.0000
  band No.  band energies     occupation 
      1     -13.9616      1.00000
      2     -13.6584      1.00000
      3     -12.9247      1.00000
      4     -12.7130      1.00000
      5     -11.2340      1.00000
      6     -11.1360      1.00000
      7     -10.7316      1.00000
      8     -10.4494      1.00000
      9      -9.5918      1.00000
     10      -9.3773      1.00000
     11      -7.1006      1.00000
     12      -6.9928      1.00000
     13      -5.4349      1.00000
     14      -5.1175      1.00000
     15      -4.7671      1.00000
     16      -4.2010      1.00000
     17      -3.7932      1.00000
     18      -3.4908      1.00000
     19      -3.0654      1.00000
     20      -2.9873      1.00000
     21      -2.6127      1.00000
     22      -2.3453      1.00000
     23      -2.0887      1.00000
     24      -1.9627      1.00000
     25      -1.7776      1.00000
     26      -1.4026      1.00000
     27      -1.3292      1.00000
     28      -1.0858      1.00000
     29      -0.6334      1.00000
     30      -0.6330      1.00000
     31      -0.2776      1.00000
     32      -0.1199      1.00000
     33       0.1645      1.00000
     34       0.2998      1.00000
     35       0.5207      1.00000
     36       0.5379      1.00000
     37       0.8127      1.00000
     38       1.0222      1.00000
     39       1.2499      1.00000
     40       1.4537      0.96762
     41       1.6077      0.00606
     42       1.7900      0.00000
     43       2.4215      0.00000
     44       2.4381      0.00000
     45       3.4280      0.00000
     46       3.5623      0.00000
     47       3.9478      0.00000
     48       4.3272      0.00000
     49       4.8154      0.00000
     50       5.0400      0.00000
     51       6.0247      0.00000
     52       6.3441      0.00000
     53       6.3698      0.00000
     54       6.5814      0.00000
     55       6.7336      0.00000

 k-point    19 :      -0.3333    0.5000    0.0000
  band No.  band energies     occupation 
      1     -13.9654      1.00000
      2     -13.6603      1.00000
      3     -12.9211      1.00000
      4     -12.7135      1.00000
      5     -11.2351      1.00000
      6     -11.1153      1.00000
      7     -10.7356      1.00000
      8     -10.4342      1.00000
      9      -9.5866      1.00000
     10      -9.3964      1.00000
     11      -7.1621      1.00000
     12      -7.0210      1.00000
     13      -5.4015      1.00000
     14      -5.0997      1.00000
     15      -4.8249      1.00000
     16      -4.1895      1.00000
     17      -3.7367      1.00000
     18      -3.4553      1.00000
     19      -3.0589      1.00000
     20      -3.0433      1.00000
     21      -2.6032      1.00000
     22      -2.2283      1.00000
     23      -2.0808      1.00000
     24      -1.9279      1.00000
     25      -1.6613      1.00000
     26      -1.4534      1.00000
     27      -1.3429      1.00000
     28      -1.1858      1.00000
     29      -0.6585      1.00000
     30      -0.5268      1.00000
     31      -0.3407      1.00000
     32      -0.1478      1.00000
     33       0.0963      1.00000
     34       0.3893      1.00000
     35       0.5328      1.00000
     36       0.5470      1.00000
     37       0.8444      1.00000
     38       1.0631      1.00000
     39       1.1110      1.00000
     40       1.4097      0.99900
     41       1.5596      0.12502
     42       1.7395      0.00000
     43       2.3754      0.00000
     44       2.5057      0.00000
     45       3.3312      0.00000
     46       3.6638      0.00000
     47       4.0016      0.00000
     48       4.3634      0.00000
     49       4.7816      0.00000
     50       4.9951      0.00000
     51       5.9691      0.00000
     52       6.2367      0.00000
     53       6.3802      0.00000
     54       6.4929      0.00000
     55       6.6658      0.00000

 k-point    20 :       0.5000    0.5000    0.0000
  band No.  band energies     occupation 
      1     -13.9595      1.00000
      2     -13.6573      1.00000
      3     -12.9211      1.00000
      4     -12.7092      1.00000
      5     -11.2506      1.00000
      6     -11.1280      1.00000
      7     -10.7583      1.00000
      8     -10.4508      1.00000
      9      -9.5911      1.00000
     10      -9.3734      1.00000
     11      -7.0788      1.00000
     12      -6.9537      1.00000
     13      -5.4455      1.00000
     14      -5.1750      1.00000
     15      -4.7661      1.00000
     16      -4.1857      1.00000
     17      -3.7944      1.00000
     18      -3.4828      1.00000
     19      -3.1032      1.00000
     20      -2.9982      1.00000
     21      -2.5144      1.00000
     22      -2.2849      1.00000
     23      -2.0032      1.00000
     24      -1.9338      1.00000
     25      -1.7783      1.00000
     26      -1.3618      1.00000
     27      -1.3286      1.00000
     28      -1.2630      1.00000
     29      -0.6227      1.00000
     30      -0.6052      1.00000
     31      -0.2036      1.00000
     32      -0.1154      1.00000
     33       0.0587      1.00000
     34       0.2702      1.00000
     35       0.4458      1.00000
     36       0.4818      1.00000
     37       0.8253      1.00000
     38       1.0669      1.00000
     39       1.1644      1.00000
     40       1.4478      0.97796
     41       1.5691      0.07807
     42       1.7801      0.00000
     43       2.4519      0.00000
     44       2.4773      0.00000
     45       3.4147      0.00000
     46       3.5660      0.00000
     47       3.8088      0.00000
     48       4.2174      0.00000
     49       4.8390      0.00000
     50       5.0427      0.00000
     51       6.1724      0.00000
     52       6.4043      0.00000
     53       6.4608      0.00000
     54       6.5796      0.00000
     55       6.6939      0.00000

 k-point    21 :       0.0000    0.0000    0.2000
  band No.  band energies     occupation 
      1     -13.9760      1.00000
      2     -13.7172      1.00000
      3     -12.8753      1.00000
      4     -12.7341      1.00000
      5     -11.1159      1.00000
      6     -11.0578      1.00000
      7     -10.7047      1.00000
      8     -10.4646      1.00000
      9      -9.5283      1.00000
     10      -9.4563      1.00000
     11      -7.2303      1.00000
     12      -7.1298      1.00000
     13      -5.4565      1.00000
     14      -5.3126      1.00000
     15      -4.8058      1.00000
     16      -4.2709      1.00000
     17      -3.6376      1.00000
     18      -3.4258      1.00000
     19      -3.1662      1.00000
     20      -2.8438      1.00000
     21      -2.6937      1.00000
     22      -2.3372      1.00000
     23      -2.2607      1.00000
     24      -2.1635      1.00000
     25      -1.7122      1.00000
     26      -1.5897      1.00000
     27      -1.1575      1.00000
     28      -0.9600      1.00000
     29      -0.7223      1.00000
     30      -0.4479      1.00000
     31      -0.2996      1.00000
     32      -0.1491      1.00000
     33       0.3038      1.00000
     34       0.4802      1.00000
     35       0.5961      1.00000
     36       0.8741      1.00000
     37       1.0429      1.00000
     38       1.2183      1.00000
     39       1.3005      1.00000
     40       1.3590      1.00000
     41       1.9036      0.00000
     42       2.0039      0.00000
     43       2.6469      0.00000
     44       2.6993      0.00000
     45       3.3271      0.00000
     46       3.6338      0.00000
     47       3.9540      0.00000
     48       3.9816      0.00000
     49       4.4828      0.00000
     50       4.8958      0.00000
     51       5.4988      0.00000
     52       5.8171      0.00000
     53       6.2701      0.00000
     54       6.5162      0.00000
     55       6.5975      0.00000

 k-point    22 :       0.1667    0.0000    0.2000
  band No.  band energies     occupation 
      1     -13.9677      1.00000
      2     -13.7117      1.00000
      3     -12.8853      1.00000
      4     -12.7366      1.00000
      5     -11.1337      1.00000
      6     -11.0818      1.00000
      7     -10.6849      1.00000
      8     -10.4667      1.00000
      9      -9.5412      1.00000
     10      -9.4388      1.00000
     11      -7.2198      1.00000
     12      -7.1237      1.00000
     13      -5.4249      1.00000
     14      -5.2204      1.00000
     15      -4.7990      1.00000
     16      -4.2830      1.00000
     17      -3.6744      1.00000
     18      -3.5155      1.00000
     19      -3.0768      1.00000
     20      -2.8821      1.00000
     21      -2.6509      1.00000
     22      -2.4373      1.00000
     23      -2.2330      1.00000
     24      -2.1544      1.00000
     25      -1.7339      1.00000
     26      -1.5356      1.00000
     27      -1.2381      1.00000
     28      -0.9472      1.00000
     29      -0.6830      1.00000
     30      -0.4340      1.00000
     31      -0.2944      1.00000
     32      -0.1297      1.00000
     33       0.1991      1.00000
     34       0.4374      1.00000
     35       0.6292      1.00000
     36       0.7834      1.00000
     37       1.0169      1.00000
     38       1.1510      1.00000
     39       1.3126      1.00000
     40       1.3737      0.99998
     41       1.9229      0.00000
     42       2.0128      0.00000
     43       2.6066      0.00000
     44       2.6324      0.00000
     45       3.3604      0.00000
     46       3.5852      0.00000
     47       4.0012      0.00000
     48       4.1888      0.00000
     49       4.5677      0.00000
     50       4.8931      0.00000
     51       5.6187      0.00000
     52       5.8937      0.00000
     53       6.1773      0.00000
     54       6.3932      0.00000
     55       6.5594      0.00000

 k-point    23 :       0.0000    0.1667    0.2000
  band No.  band energies     occupation 
      1     -13.9712      1.00000
      2     -13.7136      1.00000
      3     -12.8822      1.00000
      4     -12.7371      1.00000
      5     -11.1301      1.00000
      6     -11.0650      1.00000
      7     -10.6874      1.00000
      8     -10.4525      1.00000
      9      -9.5350      1.00000
     10      -9.4598      1.00000
     11      -7.2584      1.00000
     12      -7.1655      1.00000
     13      -5.4021      1.00000
     14      -5.2452      1.00000
     15      -4.8063      1.00000
     16      -4.2817      1.00000
     17      -3.6106      1.00000
     18      -3.4742      1.00000
     19      -3.1125      1.00000
     20      -2.8207      1.00000
     21      -2.6656      1.00000
     22      -2.3371      1.00000
     23      -2.2892      1.00000
     24      -2.0939      1.00000
     25      -1.7756      1.00000
     26      -1.5571      1.00000
     27      -1.2130      1.00000
     28      -0.9145      1.00000
     29      -0.6826      1.00000
     30      -0.5230      1.00000
     31      -0.3363      1.00000
     32      -0.1157      1.00000
     33       0.2650      1.00000
     34       0.5409      1.00000
     35       0.6167      1.00000
     36       0.8056      1.00000
     37       0.9767      1.00000
     38       1.1642      1.00000
     39       1.2802      1.00000
     40       1.3444      1.00000
     41       1.8227      0.00000
     42       1.9317      0.00000
     43       2.6019      0.00000
     44       2.6261      0.00000
     45       3.2465      0.00000
     46       3.6670      0.00000
     47       4.0804      0.00000
     48       4.1356      0.00000
     49       4.5904      0.00000
     50       4.8858      0.00000
     51       5.5457      0.00000
     52       5.8634      0.00000
     53       6.1122      0.00000
     54       6.3720      0.00000
     55       6.6808      0.00000

 k-point    24 :      -0.1667    0.0000    0.2000
  band No.  band energies     occupation 
      1     -13.9677      1.00000
      2     -13.7117      1.00000
      3     -12.8853      1.00000
      4     -12.7366      1.00000
      5     -11.1337      1.00000
      6     -11.0818      1.00000
      7     -10.6849      1.00000
      8     -10.4667      1.00000
      9      -9.5412      1.00000
     10      -9.4388      1.00000
     11      -7.2198      1.00000
     12      -7.1237      1.00000
     13      -5.4249      1.00000
     14      -5.2204      1.00000
     15      -4.7990      1.00000
     16      -4.2830      1.00000
     17      -3.6744      1.00000
     18      -3.5155      1.00000
     19      -3.0768      1.00000
     20      -2.8821      1.00000
     21      -2.6509      1.00000
     22      -2.4373      1.00000
     23      -2.2330      1.00000
     24      -2.1544      1.00000
     25      -1.7339      1.00000
     26      -1.5356      1.00000
     27      -1.2381      1.00000
     28      -0.9472      1.00000
     29      -0.6830      1.00000
     30      -0.4340      1.00000
     31      -0.2944      1.00000
     32      -0.1297      1.00000
     33       0.1991      1.00000
     34       0.4374      1.00000
     35       0.6292      1.00000
     36       0.7834      1.00000
     37       1.0169      1.00000
     38       1.1510      1.00000
     39       1.3126      1.00000
     40       1.3737      0.99998
     41       1.9229      0.00000
     42       2.0128      0.00000
     43       2.6066      0.00000
     44       2.6324      0.00000
     45       3.3604      0.00000
     46       3.5852      0.00000
     47       4.0012      0.00000
     48       4.1888      0.00000
     49       4.5677      0.00000
     50       4.8931      0.00000
     51       5.6187      0.00000
     52       5.8937      0.00000
     53       6.1773      0.00000
     54       6.3932      0.00000
     55       6.5594      0.00000

 k-point    25 :       0.0000   -0.1667    0.2000
  band No.  band energies     occupation 
      1     -13.9710      1.00000
      2     -13.7139      1.00000
      3     -12.8825      1.00000
      4     -12.7368      1.00000
      5     -11.1288      1.00000
      6     -11.0666      1.00000
      7     -10.6881      1.00000
      8     -10.4508      1.00000
      9      -9.5339      1.00000
     10      -9.4611      1.00000
     11      -7.2706      1.00000
     12      -7.1578      1.00000
     13      -5.3834      1.00000
     14      -5.2495      1.00000
     15      -4.8092      1.00000
     16      -4.2753      1.00000
     17      -3.5992      1.00000
     18      -3.4886      1.00000
     19      -3.1321      1.00000
     20      -2.7968      1.00000
     21      -2.7866      1.00000
     22      -2.2963      1.00000
     23      -2.2260      1.00000
     24      -2.1486      1.00000
     25      -1.6074      1.00000
     26      -1.5773      1.00000
     27      -1.2047      1.00000
     28      -0.9314      1.00000
     29      -0.7938      1.00000
     30      -0.4916      1.00000
     31      -0.3244      1.00000
     32      -0.1816      1.00000
     33       0.3177      1.00000
     34       0.4651      1.00000
     35       0.5662      1.00000
     36       0.8983      1.00000
     37       1.0262      1.00000
     38       1.1652      1.00000
     39       1.2699      1.00000
     40       1.3770      0.99997
     41       1.8057      0.00000
     42       1.8946      0.00000
     43       2.6184      0.00000
     44       2.6504      0.00000
     45       3.3053      0.00000
     46       3.6057      0.00000
     47       4.0475      0.00000
     48       4.1920      0.00000
     49       4.5128      0.00000
     50       4.8566      0.00000
     51       5.5195      0.00000
     52       5.8966      0.00000
     53       6.2300      0.00000
     54       6.2882      0.00000
     55       6.6068      0.00000

 k-point    26 :       0.3333    0.0000    0.2000
  band No.  band energies     occupation 
      1     -13.9505      1.00000
      2     -13.7004      1.00000
      3     -12.9057      1.00000
      4     -12.7424      1.00000
      5     -11.1647      1.00000
      6     -11.1276      1.00000
      7     -10.6508      1.00000
      8     -10.4676      1.00000
      9      -9.5638      1.00000
     10      -9.4154      1.00000
     11      -7.1835      1.00000
     12      -7.1083      1.00000
     13      -5.3775      1.00000
     14      -5.0566      1.00000
     15      -4.7668      1.00000
     16      -4.3101      1.00000
     17      -3.7171      1.00000
     18      -3.5780      1.00000
     19      -3.0165      1.00000
     20      -2.9011      1.00000
     21      -2.6413      1.00000
     22      -2.5761      1.00000
     23      -2.3577      1.00000
     24      -1.9574      1.00000
     25      -1.8383      1.00000
     26      -1.5446      1.00000
     27      -1.2018      1.00000
     28      -0.9221      1.00000
     29      -0.6297      1.00000
     30      -0.5129      1.00000
     31      -0.3239      1.00000
     32      -0.2749      1.00000
     33       0.3344      1.00000
     34       0.3767      1.00000
     35       0.6382      1.00000
     36       0.6733      1.00000
     37       0.9294      1.00000
     38       1.0849      1.00000
     39       1.3291      1.00000
     40       1.4200      0.99745
     41       1.9335      0.00000
     42       1.9630      0.00000
     43       2.4365      0.00000
     44       2.5118      0.00000
     45       3.4310      0.00000
     46       3.5836      0.00000
     47       4.1764      0.00000
     48       4.4489      0.00000
     49       4.7102      0.00000
     50       4.8966      0.00000
     51       5.6665      0.00000
     52       5.9779      0.00000
     53       6.2589      0.00000
     54       6.3632      0.00000
     55       6.5507      0.00000

 k-point    27 :       0.0000    0.3333    0.2000
  band No.  band energies     occupation 
      1     -13.9612      1.00000
      2     -13.7066      1.00000
      3     -12.8964      1.00000
      4     -12.7431      1.00000
      5     -11.1551      1.00000
      6     -11.0801      1.00000
      7     -10.6554      1.00000
      8     -10.4270      1.00000
      9      -9.5482      1.00000
     10      -9.4688      1.00000
     11      -7.3214      1.00000
     12      -7.2244      1.00000
     13      -5.2857      1.00000
     14      -5.1151      1.00000
     15      -4.7983      1.00000
     16      -4.2970      1.00000
     17      -3.5617      1.00000
     18      -3.5337      1.00000
     19      -3.0392      1.00000
     20      -2.7720      1.00000
     21      -2.7587      1.00000
     22      -2.2831      1.00000
     23      -2.2525      1.00000
     24      -2.0658      1.00000
     25      -1.7052      1.00000
     26      -1.5563      1.00000
     27      -1.2438      1.00000
     28      -0.8321      1.00000
     29      -0.7257      1.00000
     30      -0.6885      1.00000
     31      -0.3026      1.00000
     32      -0.1426      1.00000
     33       0.2469      1.00000
     34       0.5474      1.00000
     35       0.5955      1.00000
     36       0.7958      1.00000
     37       0.8527      1.00000
     38       1.0692      1.00000
     39       1.2198      1.00000
     40       1.3537      1.00000
     41       1.6381      0.00038
     42       1.7863      0.00000
     43       2.5165      0.00000
     44       2.5260      0.00000
     45       3.1960      0.00000
     46       3.6798      0.00000
     47       4.2268      0.00000
     48       4.4886      0.00000
     49       4.8046      0.00000
     50       4.8309      0.00000
     51       5.5506      0.00000
     52       5.9042      0.00000
     53       5.9738      0.00000
     54       6.2158      0.00000
     55       6.6977      0.00000

 k-point    28 :      -0.3333    0.0000    0.2000
  band No.  band energies     occupation 
      1     -13.9505      1.00000
      2     -13.7004      1.00000
      3     -12.9057      1.00000
      4     -12.7424      1.00000
      5     -11.1647      1.00000
      6     -11.1276      1.00000
      7     -10.6508      1.00000
      8     -10.4676      1.00000
      9      -9.5638      1.00000
     10      -9.4154      1.00000
     11      -7.1835      1.00000
     12      -7.1083      1.00000
     13      -5.3775      1.00000
     14      -5.0566      1.00000
     15      -4.7668      1.00000
     16      -4.3101      1.00000
     17      -3.7171      1.00000
     18      -3.5780      1.00000
     19      -3.0165      1.00000
     20      -2.9011      1.00000
     21      -2.6413      1.00000
     22      -2.5761      1.00000
     23      -2.3577      1.00000
     24      -1.9574      1.00000
     25      -1.8383      1.00000
     26      -1.5446      1.00000
     27      -1.2018      1.00000
     28      -0.9221      1.00000
     29      -0.6297      1.00000
     30      -0.5129      1.00000
     31      -0.3239      1.00000
     32      -0.2749      1.00000
     33       0.3344      1.00000
     34       0.3767      1.00000
     35       0.6382      1.00000
     36       0.6733      1.00000
     37       0.9294      1.00000
     38       1.0849      1.00000
     39       1.3291      1.00000
     40       1.4200      0.99745
     41       1.9335      0.00000
     42       1.9630      0.00000
     43       2.4365      0.00000
     44       2.5118      0.00000
     45       3.4310      0.00000
     46       3.5836      0.00000
     47       4.1764      0.00000
     48       4.4489      0.00000
     49       4.7102      0.00000
     50       4.8966      0.00000
     51       5.6665      0.00000
     52       5.9779      0.00000
     53       6.2589      0.00000
     54       6.3632      0.00000
     55       6.5511      0.00000

 k-point    29 :       0.0000   -0.3333    0.2000
  band No.  band energies     occupation 
      1     -13.9609      1.00000
      2     -13.7069      1.00000
      3     -12.8967      1.00000
      4     -12.7427      1.00000
      5     -11.1539      1.00000
      6     -11.0816      1.00000
      7     -10.6560      1.00000
      8     -10.4254      1.00000
      9      -9.5470      1.00000
     10      -9.4702      1.00000
     11      -7.3324      1.00000
     12      -7.2172      1.00000
     13      -5.2731      1.00000
     14      -5.1163      1.00000
     15      -4.7926      1.00000
     16      -4.2916      1.00000
     17      -3.5809      1.00000
     18      -3.5284      1.00000
     19      -3.0576      1.00000
     20      -2.8789      1.00000
     21      -2.7202      1.00000
     22      -2.2420      1.00000
     23      -2.2258      1.00000
     24      -2.0673      1.00000
     25      -1.6208      1.00000
     26      -1.5488      1.00000
     27      -1.2432      1.00000
     28      -0.8561      1.00000
     29      -0.7885      1.00000
     30      -0.6158      1.00000
     31      -0.3313      1.00000
     32      -0.2577      1.00000
     33       0.3009      1.00000
     34       0.4759      1.00000
     35       0.5468      1.00000
     36       0.9153      1.00000
     37       0.9301      1.00000
     38       1.0754      1.00000
     39       1.1910      1.00000
     40       1.3756      0.99997
     41       1.6249      0.00136
     42       1.7347      0.00000
     43       2.5357      0.00000
     44       2.5487      0.00000
     45       3.2242      0.00000
     46       3.6592      0.00000
     47       4.2462      0.00000
     48       4.4744      0.00000
     49       4.6758      0.00000
     50       4.8560      0.00000
     51       5.5372      0.00000
     52       5.9303      0.00000
     53       6.0959      0.00000
     54       6.1203      0.00000
     55       6.6111      0.00000

 k-point    30 :       0.5000    0.0000    0.2000
  band No.  band energies     occupation 
      1     -13.9416      1.00000
      2     -13.6946      1.00000
      3     -12.9163      1.00000
      4     -12.7455      1.00000
      5     -11.1762      1.00000
      6     -11.1520      1.00000
      7     -10.6355      1.00000
      8     -10.4666      1.00000
      9      -9.5752      1.00000
     10      -9.4077      1.00000
     11      -7.1533      1.00000
     12      -7.1039      1.00000
     13      -5.3643      1.00000
     14      -4.9896      1.00000
     15      -4.7390      1.00000
     16      -4.3255      1.00000
     17      -3.7283      1.00000
     18      -3.5302      1.00000
     19      -3.0291      1.00000
     20      -2.9471      1.00000
     21      -2.7491      1.00000
     22      -2.5972      1.00000
     23      -2.2557      1.00000
     24      -2.0664      1.00000
     25      -1.7582      1.00000
     26      -1.5459      1.00000
     27      -1.1858      1.00000
     28      -0.9559      1.00000
     29      -0.6303      1.00000
     30      -0.5647      1.00000
     31      -0.4154      1.00000
     32      -0.2226      1.00000
     33       0.3027      1.00000
     34       0.4609      1.00000
     35       0.6352      1.00000
     36       0.6668      1.00000
     37       0.9413      1.00000
     38       1.0197      1.00000
     39       1.3449      1.00000
     40       1.4383      0.98879
     41       1.8874      0.00000
     42       1.9284      0.00000
     43       2.3482      0.00000
     44       2.4510      0.00000
     45       3.4519      0.00000
     46       3.5972      0.00000
     47       4.2644      0.00000
     48       4.6041      0.00000
     49       4.7326      0.00000
     50       4.9483      0.00000
     51       5.5753      0.00000
     52       5.8877      0.00000
     53       6.3725      0.00000
     54       6.6140      0.00000
     55       6.6316      0.00000

 k-point    31 :       0.0000    0.5000    0.2000
  band No.  band energies     occupation 
      1     -13.9559      1.00000
      2     -13.7032      1.00000
      3     -12.9038      1.00000
      4     -12.7459      1.00000
      5     -11.1661      1.00000
      6     -11.0880      1.00000
      7     -10.6402      1.00000
      8     -10.4135      1.00000
      9      -9.5546      1.00000
     10      -9.4743      1.00000
     11      -7.3556      1.00000
     12      -7.2484      1.00000
     13      -5.2325      1.00000
     14      -5.0483      1.00000
     15      -4.7775      1.00000
     16      -4.3032      1.00000
     17      -3.6117      1.00000
     18      -3.4866      1.00000
     19      -3.0131      1.00000
     20      -2.8816      1.00000
     21      -2.7198      1.00000
     22      -2.2166      1.00000
     23      -2.2038      1.00000
     24      -2.0839      1.00000
     25      -1.6191      1.00000
     26      -1.6188      1.00000
     27      -1.2033      1.00000
     28      -0.8246      1.00000
     29      -0.7663      1.00000
     30      -0.6685      1.00000
     31      -0.3151      1.00000
     32      -0.2652      1.00000
     33       0.2787      1.00000
     34       0.5000      1.00000
     35       0.5614      1.00000
     36       0.8290      1.00000
     37       0.8707      1.00000
     38       1.0238      1.00000
     39       1.1551      1.00000
     40       1.3671      0.99999
     41       1.5491      0.19678
     42       1.7031      0.00000
     43       2.4717      0.00000
     44       2.4986      0.00000
     45       3.1905      0.00000
     46       3.6917      0.00000
     47       4.2964      0.00000
     48       4.6019      0.00000
     49       4.8769      0.00000
     50       4.8799      0.00000
     51       5.5059      0.00000
     52       5.8203      0.00000
     53       5.9949      0.00000
     54       6.2145      0.00000
     55       6.6443      0.00000

 k-point    32 :       0.1667    0.1667    0.2000
  band No.  band energies     occupation 
      1     -13.9636      1.00000
      2     -13.7086      1.00000
      3     -12.8896      1.00000
      4     -12.7381      1.00000
      5     -11.1478      1.00000
      6     -11.0862      1.00000
      7     -10.6791      1.00000
      8     -10.4566      1.00000
      9      -9.5460      1.00000
     10      -9.4423      1.00000
     11      -7.2514      1.00000
     12      -7.1208      1.00000
     13      -5.4125      1.00000
     14      -5.1577      1.00000
     15      -4.7966      1.00000
     16      -4.2885      1.00000
     17      -3.6651      1.00000
     18      -3.5199      1.00000
     19      -3.0700      1.00000
     20      -2.8713      1.00000
     21      -2.5697      1.00000
     22      -2.4078      1.00000
     23      -2.2774      1.00000
     24      -2.1696      1.00000
     25      -1.7665      1.00000
     26      -1.4887      1.00000
     27      -1.2268      1.00000
     28      -0.9040      1.00000
     29      -0.7337      1.00000
     30      -0.5160      1.00000
     31      -0.2643      1.00000
     32      -0.1047      1.00000
     33       0.1871      1.00000
     34       0.4460      1.00000
     35       0.6576      1.00000
     36       0.7613      1.00000
     37       0.9721      1.00000
     38       1.0817      1.00000
     39       1.2620      1.00000
     40       1.3660      0.99999
     41       1.8370      0.00000
     42       1.9390      0.00000
     43       2.5527      0.00000
     44       2.5848      0.00000
     45       3.3192      0.00000
     46       3.6351      0.00000
     47       4.0316      0.00000
     48       4.2777      0.00000
     49       4.6935      0.00000
     50       4.9082      0.00000
     51       5.6685      0.00000
     52       5.8520      0.00000
     53       5.9960      0.00000
     54       6.5290      0.00000
     55       6.6210      0.00000

 k-point    33 :      -0.1667    0.1667    0.2000
  band No.  band energies     occupation 
      1     -13.9636      1.00000
      2     -13.7086      1.00000
      3     -12.8896      1.00000
      4     -12.7381      1.00000
      5     -11.1478      1.00000
      6     -11.0862      1.00000
      7     -10.6791      1.00000
      8     -10.4566      1.00000
      9      -9.5460      1.00000
     10      -9.4423      1.00000
     11      -7.2514      1.00000
     12      -7.1208      1.00000
     13      -5.4125      1.00000
     14      -5.1577      1.00000
     15      -4.7966      1.00000
     16      -4.2885      1.00000
     17      -3.6651      1.00000
     18      -3.5199      1.00000
     19      -3.0700      1.00000
     20      -2.8713      1.00000
     21      -2.5697      1.00000
     22      -2.4078      1.00000
     23      -2.2774      1.00000
     24      -2.1696      1.00000
     25      -1.7665      1.00000
     26      -1.4887      1.00000
     27      -1.2268      1.00000
     28      -0.9040      1.00000
     29      -0.7337      1.00000
     30      -0.5160      1.00000
     31      -0.2643      1.00000
     32      -0.1047      1.00000
     33       0.1871      1.00000
     34       0.4460      1.00000
     35       0.6576      1.00000
     36       0.7613      1.00000
     37       0.9721      1.00000
     38       1.0817      1.00000
     39       1.2620      1.00000
     40       1.3660      0.99999
     41       1.8370      0.00000
     42       1.9390      0.00000
     43       2.5527      0.00000
     44       2.5848      0.00000
     45       3.3192      0.00000
     46       3.6351      0.00000
     47       4.0316      0.00000
     48       4.2777      0.00000
     49       4.6935      0.00000
     50       4.9082      0.00000
     51       5.6685      0.00000
     52       5.8520      0.00000
     53       5.9960      0.00000
     54       6.5285      0.00000
     55       6.6149      0.00000

 k-point    34 :      -0.1667   -0.1667    0.2000
  band No.  band energies     occupation 
      1     -13.9634      1.00000
      2     -13.7089      1.00000
      3     -12.8899      1.00000
      4     -12.7377      1.00000
      5     -11.1486      1.00000
      6     -11.0856      1.00000
      7     -10.6800      1.00000
      8     -10.4549      1.00000
      9      -9.5462      1.00000
     10      -9.4422      1.00000
     11      -7.2601      1.00000
     12      -7.1147      1.00000
     13      -5.4020      1.00000
     14      -5.1578      1.00000
     15      -4.8092      1.00000
     16      -4.2791      1.00000
     17      -3.6601      1.00000
     18      -3.5114      1.00000
     19      -3.0664      1.00000
     20      -2.8575      1.00000
     21      -2.7264      1.00000
     22      -2.4387      1.00000
     23      -2.1795      1.00000
     24      -2.1261      1.00000
     25      -1.6613      1.00000
     26      -1.4792      1.00000
     27      -1.2677      1.00000
     28      -0.9591      1.00000
     29      -0.7440      1.00000
     30      -0.4662      1.00000
     31      -0.2733      1.00000
     32      -0.1968      1.00000
     33       0.2214      1.00000
     34       0.4332      1.00000
     35       0.5738      1.00000
     36       0.7908      1.00000
     37       0.9933      1.00000
     38       1.1582      1.00000
     39       1.2780      1.00000
     40       1.3571      1.00000
     41       1.8410      0.00000
     42       1.9058      0.00000
     43       2.5536      0.00000
     44       2.6196      0.00000
     45       3.3569      0.00000
     46       3.6255      0.00000
     47       3.9469      0.00000
     48       4.3643      0.00000
     49       4.6019      0.00000
     50       4.9041      0.00000
     51       5.6418      0.00000
     52       5.9437      0.00000
     53       6.0206      0.00000
     54       6.3991      0.00000
     55       6.6080      0.00000

 k-point    35 :       0.1667   -0.1667    0.2000
  band No.  band energies     occupation 
      1     -13.9634      1.00000
      2     -13.7089      1.00000
      3     -12.8899      1.00000
      4     -12.7377      1.00000
      5     -11.1486      1.00000
      6     -11.0856      1.00000
      7     -10.6800      1.00000
      8     -10.4549      1.00000
      9      -9.5462      1.00000
     10      -9.4422      1.00000
     11      -7.2601      1.00000
     12      -7.1147      1.00000
     13      -5.4020      1.00000
     14      -5.1578      1.00000
     15      -4.8092      1.00000
     16      -4.2791      1.00000
     17      -3.6601      1.00000
     18      -3.5114      1.00000
     19      -3.0664      1.00000
     20      -2.8575      1.00000
     21      -2.7264      1.00000
     22      -2.4387      1.00000
     23      -2.1795      1.00000
     24      -2.1261      1.00000
     25      -1.6613      1.00000
     26      -1.4792      1.00000
     27      -1.2677      1.00000
     28      -0.9591      1.00000
     29      -0.7440      1.00000
     30      -0.4662      1.00000
     31      -0.2733      1.00000
     32      -0.1968      1.00000
     33       0.2214      1.00000
     34       0.4332      1.00000
     35       0.5738      1.00000
     36       0.7908      1.00000
     37       0.9933      1.00000
     38       1.1582      1.00000
     39       1.2780      1.00000
     40       1.3571      1.00000
     41       1.8410      0.00000
     42       1.9058      0.00000
     43       2.5536      0.00000
     44       2.6196      0.00000
     45       3.3569      0.00000
     46       3.6255      0.00000
     47       3.9469      0.00000
     48       4.3643      0.00000
     49       4.6019      0.00000
     50       4.9041      0.00000
     51       5.6418      0.00000
     52       5.9437      0.00000
     53       6.0206      0.00000
     54       6.3991      0.00000
     55       6.6080      0.00000

 k-point    36 :       0.3333    0.1667    0.2000
  band No.  band energies     occupation 
      1     -13.9479      1.00000
      2     -13.6985      1.00000
      3     -12.9048      1.00000
      4     -12.7406      1.00000
      5     -11.1783      1.00000
      6     -11.1283      1.00000
      7     -10.6648      1.00000
      8     -10.4648      1.00000
      9      -9.5635      1.00000
     10      -9.4160      1.00000
     11      -7.1899      1.00000
     12      -7.0721      1.00000
     13      -5.3934      1.00000
     14      -5.0514      1.00000
     15      -4.7596      1.00000
     16      -4.3035      1.00000
     17      -3.7362      1.00000
     18      -3.5697      1.00000
     19      -3.0008      1.00000
     20      -2.9147      1.00000
     21      -2.6458      1.00000
     22      -2.4444      1.00000
     23      -2.3491      1.00000
     24      -2.0469      1.00000
     25      -1.7625      1.00000
     26      -1.5687      1.00000
     27      -1.1801      1.00000
     28      -0.9418      1.00000
     29      -0.6550      1.00000
     30      -0.5005      1.00000
     31      -0.3444      1.00000
     32      -0.1991      1.00000
     33       0.2871      1.00000
     34       0.3463      1.00000
     35       0.6659      1.00000
     36       0.7023      1.00000
     37       0.9067      1.00000
     38       1.0160      1.00000
     39       1.2630      1.00000
     40       1.4204      0.99735
     41       1.8190      0.00000
     42       1.9079      0.00000
     43       2.4346      0.00000
     44       2.4806      0.00000
     45       3.4295      0.00000
     46       3.5780      0.00000
     47       4.0984      0.00000
     48       4.4532      0.00000
     49       4.7679      0.00000
     50       4.9636      0.00000
     51       5.6182      0.00000
     52       6.0364      0.00000
     53       6.2012      0.00000
     54       6.5205      0.00000
     55       6.6219      0.00000

 k-point    37 :      -0.1667    0.3333    0.2000
  band No.  band energies     occupation 
      1     -13.9550      1.00000
      2     -13.7027      1.00000
      3     -12.8986      1.00000
      4     -12.7408      1.00000
      5     -11.1741      1.00000
      6     -11.0958      1.00000
      7     -10.6668      1.00000
      8     -10.4373      1.00000
      9      -9.5558      1.00000
     10      -9.4498      1.00000
     11      -7.2846      1.00000
     12      -7.1492      1.00000
     13      -5.3367      1.00000
     14      -5.0740      1.00000
     15      -4.7979      1.00000
     16      -4.2951      1.00000
     17      -3.6476      1.00000
     18      -3.4954      1.00000
     19      -3.0446      1.00000
     20      -2.8943      1.00000
     21      -2.6019      1.00000
     22      -2.3333      1.00000
     23      -2.2602      1.00000
     24      -2.0834      1.00000
     25      -1.7309      1.00000
     26      -1.4747      1.00000
     27      -1.2368      1.00000
     28      -0.9100      1.00000
     29      -0.7280      1.00000
     30      -0.6008      1.00000
     31      -0.3085      1.00000
     32      -0.1549      1.00000
     33       0.2159      1.00000
     34       0.4535      1.00000
     35       0.6414      1.00000
     36       0.7369      1.00000
     37       0.9140      1.00000
     38       1.0319      1.00000
     39       1.1548      1.00000
     40       1.3629      0.99999
     41       1.6496      0.00011
     42       1.7890      0.00000
     43       2.4478      0.00000
     44       2.5233      0.00000
     45       3.2719      0.00000
     46       3.6767      0.00000
     47       4.2084      0.00000
     48       4.4152      0.00000
     49       4.7772      0.00000
     50       4.9429      0.00000
     51       5.6105      0.00000
     52       5.8932      0.00000
     53       6.0672      0.00000
     54       6.4495      0.00000
     55       6.6398      0.00000

 k-point    38 :      -0.3333   -0.1667    0.2000
  band No.  band energies     occupation 
      1     -13.9477      1.00000
      2     -13.6987      1.00000
      3     -12.9051      1.00000
      4     -12.7401      1.00000
      5     -11.1815      1.00000
      6     -11.1257      1.00000
      7     -10.6653      1.00000
      8     -10.4631      1.00000
      9      -9.5662      1.00000
     10      -9.4136      1.00000
     11      -7.1950      1.00000
     12      -7.0660      1.00000
     13      -5.3865      1.00000
     14      -5.0686      1.00000
     15      -4.7797      1.00000
     16      -4.2897      1.00000
     17      -3.6958      1.00000
     18      -3.5580      1.00000
     19      -3.0008      1.00000
     20      -2.9106      1.00000
     21      -2.7024      1.00000
     22      -2.5427      1.00000
     23      -2.3078      1.00000
     24      -1.9169      1.00000
     25      -1.7998      1.00000
     26      -1.4869      1.00000
     27      -1.2477      1.00000
     28      -0.9460      1.00000
     29      -0.6721      1.00000
     30      -0.5126      1.00000
     31      -0.3442      1.00000
     32      -0.2139      1.00000
     33       0.2675      1.00000
     34       0.3850      1.00000
     35       0.5604      1.00000
     36       0.6692      1.00000
     37       0.9375      1.00000
     38       1.1091      1.00000
     39       1.2882      1.00000
     40       1.3787      0.99996
     41       1.8452      0.00000
     42       1.8856      0.00000
     43       2.4413      0.00000
     44       2.5122      0.00000
     45       3.4332      0.00000
     46       3.5922      0.00000
     47       4.0509      0.00000
     48       4.5121      0.00000
     49       4.7066      0.00000
     50       4.9632      0.00000
     51       5.6965      0.00000
     52       6.0567      0.00000
     53       6.2206      0.00000
     54       6.4527      0.00000
     55       6.6114      0.00000

 k-point    39 :       0.1667   -0.3333    0.2000
  band No.  band energies     occupation 
      1     -13.9547      1.00000
      2     -13.7030      1.00000
      3     -12.8989      1.00000
      4     -12.7404      1.00000
      5     -11.1748      1.00000
      6     -11.0953      1.00000
      7     -10.6676      1.00000
      8     -10.4356      1.00000
      9      -9.5560      1.00000
     10      -9.4497      1.00000
     11      -7.2922      1.00000
     12      -7.1442      1.00000
     13      -5.3223      1.00000
     14      -5.0788      1.00000
     15      -4.8109      1.00000
     16      -4.2808      1.00000
     17      -3.6494      1.00000
     18      -3.4821      1.00000
     19      -3.0523      1.00000
     20      -2.8810      1.00000
     21      -2.7406      1.00000
     22      -2.3760      1.00000
     23      -2.1409      1.00000
     24      -2.0412      1.00000
     25      -1.6234      1.00000
     26      -1.4745      1.00000
     27      -1.2886      1.00000
     28      -0.9597      1.00000
     29      -0.7192      1.00000
     30      -0.5649      1.00000
     31      -0.3834      1.00000
     32      -0.1958      1.00000
     33       0.2343      1.00000
     34       0.4950      1.00000
     35       0.5217      1.00000
     36       0.8025      1.00000
     37       0.9215      1.00000
     38       1.1100      1.00000
     39       1.1537      1.00000
     40       1.3350      1.00000
     41       1.6738      0.00001
     42       1.7455      0.00000
     43       2.4867      0.00000
     44       2.5283      0.00000
     45       3.2931      0.00000
     46       3.6746      0.00000
     47       4.1147      0.00000
     48       4.5106      0.00000
     49       4.6793      0.00000
     50       4.9578      0.00000
     51       5.6438      0.00000
     52       5.8827      0.00000
     53       6.1153      0.00000
     54       6.3429      0.00000
     55       6.6381      0.00000

 k-point    40 :      -0.3333    0.1667   -0.2000
  band No.  band energies     occupation 
      1     -13.9477      1.00000
      2     -13.6987      1.00000
      3     -12.9051      1.00000
      4     -12.7401      1.00000
      5     -11.1815      1.00000
      6     -11.1257      1.00000
      7     -10.6653      1.00000
      8     -10.4631      1.00000
      9      -9.5662      1.00000
     10      -9.4136      1.00000
     11      -7.1950      1.00000
     12      -7.0660      1.00000
     13      -5.3865      1.00000
     14      -5.0686      1.00000
     15      -4.7797      1.00000
     16      -4.2897      1.00000
     17      -3.6958      1.00000
     18      -3.5580      1.00000
     19      -3.0008      1.00000
     20      -2.9106      1.00000
     21      -2.7024      1.00000
     22      -2.5427      1.00000
     23      -2.3078      1.00000
     24      -1.9169      1.00000
     25      -1.7998      1.00000
     26      -1.4869      1.00000
     27      -1.2477      1.00000
     28      -0.9460      1.00000
     29      -0.6721      1.00000
     30      -0.5126      1.00000
     31      -0.3442      1.00000
     32      -0.2139      1.00000
     33       0.2675      1.00000
     34       0.3850      1.00000
     35       0.5604      1.00000
     36       0.6692      1.00000
     37       0.9375      1.00000
     38       1.1091      1.00000
     39       1.2882      1.00000
     40       1.3787      0.99996
     41       1.8452      0.00000
     42       1.8856      0.00000
     43       2.4413      0.00000
     44       2.5122      0.00000
     45       3.4332      0.00000
     46       3.5922      0.00000
     47       4.0509      0.00000
     48       4.5121      0.00000
     49       4.7066      0.00000
     50       4.9632      0.00000
     51       5.6965      0.00000
     52       6.0567      0.00000
     53       6.2206      0.00000
     54       6.4527      0.00000
     55       6.6114      0.00000

 k-point    41 :       0.1667    0.3333   -0.2000
  band No.  band energies     occupation 
      1     -13.9547      1.00000
      2     -13.7030      1.00000
      3     -12.8989      1.00000
      4     -12.7404      1.00000
      5     -11.1748      1.00000
      6     -11.0953      1.00000
      7     -10.6676      1.00000
      8     -10.4356      1.00000
      9      -9.5560      1.00000
     10      -9.4497      1.00000
     11      -7.2922      1.00000
     12      -7.1442      1.00000
     13      -5.3223      1.00000
     14      -5.0788      1.00000
     15      -4.8109      1.00000
     16      -4.2808      1.00000
     17      -3.6494      1.00000
     18      -3.4821      1.00000
     19      -3.0523      1.00000
     20      -2.8810      1.00000
     21      -2.7406      1.00000
     22      -2.3760      1.00000
     23      -2.1409      1.00000
     24      -2.0412      1.00000
     25      -1.6234      1.00000
     26      -1.4745      1.00000
     27      -1.2886      1.00000
     28      -0.9597      1.00000
     29      -0.7192      1.00000
     30      -0.5649      1.00000
     31      -0.3834      1.00000
     32      -0.1958      1.00000
     33       0.2343      1.00000
     34       0.4950      1.00000
     35       0.5217      1.00000
     36       0.8025      1.00000
     37       0.9215      1.00000
     38       1.1100      1.00000
     39       1.1537      1.00000
     40       1.3350      1.00000
     41       1.6738      0.00001
     42       1.7455      0.00000
     43       2.4867      0.00000
     44       2.5283      0.00000
     45       3.2931      0.00000
     46       3.6746      0.00000
     47       4.1147      0.00000
     48       4.5106      0.00000
     49       4.6793      0.00000
     50       4.9578      0.00000
     51       5.6438      0.00000
     52       5.8827      0.00000
     53       6.1153      0.00000
     54       6.3429      0.00000
     55       6.6362      0.00000

 k-point    42 :       0.3333   -0.1667   -0.2000
  band No.  band energies     occupation 
      1     -13.9479      1.00000
      2     -13.6985      1.00000
      3     -12.9048      1.00000
      4     -12.7406      1.00000
      5     -11.1783      1.00000
      6     -11.1283      1.00000
      7     -10.6648      1.00000
      8     -10.4648      1.00000
      9      -9.5635      1.00000
     10      -9.4160      1.00000
     11      -7.1899      1.00000
     12      -7.0721      1.00000
     13      -5.3934      1.00000
     14      -5.0514      1.00000
     15      -4.7596      1.00000
     16      -4.3035      1.00000
     17      -3.7362      1.00000
     18      -3.5697      1.00000
     19      -3.0008      1.00000
     20      -2.9147      1.00000
     21      -2.6458      1.00000
     22      -2.4444      1.00000
     23      -2.3491      1.00000
     24      -2.0469      1.00000
     25      -1.7625      1.00000
     26      -1.5687      1.00000
     27      -1.1801      1.00000
     28      -0.9418      1.00000
     29      -0.6550      1.00000
     30      -0.5005      1.00000
     31      -0.3444      1.00000
     32      -0.1991      1.00000
     33       0.2871      1.00000
     34       0.3463      1.00000
     35       0.6659      1.00000
     36       0.7023      1.00000
     37       0.9067      1.00000
     38       1.0160      1.00000
     39       1.2630      1.00000
     40       1.4204      0.99735
     41       1.8190      0.00000
     42       1.9079      0.00000
     43       2.4346      0.00000
     44       2.4806      0.00000
     45       3.4295      0.00000
     46       3.5780      0.00000
     47       4.0984      0.00000
     48       4.4532      0.00000
     49       4.7679      0.00000
     50       4.9636      0.00000
     51       5.6182      0.00000
     52       6.0364      0.00000
     53       6.2012      0.00000
     54       6.5205      0.00000
     55       6.6215      0.00000

 k-point    43 :      -0.1667   -0.3333   -0.2000
  band No.  band energies     occupation 
      1     -13.9550      1.00000
      2     -13.7027      1.00000
      3     -12.8986      1.00000
      4     -12.7408      1.00000
      5     -11.1741      1.00000
      6     -11.0958      1.00000
      7     -10.6668      1.00000
      8     -10.4373      1.00000
      9      -9.5558      1.00000
     10      -9.4498      1.00000
     11      -7.2846      1.00000
     12      -7.1492      1.00000
     13      -5.3367      1.00000
     14      -5.0740      1.00000
     15      -4.7979      1.00000
     16      -4.2951      1.00000
     17      -3.6476      1.00000
     18      -3.4954      1.00000
     19      -3.0446      1.00000
     20      -2.8943      1.00000
     21      -2.6019      1.00000
     22      -2.3333      1.00000
     23      -2.2602      1.00000
     24      -2.0834      1.00000
     25      -1.7309      1.00000
     26      -1.4747      1.00000
     27      -1.2368      1.00000
     28      -0.9100      1.00000
     29      -0.7280      1.00000
     30      -0.6008      1.00000
     31      -0.3085      1.00000
     32      -0.1549      1.00000
     33       0.2159      1.00000
     34       0.4535      1.00000
     35       0.6414      1.00000
     36       0.7369      1.00000
     37       0.9140      1.00000
     38       1.0319      1.00000
     39       1.1548      1.00000
     40       1.3629      0.99999
     41       1.6496      0.00011
     42       1.7890      0.00000
     43       2.4478      0.00000
     44       2.5233      0.00000
     45       3.2719      0.00000
     46       3.6767      0.00000
     47       4.2084      0.00000
     48       4.4152      0.00000
     49       4.7772      0.00000
     50       4.9429      0.00000
     51       5.6105      0.00000
     52       5.8932      0.00000
     53       6.0672      0.00000
     54       6.4495      0.00000
     55       6.6398      0.00000

 k-point    44 :       0.5000    0.1667    0.2000
  band No.  band energies     occupation 
      1     -13.9397      1.00000
      2     -13.6933      1.00000
      3     -12.9127      1.00000
      4     -12.7421      1.00000
      5     -11.1901      1.00000
      6     -11.1508      1.00000
      7     -10.6578      1.00000
      8     -10.4697      1.00000
      9      -9.5713      1.00000
     10      -9.4058      1.00000
     11      -7.1291      1.00000
     12      -7.0741      1.00000
     13      -5.3805      1.00000
     14      -5.0195      1.00000
     15      -4.7308      1.00000
     16      -4.3136      1.00000
     17      -3.7667      1.00000
     18      -3.5422      1.00000
     19      -2.9861      1.00000
     20      -2.9308      1.00000
     21      -2.7946      1.00000
     22      -2.4696      1.00000
     23      -2.2026      1.00000
     24      -2.0170      1.00000
     25      -1.8976      1.00000
     26      -1.4803      1.00000
     27      -1.2035      1.00000
     28      -1.0057      1.00000
     29      -0.5924      1.00000
     30      -0.5359      1.00000
     31      -0.4056      1.00000
     32      -0.2006      1.00000
     33       0.2508      1.00000
     34       0.4187      1.00000
     35       0.6656      1.00000
     36       0.7372      1.00000
     37       0.8860      1.00000
     38       0.9296      1.00000
     39       1.3312      1.00000
     40       1.4321      0.99298
     41       1.7567      0.00000
     42       1.8828      0.00000
     43       2.3636      0.00000
     44       2.4229      0.00000
     45       3.4638      0.00000
     46       3.5823      0.00000
     47       4.1791      0.00000
     48       4.4893      0.00000
     49       4.7328      0.00000
     50       4.9900      0.00000
     51       5.6784      0.00000
     52       6.0143      0.00000
     53       6.4279      0.00000
     54       6.6034      0.00000
     55       6.6805      0.00000

 k-point    45 :      -0.1667    0.5000    0.2000
  band No.  band energies     occupation 
      1     -13.9505      1.00000
      2     -13.6999      1.00000
      3     -12.9032      1.00000
      4     -12.7421      1.00000
      5     -11.1867      1.00000
      6     -11.1006      1.00000
      7     -10.6605      1.00000
      8     -10.4279      1.00000
      9      -9.5608      1.00000
     10      -9.4539      1.00000
     11      -7.2899      1.00000
     12      -7.1763      1.00000
     13      -5.2746      1.00000
     14      -5.0516      1.00000
     15      -4.8040      1.00000
     16      -4.2909      1.00000
     17      -3.6470      1.00000
     18      -3.4565      1.00000
     19      -3.0446      1.00000
     20      -2.9125      1.00000
     21      -2.7122      1.00000
     22      -2.2998      1.00000
     23      -2.1457      1.00000
     24      -1.9853      1.00000
     25      -1.6896      1.00000
     26      -1.5457      1.00000
     27      -1.2257      1.00000
     28      -0.9728      1.00000
     29      -0.6804      1.00000
     30      -0.5726      1.00000
     31      -0.4218      1.00000
     32      -0.2121      1.00000
     33       0.2372      1.00000
     34       0.4794      1.00000
     35       0.5838      1.00000
     36       0.7949      1.00000
     37       0.8805      1.00000
     38       1.0359      1.00000
     39       1.0790      1.00000
     40       1.3427      1.00000
     41       1.5757      0.05439
     42       1.7078      0.00000
     43       2.4107      0.00000
     44       2.4964      0.00000
     45       3.2572      0.00000
     46       3.6901      0.00000
     47       4.3014      0.00000
     48       4.5410      0.00000
     49       4.7423      0.00000
     50       4.8846      0.00000
     51       5.6283      0.00000
     52       6.0066      0.00000
     53       6.1296      0.00000
     54       6.3069      0.00000
     55       6.6276      0.00000

 k-point    46 :       0.5000   -0.1667    0.2000
  band No.  band energies     occupation 
      1     -13.9396      1.00000
      2     -13.6935      1.00000
      3     -12.9129      1.00000
      4     -12.7416      1.00000
      5     -11.1940      1.00000
      6     -11.1479      1.00000
      7     -10.6579      1.00000
      8     -10.4680      1.00000
      9      -9.5753      1.00000
     10      -9.4021      1.00000
     11      -7.1336      1.00000
     12      -7.0668      1.00000
     13      -5.3723      1.00000
     14      -5.0596      1.00000
     15      -4.7421      1.00000
     16      -4.2964      1.00000
     17      -3.7219      1.00000
     18      -3.5103      1.00000
     19      -3.0144      1.00000
     20      -2.9926      1.00000
     21      -2.6498      1.00000
     22      -2.6095      1.00000
     23      -2.2260      1.00000
     24      -2.0419      1.00000
     25      -1.6991      1.00000
     26      -1.5946      1.00000
     27      -1.1565      1.00000
     28      -0.9501      1.00000
     29      -0.6934      1.00000
     30      -0.6075      1.00000
     31      -0.3731      1.00000
     32      -0.1882      1.00000
     33       0.3453      1.00000
     34       0.3800      1.00000
     35       0.5688      1.00000
     36       0.6246      1.00000
     37       0.9244      1.00000
     38       1.0568      1.00000
     39       1.3237      1.00000
     40       1.3907      0.99986
     41       1.8084      0.00000
     42       1.8510      0.00000
     43       2.4104      0.00000
     44       2.4301      0.00000
     45       3.4590      0.00000
     46       3.5718      0.00000
     47       4.1953      0.00000
     48       4.4971      0.00000
     49       4.7554      0.00000
     50       4.9343      0.00000
     51       5.7642      0.00000
     52       6.1171      0.00000
     53       6.3404      0.00000
     54       6.6121      0.00000
     55       6.6708      0.00000

 k-point    47 :       0.1667    0.5000    0.2000
  band No.  band energies     occupation 
      1     -13.9505      1.00000
      2     -13.6999      1.00000
      3     -12.9032      1.00000
      4     -12.7421      1.00000
      5     -11.1867      1.00000
      6     -11.1006      1.00000
      7     -10.6605      1.00000
      8     -10.4279      1.00000
      9      -9.5608      1.00000
     10      -9.4539      1.00000
     11      -7.2899      1.00000
     12      -7.1763      1.00000
     13      -5.2746      1.00000
     14      -5.0516      1.00000
     15      -4.8040      1.00000
     16      -4.2909      1.00000
     17      -3.6470      1.00000
     18      -3.4565      1.00000
     19      -3.0446      1.00000
     20      -2.9125      1.00000
     21      -2.7122      1.00000
     22      -2.2998      1.00000
     23      -2.1457      1.00000
     24      -1.9853      1.00000
     25      -1.6896      1.00000
     26      -1.5457      1.00000
     27      -1.2257      1.00000
     28      -0.9728      1.00000
     29      -0.6804      1.00000
     30      -0.5726      1.00000
     31      -0.4218      1.00000
     32      -0.2121      1.00000
     33       0.2372      1.00000
     34       0.4794      1.00000
     35       0.5838      1.00000
     36       0.7949      1.00000
     37       0.8805      1.00000
     38       1.0359      1.00000
     39       1.0790      1.00000
     40       1.3427      1.00000
     41       1.5757      0.05439
     42       1.7078      0.00000
     43       2.4107      0.00000
     44       2.4964      0.00000
     45       3.2572      0.00000
     46       3.6901      0.00000
     47       4.3014      0.00000
     48       4.5410      0.00000
     49       4.7423      0.00000
     50       4.8846      0.00000
     51       5.6283      0.00000
     52       6.0066      0.00000
     53       6.1296      0.00000
     54       6.3070      0.00000
     55       6.6691      0.00000

 k-point    48 :       0.3333    0.3333    0.2000
  band No.  band energies     occupation 
      1     -13.9423      1.00000
      2     -13.6949      1.00000
      3     -12.9031      1.00000
      4     -12.7367      1.00000
      5     -11.2074      1.00000
      6     -11.1278      1.00000
      7     -10.6906      1.00000
      8     -10.4611      1.00000
      9      -9.5653      1.00000
     10      -9.4151      1.00000
     11      -7.1692      1.00000
     12      -7.0355      1.00000
     13      -5.3940      1.00000
     14      -5.0799      1.00000
     15      -4.7656      1.00000
     16      -4.2824      1.00000
     17      -3.7376      1.00000
     18      -3.5283      1.00000
     19      -3.0117      1.00000
     20      -2.9368      1.00000
     21      -2.6315      1.00000
     22      -2.3158      1.00000
     23      -2.1938      1.00000
     24      -2.1243      1.00000
     25      -1.7002      1.00000
     26      -1.5010      1.00000
     27      -1.2409      1.00000
     28      -1.0475      1.00000
     29      -0.6415      1.00000
     30      -0.4828      1.00000
     31      -0.3577      1.00000
     32      -0.1572      1.00000
     33       0.1737      1.00000
     34       0.3243      1.00000
     35       0.5815      1.00000
     36       0.7400      1.00000
     37       0.8755      1.00000
     38       1.0051      1.00000
     39       1.1542      1.00000
     40       1.4142      0.99848
     41       1.6350      0.00052
     42       1.8012      0.00000
     43       2.4080      0.00000
     44       2.4801      0.00000
     45       3.3969      0.00000
     46       3.6074      0.00000
     47       4.0251      0.00000
     48       4.3985      0.00000
     49       4.7641      0.00000
     50       4.9732      0.00000
     51       5.7790      0.00000
     52       6.2040      0.00000
     53       6.2691      0.00000
     54       6.5505      0.00000
     55       6.6665      0.00000

 k-point    49 :      -0.3333    0.3333    0.2000
  band No.  band energies     occupation 
      1     -13.9423      1.00000
      2     -13.6949      1.00000
      3     -12.9031      1.00000
      4     -12.7367      1.00000
      5     -11.2074      1.00000
      6     -11.1278      1.00000
      7     -10.6906      1.00000
      8     -10.4611      1.00000
      9      -9.5653      1.00000
     10      -9.4151      1.00000
     11      -7.1692      1.00000
     12      -7.0355      1.00000
     13      -5.3940      1.00000
     14      -5.0799      1.00000
     15      -4.7656      1.00000
     16      -4.2824      1.00000
     17      -3.7376      1.00000
     18      -3.5283      1.00000
     19      -3.0117      1.00000
     20      -2.9368      1.00000
     21      -2.6315      1.00000
     22      -2.3158      1.00000
     23      -2.1938      1.00000
     24      -2.1243      1.00000
     25      -1.7002      1.00000
     26      -1.5010      1.00000
     27      -1.2409      1.00000
     28      -1.0475      1.00000
     29      -0.6415      1.00000
     30      -0.4828      1.00000
     31      -0.3577      1.00000
     32      -0.1572      1.00000
     33       0.1737      1.00000
     34       0.3243      1.00000
     35       0.5815      1.00000
     36       0.7400      1.00000
     37       0.8755      1.00000
     38       1.0051      1.00000
     39       1.1542      1.00000
     40       1.4142      0.99848
     41       1.6350      0.00052
     42       1.8012      0.00000
     43       2.4080      0.00000
     44       2.4801      0.00000
     45       3.3969      0.00000
     46       3.6074      0.00000
     47       4.0251      0.00000
     48       4.3985      0.00000
     49       4.7641      0.00000
     50       4.9732      0.00000
     51       5.7790      0.00000
     52       6.2040      0.00000
     53       6.2691      0.00000
     54       6.5504      0.00000
     55       6.6662      0.00000

 k-point    50 :      -0.3333   -0.3333    0.2000
  band No.  band energies     occupation 
      1     -13.9421      1.00000
      2     -13.6951      1.00000
      3     -12.9034      1.00000
      4     -12.7362      1.00000
      5     -11.2104      1.00000
      6     -11.1251      1.00000
      7     -10.6913      1.00000
      8     -10.4595      1.00000
      9      -9.5680      1.00000
     10      -9.4127      1.00000
     11      -7.1736      1.00000
     12      -7.0301      1.00000
     13      -5.3830      1.00000
     14      -5.1021      1.00000
     15      -4.7869      1.00000
     16      -4.2620      1.00000
     17      -3.7064      1.00000
     18      -3.5038      1.00000
     19      -3.0103      1.00000
     20      -2.9704      1.00000
     21      -2.6775      1.00000
     22      -2.3895      1.00000
     23      -2.2367      1.00000
     24      -1.9070      1.00000
     25      -1.7106      1.00000
     26      -1.4592      1.00000
     27      -1.2653      1.00000
     28      -1.0867      1.00000
     29      -0.6825      1.00000
     30      -0.4855      1.00000
     31      -0.3562      1.00000
     32      -0.1695      1.00000
     33       0.1373      1.00000
     34       0.4264      1.00000
     35       0.4910      1.00000
     36       0.6464      1.00000
     37       0.9209      1.00000
     38       1.0969      1.00000
     39       1.1765      1.00000
     40       1.3499      1.00000
     41       1.6724      0.00001
     42       1.7745      0.00000
     43       2.4314      0.00000
     44       2.5117      0.00000
     45       3.3988      0.00000
     46       3.6272      0.00000
     47       3.9514      0.00000
     48       4.4620      0.00000
     49       4.7267      0.00000
     50       4.9691      0.00000
     51       5.8870      0.00000
     52       6.1311      0.00000
     53       6.3388      0.00000
     54       6.5050      0.00000
     55       6.6470      0.00000

 k-point    51 :       0.3333   -0.3333    0.2000
  band No.  band energies     occupation 
      1     -13.9421      1.00000
      2     -13.6951      1.00000
      3     -12.9034      1.00000
      4     -12.7362      1.00000
      5     -11.2104      1.00000
      6     -11.1251      1.00000
      7     -10.6913      1.00000
      8     -10.4595      1.00000
      9      -9.5680      1.00000
     10      -9.4127      1.00000
     11      -7.1736      1.00000
     12      -7.0301      1.00000
     13      -5.3830      1.00000
     14      -5.1021      1.00000
     15      -4.7869      1.00000
     16      -4.2620      1.00000
     17      -3.7064      1.00000
     18      -3.5038      1.00000
     19      -3.0103      1.00000
     20      -2.9704      1.00000
     21      -2.6775      1.00000
     22      -2.3895      1.00000
     23      -2.2367      1.00000
     24      -1.9070      1.00000
     25      -1.7106      1.00000
     26      -1.4592      1.00000
     27      -1.2653      1.00000
     28      -1.0867      1.00000
     29      -0.6825      1.00000
     30      -0.4855      1.00000
     31      -0.3562      1.00000
     32      -0.1695      1.00000
     33       0.1373      1.00000
     34       0.4264      1.00000
     35       0.4910      1.00000
     36       0.6464      1.00000
     37       0.9209      1.00000
     38       1.0969      1.00000
     39       1.1765      1.00000
     40       1.3499      1.00000
     41       1.6724      0.00001
     42       1.7745      0.00000
     43       2.4315      0.00000
     44       2.5117      0.00000
     45       3.3988      0.00000
     46       3.6272      0.00000
     47       3.9514      0.00000
     48       4.4620      0.00000
     49       4.7267      0.00000
     50       4.9691      0.00000
     51       5.8870      0.00000
     52       6.1311      0.00000
     53       6.3388      0.00000
     54       6.5050      0.00000
     55       6.6470      0.00000

 k-point    52 :       0.5000    0.3333    0.2000
  band No.  band energies     occupation 
      1     -13.9358      1.00000
      2     -13.6909      1.00000
      3     -12.9055      1.00000
      4     -12.7348      1.00000
      5     -11.2214      1.00000
      6     -11.1447      1.00000
      7     -10.7024      1.00000
      8     -10.4748      1.00000
      9      -9.5684      1.00000
     10      -9.3985      1.00000
     11      -7.0837      1.00000
     12      -7.0037      1.00000
     13      -5.4068      1.00000
     14      -5.1227      1.00000
     15      -4.7258      1.00000
     16      -4.2735      1.00000
     17      -3.7985      1.00000
     18      -3.5345      1.00000
     19      -2.9796      1.00000
     20      -2.9426      1.00000
     21      -2.7028      1.00000
     22      -2.2941      1.00000
     23      -2.1017      1.00000
     24      -2.0947      1.00000
     25      -1.8423      1.00000
     26      -1.4215      1.00000
     27      -1.2577      1.00000
     28      -1.1304      1.00000
     29      -0.5670      1.00000
     30      -0.5533      1.00000
     31      -0.2959      1.00000
     32      -0.1703      1.00000
     33       0.2034      1.00000
     34       0.2359      1.00000
     35       0.6228      1.00000
     36       0.6440      1.00000
     37       0.8515      1.00000
     38       0.9664      1.00000
     39       1.2384      1.00000
     40       1.4342      0.99175
     41       1.6170      0.00277
     42       1.8192      0.00000
     43       2.4250      0.00000
     44       2.4288      0.00000
     45       3.4672      0.00000
     46       3.5460      0.00000
     47       3.9769      0.00000
     48       4.2649      0.00000
     49       4.7746      0.00000
     50       5.0015      0.00000
     51       5.9431      0.00000
     52       6.3009      0.00000
     53       6.4277      0.00000
     54       6.6138      0.00000
     55       6.7801      0.00000

 k-point    53 :      -0.3333    0.5000    0.2000
  band No.  band energies     occupation 
      1     -13.9394      1.00000
      2     -13.6932      1.00000
      3     -12.9023      1.00000
      4     -12.7346      1.00000
      5     -11.2230      1.00000
      6     -11.1262      1.00000
      7     -10.7030      1.00000
      8     -10.4598      1.00000
      9      -9.5675      1.00000
     10      -9.4136      1.00000
     11      -7.1456      1.00000
     12      -7.0320      1.00000
     13      -5.3705      1.00000
     14      -5.1219      1.00000
     15      -4.7806      1.00000
     16      -4.2606      1.00000
     17      -3.7265      1.00000
     18      -3.4847      1.00000
     19      -3.0302      1.00000
     20      -2.9845      1.00000
     21      -2.6169      1.00000
     22      -2.2820      1.00000
     23      -2.1854      1.00000
     24      -1.9650      1.00000
     25      -1.6568      1.00000
     26      -1.4638      1.00000
     27      -1.2934      1.00000
     28      -1.1822      1.00000
     29      -0.6214      1.00000
     30      -0.4678      1.00000
     31      -0.3775      1.00000
     32      -0.1732      1.00000
     33       0.1159      1.00000
     34       0.3572      1.00000
     35       0.5210      1.00000
     36       0.6631      1.00000
     37       0.8851      1.00000
     38       1.0772      1.00000
     39       1.1084      1.00000
     40       1.3825      0.99994
     41       1.5724      0.06529
     42       1.7425      0.00000
     43       2.4006      0.00000
     44       2.5057      0.00000
     45       3.3703      0.00000
     46       3.6403      0.00000
     47       4.0278      0.00000
     48       4.2978      0.00000
     49       4.7563      0.00000
     50       4.9498      0.00000
     51       5.9634      0.00000
     52       6.2696      0.00000
     53       6.3323      0.00000
     54       6.5788      0.00000
     55       6.6345      0.00000

 k-point    54 :       0.5000   -0.3333    0.2000
  band No.  band energies     occupation 
      1     -13.9357      1.00000
      2     -13.6911      1.00000
      3     -12.9057      1.00000
      4     -12.7343      1.00000
      5     -11.2251      1.00000
      6     -11.1416      1.00000
      7     -10.7027      1.00000
      8     -10.4733      1.00000
      9      -9.5723      1.00000
     10      -9.3948      1.00000
     11      -7.0884      1.00000
     12      -6.9956      1.00000
     13      -5.3983      1.00000
     14      -5.1595      1.00000
     15      -4.7384      1.00000
     16      -4.2561      1.00000
     17      -3.7522      1.00000
     18      -3.5056      1.00000
     19      -3.0625      1.00000
     20      -2.9543      1.00000
     21      -2.5405      1.00000
     22      -2.5028      1.00000
     23      -2.1130      1.00000
     24      -2.0309      1.00000
     25      -1.6685      1.00000
     26      -1.5757      1.00000
     27      -1.2106      1.00000
     28      -1.1030      1.00000
     29      -0.6579      1.00000
     30      -0.5161      1.00000
     31      -0.3374      1.00000
     32      -0.1406      1.00000
     33       0.1575      1.00000
     34       0.3368      1.00000
     35       0.4724      1.00000
     36       0.5912      1.00000
     37       0.9095      1.00000
     38       1.0399      1.00000
     39       1.2678      1.00000
     40       1.3751      0.99998
     41       1.6616      0.00003
     42       1.7749      0.00000
     43       2.4443      0.00000
     44       2.4799      0.00000
     45       3.4482      0.00000
     46       3.5609      0.00000
     47       3.9761      0.00000
     48       4.2709      0.00000
     49       4.7777      0.00000
     50       4.9727      0.00000
     51       6.0810      0.00000
     52       6.4111      0.00000
     53       6.4352      0.00000
     54       6.5792      0.00000
     55       6.6788      0.00000

 k-point    55 :       0.3333    0.5000    0.2000
  band No.  band energies     occupation 
      1     -13.9394      1.00000
      2     -13.6932      1.00000
      3     -12.9023      1.00000
      4     -12.7346      1.00000
      5     -11.2230      1.00000
      6     -11.1262      1.00000
      7     -10.7030      1.00000
      8     -10.4598      1.00000
      9      -9.5675      1.00000
     10      -9.4136      1.00000
     11      -7.1456      1.00000
     12      -7.0320      1.00000
     13      -5.3705      1.00000
     14      -5.1219      1.00000
     15      -4.7806      1.00000
     16      -4.2606      1.00000
     17      -3.7265      1.00000
     18      -3.4847      1.00000
     19      -3.0302      1.00000
     20      -2.9845      1.00000
     21      -2.6169      1.00000
     22      -2.2820      1.00000
     23      -2.1854      1.00000
     24      -1.9650      1.00000
     25      -1.6568      1.00000
     26      -1.4638      1.00000
     27      -1.2934      1.00000
     28      -1.1822      1.00000
     29      -0.6214      1.00000
     30      -0.4678      1.00000
     31      -0.3775      1.00000
     32      -0.1732      1.00000
     33       0.1159      1.00000
     34       0.3572      1.00000
     35       0.5210      1.00000
     36       0.6631      1.00000
     37       0.8851      1.00000
     38       1.0772      1.00000
     39       1.1084      1.00000
     40       1.3825      0.99994
     41       1.5724      0.06529
     42       1.7425      0.00000
     43       2.4006      0.00000
     44       2.5057      0.00000
     45       3.3703      0.00000
     46       3.6403      0.00000
     47       4.0278      0.00000
     48       4.2978      0.00000
     49       4.7563      0.00000
     50       4.9498      0.00000
     51       5.9634      0.00000
     52       6.2696      0.00000
     53       6.3323      0.00000
     54       6.5788      0.00000
     55       6.6345      0.00000

 k-point    56 :       0.5000    0.5000    0.2000
  band No.  band energies     occupation 
      1     -13.9337      1.00000
      2     -13.6898      1.00000
      3     -12.9020      1.00000
      4     -12.7308      1.00000
      5     -11.2385      1.00000
      6     -11.1395      1.00000
      7     -10.7250      1.00000
      8     -10.4770      1.00000
      9      -9.5693      1.00000
     10      -9.3931      1.00000
     11      -7.0626      1.00000
     12      -6.9621      1.00000
     13      -5.4167      1.00000
     14      -5.1931      1.00000
     15      -4.7302      1.00000
     16      -4.2451      1.00000
     17      -3.7908      1.00000
     18      -3.5176      1.00000
     19      -3.0441      1.00000
     20      -2.9468      1.00000
     21      -2.5460      1.00000
     22      -2.3256      1.00000
     23      -2.1041      1.00000
     24      -2.0425      1.00000
     25      -1.6792      1.00000
     26      -1.4239      1.00000
     27      -1.3003      1.00000
     28      -1.2703      1.00000
     29      -0.5696      1.00000
     30      -0.4977      1.00000
     31      -0.2605      1.00000
     32      -0.1509      1.00000
     33       0.0598      1.00000
     34       0.2332      1.00000
     35       0.5042      1.00000
     36       0.5455      1.00000
     37       0.8837      1.00000
     38       1.0576      1.00000
     39       1.1839      1.00000
     40       1.4086      0.99910
     41       1.6002      0.01083
     42       1.7835      0.00000
     43       2.4678      0.00000
     44       2.4947      0.00000
     45       3.4418      0.00000
     46       3.5451      0.00000
     47       3.8454      0.00000
     48       4.1565      0.00000
     49       4.7989      0.00000
     50       4.9963      0.00000
     51       6.1440      0.00000
     52       6.4332      0.00000
     53       6.4609      0.00000
     54       6.6319      0.00000
     55       6.7352      0.00000

 k-point    57 :       0.0000    0.0000    0.4000
  band No.  band energies     occupation 
      1     -13.9022      1.00000
      2     -13.8038      1.00000
      3     -12.8319      1.00000
      4     -12.7778      1.00000
      5     -11.0965      1.00000
      6     -11.0744      1.00000
      7     -10.6247      1.00000
      8     -10.5332      1.00000
      9      -9.5046      1.00000
     10      -9.4771      1.00000
     11      -7.1969      1.00000
     12      -7.1588      1.00000
     13      -5.4056      1.00000
     14      -5.3501      1.00000
     15      -4.6671      1.00000
     16      -4.4624      1.00000
     17      -3.5540      1.00000
     18      -3.4592      1.00000
     19      -3.0847      1.00000
     20      -2.9022      1.00000
     21      -2.7097      1.00000
     22      -2.4662      1.00000
     23      -2.3253      1.00000
     24      -2.3118      1.00000
     25      -1.6106      1.00000
     26      -1.5891      1.00000
     27      -0.9927      1.00000
     28      -0.9485      1.00000
     29      -0.6305      1.00000
     30      -0.4845      1.00000
     31      -0.3068      1.00000
     32      -0.2370      1.00000
     33       0.3856      1.00000
     34       0.4411      1.00000
     35       0.7616      1.00000
     36       0.9229      1.00000
     37       1.0645      1.00000
     38       1.2078      1.00000
     39       1.3079      1.00000
     40       1.3098      1.00000
     41       1.9168      0.00000
     42       1.9675      0.00000
     43       2.6382      0.00000
     44       2.6549      0.00000
     45       3.4304      0.00000
     46       3.5379      0.00000
     47       3.9681      0.00000
     48       3.9891      0.00000
     49       4.4915      0.00000
     50       4.6681      0.00000
     51       5.5823      0.00000
     52       5.7069      0.00000
     53       6.4050      0.00000
     54       6.4930      0.00000
     55       6.6740      0.00000

 k-point    58 :       0.1667    0.0000    0.4000
  band No.  band energies     occupation 
      1     -13.8945      1.00000
      2     -13.7972      1.00000
      3     -12.8400      1.00000
      4     -12.7832      1.00000
      5     -11.1144      1.00000
      6     -11.0942      1.00000
      7     -10.6139      1.00000
      8     -10.5303      1.00000
      9      -9.5081      1.00000
     10      -9.4690      1.00000
     11      -7.1873      1.00000
     12      -7.1508      1.00000
     13      -5.3547      1.00000
     14      -5.2755      1.00000
     15      -4.6669      1.00000
     16      -4.4700      1.00000
     17      -3.6180      1.00000
     18      -3.5512      1.00000
     19      -2.9943      1.00000
     20      -2.8558      1.00000
     21      -2.7049      1.00000
     22      -2.4807      1.00000
     23      -2.3722      1.00000
     24      -2.2999      1.00000
     25      -1.6345      1.00000
     26      -1.5570      1.00000
     27      -1.0809      1.00000
     28      -0.9906      1.00000
     29      -0.5846      1.00000
     30      -0.4873      1.00000
     31      -0.2604      1.00000
     32      -0.1928      1.00000
     33       0.2628      1.00000
     34       0.3607      1.00000
     35       0.7901      1.00000
     36       0.9336      1.00000
     37       0.9962      1.00000
     38       1.1548      1.00000
     39       1.2805      1.00000
     40       1.3319      1.00000
     41       1.9373      0.00000
     42       1.9835      0.00000
     43       2.5962      0.00000
     44       2.6061      0.00000
     45       3.4540      0.00000
     46       3.5353      0.00000
     47       4.0593      0.00000
     48       4.1415      0.00000
     49       4.5462      0.00000
     50       4.6820      0.00000
     51       5.6883      0.00000
     52       5.8050      0.00000
     53       6.2540      0.00000
     54       6.3544      0.00000
     55       6.6659      0.00000

 k-point    59 :       0.0000    0.1667    0.4000
  band No.  band energies     occupation 
      1     -13.8978      1.00000
      2     -13.7995      1.00000
      3     -12.8377      1.00000
      4     -12.7825      1.00000
      5     -11.1090      1.00000
      6     -11.0824      1.00000
      7     -10.6086      1.00000
      8     -10.5205      1.00000
      9      -9.5112      1.00000
     10      -9.4809      1.00000
     11      -7.2216      1.00000
     12      -7.1989      1.00000
     13      -5.3516      1.00000
     14      -5.2774      1.00000
     15      -4.6675      1.00000
     16      -4.4680      1.00000
     17      -3.5590      1.00000
     18      -3.4832      1.00000
     19      -3.0538      1.00000
     20      -2.8827      1.00000
     21      -2.7162      1.00000
     22      -2.3848      1.00000
     23      -2.3003      1.00000
     24      -2.2983      1.00000
     25      -1.6896      1.00000
     26      -1.5473      1.00000
     27      -1.0389      1.00000
     28      -0.9163      1.00000
     29      -0.6091      1.00000
     30      -0.5915      1.00000
     31      -0.3194      1.00000
     32      -0.2034      1.00000
     33       0.3312      1.00000
     34       0.5115      1.00000
     35       0.7925      1.00000
     36       0.8350      1.00000
     37       1.0113      1.00000
     38       1.1697      1.00000
     39       1.2845      1.00000
     40       1.2984      1.00000
     41       1.8227      0.00000
     42       1.8878      0.00000
     43       2.6022      0.00000
     44       2.6035      0.00000
     45       3.3541      0.00000
     46       3.5979      0.00000
     47       4.0915      0.00000
     48       4.0972      0.00000
     49       4.6028      0.00000
     50       4.6789      0.00000
     51       5.6333      0.00000
     52       5.7137      0.00000
     53       6.1966      0.00000
     54       6.3499      0.00000
     55       6.8293      0.00000

 k-point    60 :      -0.1667    0.0000    0.4000
  band No.  band energies     occupation 
      1     -13.8945      1.00000
      2     -13.7972      1.00000
      3     -12.8400      1.00000
      4     -12.7832      1.00000
      5     -11.1144      1.00000
      6     -11.0942      1.00000
      7     -10.6139      1.00000
      8     -10.5303      1.00000
      9      -9.5081      1.00000
     10      -9.4690      1.00000
     11      -7.1873      1.00000
     12      -7.1508      1.00000
     13      -5.3547      1.00000
     14      -5.2755      1.00000
     15      -4.6669      1.00000
     16      -4.4700      1.00000
     17      -3.6180      1.00000
     18      -3.5512      1.00000
     19      -2.9943      1.00000
     20      -2.8558      1.00000
     21      -2.7049      1.00000
     22      -2.4807      1.00000
     23      -2.3722      1.00000
     24      -2.2999      1.00000
     25      -1.6345      1.00000
     26      -1.5570      1.00000
     27      -1.0809      1.00000
     28      -0.9906      1.00000
     29      -0.5846      1.00000
     30      -0.4873      1.00000
     31      -0.2604      1.00000
     32      -0.1928      1.00000
     33       0.2628      1.00000
     34       0.3607      1.00000
     35       0.7901      1.00000
     36       0.9336      1.00000
     37       0.9962      1.00000
     38       1.1548      1.00000
     39       1.2805      1.00000
     40       1.3319      1.00000
     41       1.9373      0.00000
     42       1.9835      0.00000
     43       2.5962      0.00000
     44       2.6061      0.00000
     45       3.4540      0.00000
     46       3.5353      0.00000
     47       4.0593      0.00000
     48       4.1415      0.00000
     49       4.5462      0.00000
     50       4.6820      0.00000
     51       5.6883      0.00000
     52       5.8050      0.00000
     53       6.2540      0.00000
     54       6.3544      0.00000
     55       6.6666      0.00000

 k-point    61 :       0.0000   -0.1667    0.4000
  band No.  band energies     occupation 
      1     -13.8974      1.00000
      2     -13.8000      1.00000
      3     -12.8382      1.00000
      4     -12.7820      1.00000
      5     -11.1067      1.00000
      6     -11.0849      1.00000
      7     -10.6102      1.00000
      8     -10.5182      1.00000
      9      -9.5092      1.00000
     10      -9.4830      1.00000
     11      -7.2392      1.00000
     12      -7.1840      1.00000
     13      -5.3300      1.00000
     14      -5.2905      1.00000
     15      -4.6692      1.00000
     16      -4.4646      1.00000
     17      -3.5398      1.00000
     18      -3.5012      1.00000
     19      -3.0700      1.00000
     20      -2.9447      1.00000
     21      -2.6314      1.00000
     22      -2.4988      1.00000
     23      -2.2834      1.00000
     24      -2.2306      1.00000
     25      -1.6415      1.00000
     26      -1.5389      1.00000
     27      -1.0024      1.00000
     28      -0.9458      1.00000
     29      -0.7130      1.00000
     30      -0.5246      1.00000
     31      -0.2916      1.00000
     32      -0.2675      1.00000
     33       0.3924      1.00000
     34       0.4380      1.00000
     35       0.6790      1.00000
     36       0.9500      1.00000
     37       1.0814      1.00000
     38       1.1530      1.00000
     39       1.2867      1.00000
     40       1.3051      1.00000
     41       1.8183      0.00000
     42       1.8538      0.00000
     43       2.6074      0.00000
     44       2.6255      0.00000
     45       3.4590      0.00000
     46       3.4899      0.00000
     47       4.0560      0.00000
     48       4.1669      0.00000
     49       4.5089      0.00000
     50       4.6893      0.00000
     51       5.5897      0.00000
     52       5.7831      0.00000
     53       6.2455      0.00000
     54       6.3103      0.00000
     55       6.6984      0.00000

 k-point    62 :       0.3333    0.0000    0.4000
  band No.  band energies     occupation 
      1     -13.8788      1.00000
      2     -13.7836      1.00000
      3     -12.8568      1.00000
      4     -12.7944      1.00000
      5     -11.1475      1.00000
      6     -11.1325      1.00000
      7     -10.5934      1.00000
      8     -10.5228      1.00000
      9      -9.5165      1.00000
     10      -9.4597      1.00000
     11      -7.1558      1.00000
     12      -7.1274      1.00000
     13      -5.2747      1.00000
     14      -5.1504      1.00000
     15      -4.6547      1.00000
     16      -4.4818      1.00000
     17      -3.6566      1.00000
     18      -3.6034      1.00000
     19      -2.9908      1.00000
     20      -2.9009      1.00000
     21      -2.6745      1.00000
     22      -2.5864      1.00000
     23      -2.3395      1.00000
     24      -2.1702      1.00000
     25      -1.7462      1.00000
     26      -1.6180      1.00000
     27      -1.0765      1.00000
     28      -0.9655      1.00000
     29      -0.5754      1.00000
     30      -0.4910      1.00000
     31      -0.3318      1.00000
     32      -0.3264      1.00000
     33       0.2930      1.00000
     34       0.3262      1.00000
     35       0.7894      1.00000
     36       0.9065      1.00000
     37       0.9451      1.00000
     38       1.1101      1.00000
     39       1.2715      1.00000
     40       1.3342      1.00000
     41       1.9470      0.00000
     42       1.9660      0.00000
     43       2.4505      0.00000
     44       2.4814      0.00000
     45       3.5269      0.00000
     46       3.5889      0.00000
     47       4.2330      0.00000
     48       4.3541      0.00000
     49       4.6692      0.00000
     50       4.7432      0.00000
     51       5.7233      0.00000
     52       5.8619      0.00000
     53       6.3086      0.00000
     54       6.3470      0.00000
     55       6.6585      0.00000

 k-point    63 :       0.0000    0.3333    0.4000
  band No.  band energies     occupation 
      1     -13.8885      1.00000
      2     -13.7913      1.00000
      3     -12.8498      1.00000
      4     -12.7916      1.00000
      5     -11.1300      1.00000
      6     -11.0999      1.00000
      7     -10.5790      1.00000
      8     -10.4932      1.00000
      9      -9.5232      1.00000
     10      -9.4913      1.00000
     11      -7.2839      1.00000
     12      -7.2586      1.00000
     13      -5.2258      1.00000
     14      -5.1499      1.00000
     15      -4.6663      1.00000
     16      -4.4709      1.00000
     17      -3.5480      1.00000
     18      -3.5444      1.00000
     19      -3.0039      1.00000
     20      -2.8987      1.00000
     21      -2.6633      1.00000
     22      -2.3657      1.00000
     23      -2.2202      1.00000
     24      -2.2120      1.00000
     25      -1.6985      1.00000
     26      -1.5716      1.00000
     27      -1.0685      1.00000
     28      -0.8852      1.00000
     29      -0.6913      1.00000
     30      -0.6529      1.00000
     31      -0.3247      1.00000
     32      -0.2230      1.00000
     33       0.3150      1.00000
     34       0.5179      1.00000
     35       0.7472      1.00000
     36       0.7604      1.00000
     37       0.9861      1.00000
     38       1.0892      1.00000
     39       1.2355      1.00000
     40       1.2862      1.00000
     41       1.6250      0.00136
     42       1.7166      0.00000
     43       2.5318      0.00000
     44       2.5366      0.00000
     45       3.3432      0.00000
     46       3.5899      0.00000
     47       4.2336      0.00000
     48       4.3833      0.00000
     49       4.7144      0.00000
     50       4.8241      0.00000
     51       5.6114      0.00000
     52       5.7417      0.00000
     53       6.0387      0.00000
     54       6.1783      0.00000
     55       6.8712      0.00000

 k-point    64 :      -0.3333    0.0000    0.4000
  band No.  band energies     occupation 
      1     -13.8788      1.00000
      2     -13.7836      1.00000
      3     -12.8568      1.00000
      4     -12.7944      1.00000
      5     -11.1475      1.00000
      6     -11.1325      1.00000
      7     -10.5934      1.00000
      8     -10.5228      1.00000
      9      -9.5165      1.00000
     10      -9.4597      1.00000
     11      -7.1558      1.00000
     12      -7.1274      1.00000
     13      -5.2747      1.00000
     14      -5.1504      1.00000
     15      -4.6547      1.00000
     16      -4.4818      1.00000
     17      -3.6566      1.00000
     18      -3.6034      1.00000
     19      -2.9908      1.00000
     20      -2.9009      1.00000
     21      -2.6745      1.00000
     22      -2.5864      1.00000
     23      -2.3395      1.00000
     24      -2.1702      1.00000
     25      -1.7462      1.00000
     26      -1.6180      1.00000
     27      -1.0765      1.00000
     28      -0.9655      1.00000
     29      -0.5754      1.00000
     30      -0.4910      1.00000
     31      -0.3318      1.00000
     32      -0.3264      1.00000
     33       0.2930      1.00000
     34       0.3262      1.00000
     35       0.7894      1.00000
     36       0.9065      1.00000
     37       0.9451      1.00000
     38       1.1101      1.00000
     39       1.2715      1.00000
     40       1.3342      1.00000
     41       1.9470      0.00000
     42       1.9660      0.00000
     43       2.4505      0.00000
     44       2.4814      0.00000
     45       3.5269      0.00000
     46       3.5889      0.00000
     47       4.2330      0.00000
     48       4.3541      0.00000
     49       4.6692      0.00000
     50       4.7432      0.00000
     51       5.7233      0.00000
     52       5.8619      0.00000
     53       6.3086      0.00000
     54       6.3470      0.00000
     55       6.6559      0.00000

 k-point    65 :       0.0000   -0.3333    0.4000
  band No.  band energies     occupation 
      1     -13.8880      1.00000
      2     -13.7918      1.00000
      3     -12.8503      1.00000
      4     -12.7910      1.00000
      5     -11.1278      1.00000
      6     -11.1023      1.00000
      7     -10.5805      1.00000
      8     -10.4911      1.00000
      9      -9.5212      1.00000
     10      -9.4934      1.00000
     11      -7.2999      1.00000
     12      -7.2450      1.00000
     13      -5.2128      1.00000
     14      -5.1563      1.00000
     15      -4.6558      1.00000
     16      -4.4752      1.00000
     17      -3.5666      1.00000
     18      -3.5339      1.00000
     19      -3.0164      1.00000
     20      -2.9541      1.00000
     21      -2.5697      1.00000
     22      -2.4784      1.00000
     23      -2.2218      1.00000
     24      -2.1169      1.00000
     25      -1.6659      1.00000
     26      -1.5901      1.00000
     27      -1.0250      1.00000
     28      -0.9199      1.00000
     29      -0.7067      1.00000
     30      -0.6175      1.00000
     31      -0.3333      1.00000
     32      -0.3081      1.00000
     33       0.3951      1.00000
     34       0.4256      1.00000
     35       0.6318      1.00000
     36       0.9090      1.00000
     37       1.0521      1.00000
     38       1.0996      1.00000
     39       1.2016      1.00000
     40       1.3017      1.00000
     41       1.6305      0.00080
     42       1.6627      0.00002
     43       2.5437      0.00000
     44       2.5501      0.00000
     45       3.4029      0.00000
     46       3.5358      0.00000
     47       4.2766      0.00000
     48       4.3461      0.00000
     49       4.6504      0.00000
     50       4.8208      0.00000
     51       5.6083      0.00000
     52       5.7644      0.00000
     53       6.1014      0.00000
     54       6.1427      0.00000
     55       6.7334      0.00000

 k-point    66 :       0.5000    0.0000    0.4000
  band No.  band energies     occupation 
      1     -13.8707      1.00000
      2     -13.7767      1.00000
      3     -12.8655      1.00000
      4     -12.8003      1.00000
      5     -11.1622      1.00000
      6     -11.1518      1.00000
      7     -10.5834      1.00000
      8     -10.5183      1.00000
      9      -9.5219      1.00000
     10      -9.4579      1.00000
     11      -7.1321      1.00000
     12      -7.1139      1.00000
     13      -5.2496      1.00000
     14      -5.1050      1.00000
     15      -4.6398      1.00000
     16      -4.4834      1.00000
     17      -3.6381      1.00000
     18      -3.5611      1.00000
     19      -3.0257      1.00000
     20      -2.9602      1.00000
     21      -2.7272      1.00000
     22      -2.7261      1.00000
     23      -2.1304      1.00000
     24      -1.9710      1.00000
     25      -1.9197      1.00000
     26      -1.7699      1.00000
     27      -0.9711      1.00000
     28      -0.9060      1.00000
     29      -0.6500      1.00000
     30      -0.6488      1.00000
     31      -0.3666      1.00000
     32      -0.3146      1.00000
     33       0.3006      1.00000
     34       0.3707      1.00000
     35       0.8132      1.00000
     36       0.9158      1.00000
     37       0.9466      1.00000
     38       1.0795      1.00000
     39       1.2937      1.00000
     40       1.3064      1.00000
     41       1.9191      0.00000
     42       1.9363      0.00000
     43       2.3732      0.00000
     44       2.4174      0.00000
     45       3.5570      0.00000
     46       3.6190      0.00000
     47       4.3067      0.00000
     48       4.4386      0.00000
     49       4.7390      0.00000
     50       4.8362      0.00000
     51       5.6393      0.00000
     52       5.7675      0.00000
     53       6.4357      0.00000
     54       6.5090      0.00000
     55       6.7322      0.00000

 k-point    67 :       0.0000    0.5000    0.4000
  band No.  band energies     occupation 
      1     -13.8835      1.00000
      2     -13.7874      1.00000
      3     -12.8562      1.00000
      4     -12.7959      1.00000
      5     -11.1388      1.00000
      6     -11.1093      1.00000
      7     -10.5653      1.00000
      8     -10.4787      1.00000
      9      -9.5286      1.00000
     10      -9.4980      1.00000
     11      -7.3204      1.00000
     12      -7.2799      1.00000
     13      -5.1639      1.00000
     14      -5.0879      1.00000
     15      -4.6504      1.00000
     16      -4.4759      1.00000
     17      -3.5866      1.00000
     18      -3.5363      1.00000
     19      -2.9794      1.00000
     20      -2.9291      1.00000
     21      -2.6025      1.00000
     22      -2.4265      1.00000
     23      -2.1743      1.00000
     24      -2.1073      1.00000
     25      -1.6752      1.00000
     26      -1.6491      1.00000
     27      -1.0358      1.00000
     28      -0.9026      1.00000
     29      -0.6603      1.00000
     30      -0.6426      1.00000
     31      -0.3506      1.00000
     32      -0.3436      1.00000
     33       0.3614      1.00000
     34       0.4476      1.00000
     35       0.6935      1.00000
     36       0.8040      1.00000
     37       1.0191      1.00000
     38       1.0369      1.00000
     39       1.1800      1.00000
     40       1.2889      1.00000
     41       1.5395      0.28108
     42       1.6121      0.00420
     43       2.5019      0.00000
     44       2.5129      0.00000
     45       3.3638      0.00000
     46       3.5774      0.00000
     47       4.3113      0.00000
     48       4.4314      0.00000
     49       4.8742      0.00000
     50       4.8761      0.00000
     51       5.5662      0.00000
     52       5.6895      0.00000
     53       6.0529      0.00000
     54       6.1373      0.00000
     55       6.7616      0.00000

 k-point    68 :       0.1667    0.1667    0.4000
  band No.  band energies     occupation 
      1     -13.8908      1.00000
      2     -13.7935      1.00000
      3     -12.8436      1.00000
      4     -12.7857      1.00000
      5     -11.1259      1.00000
      6     -11.1018      1.00000
      7     -10.6080      1.00000
      8     -10.5194      1.00000
      9      -9.5127      1.00000
     10      -9.4727      1.00000
     11      -7.2322      1.00000
     12      -7.1352      1.00000
     13      -5.3602      1.00000
     14      -5.1925      1.00000
     15      -4.6627      1.00000
     16      -4.4730      1.00000
     17      -3.6421      1.00000
     18      -3.5235      1.00000
     19      -3.0139      1.00000
     20      -2.8467      1.00000
     21      -2.6290      1.00000
     22      -2.4710      1.00000
     23      -2.3551      1.00000
     24      -2.2960      1.00000
     25      -1.7087      1.00000
     26      -1.4747      1.00000
     27      -1.1073      1.00000
     28      -0.9238      1.00000
     29      -0.6938      1.00000
     30      -0.5148      1.00000
     31      -0.2704      1.00000
     32      -0.1576      1.00000
     33       0.2475      1.00000
     34       0.3922      1.00000
     35       0.7888      1.00000
     36       0.8532      1.00000
     37       0.9997      1.00000
     38       1.1207      1.00000
     39       1.2342      1.00000
     40       1.3305      1.00000
     41       1.8370      0.00000
     42       1.9096      0.00000
     43       2.5402      0.00000
     44       2.5795      0.00000
     45       3.4294      0.00000
     46       3.5840      0.00000
     47       4.0342      0.00000
     48       4.2489      0.00000
     49       4.6210      0.00000
     50       4.7713      0.00000
     51       5.7453      0.00000
     52       5.8200      0.00000
     53       5.9340      0.00000
     54       6.5684      0.00000
     55       6.7461      0.00000

 k-point    69 :      -0.1667    0.1667    0.4000
  band No.  band energies     occupation 
      1     -13.8908      1.00000
      2     -13.7935      1.00000
      3     -12.8436      1.00000
      4     -12.7857      1.00000
      5     -11.1259      1.00000
      6     -11.1018      1.00000
      7     -10.6080      1.00000
      8     -10.5194      1.00000
      9      -9.5127      1.00000
     10      -9.4727      1.00000
     11      -7.2322      1.00000
     12      -7.1352      1.00000
     13      -5.3602      1.00000
     14      -5.1925      1.00000
     15      -4.6627      1.00000
     16      -4.4730      1.00000
     17      -3.6421      1.00000
     18      -3.5235      1.00000
     19      -3.0139      1.00000
     20      -2.8467      1.00000
     21      -2.6290      1.00000
     22      -2.4710      1.00000
     23      -2.3551      1.00000
     24      -2.2960      1.00000
     25      -1.7087      1.00000
     26      -1.4747      1.00000
     27      -1.1073      1.00000
     28      -0.9238      1.00000
     29      -0.6938      1.00000
     30      -0.5148      1.00000
     31      -0.2704      1.00000
     32      -0.1576      1.00000
     33       0.2475      1.00000
     34       0.3922      1.00000
     35       0.7888      1.00000
     36       0.8532      1.00000
     37       0.9997      1.00000
     38       1.1207      1.00000
     39       1.2342      1.00000
     40       1.3305      1.00000
     41       1.8370      0.00000
     42       1.9096      0.00000
     43       2.5402      0.00000
     44       2.5795      0.00000
     45       3.4295      0.00000
     46       3.5840      0.00000
     47       4.0342      0.00000
     48       4.2489      0.00000
     49       4.6210      0.00000
     50       4.7713      0.00000
     51       5.7453      0.00000
     52       5.8200      0.00000
     53       5.9340      0.00000
     54       6.5678      0.00000
     55       6.7142      0.00000

 k-point    70 :      -0.1667   -0.1667    0.4000
  band No.  band energies     occupation 
      1     -13.8904      1.00000
      2     -13.7940      1.00000
      3     -12.8441      1.00000
      4     -12.7851      1.00000
      5     -11.1270      1.00000
      6     -11.1008      1.00000
      7     -10.6098      1.00000
      8     -10.5171      1.00000
      9      -9.5130      1.00000
     10      -9.4725      1.00000
     11      -7.2390      1.00000
     12      -7.1299      1.00000
     13      -5.3515      1.00000
     14      -5.1951      1.00000
     15      -4.6780      1.00000
     16      -4.4596      1.00000
     17      -3.6370      1.00000
     18      -3.5196      1.00000
     19      -2.9778      1.00000
     20      -2.9123      1.00000
     21      -2.6817      1.00000
     22      -2.4972      1.00000
     23      -2.3169      1.00000
     24      -2.2344      1.00000
     25      -1.6749      1.00000
     26      -1.4653      1.00000
     27      -1.1195      1.00000
     28      -0.9533      1.00000
     29      -0.6957      1.00000
     30      -0.4762      1.00000
     31      -0.2773      1.00000
     32      -0.2160      1.00000
     33       0.2569      1.00000
     34       0.3947      1.00000
     35       0.6704      1.00000
     36       0.9266      1.00000
     37       1.0246      1.00000
     38       1.1667      1.00000
     39       1.2554      1.00000
     40       1.3093      1.00000
     41       1.8445      0.00000
     42       1.8795      0.00000
     43       2.5448      0.00000
     44       2.5991      0.00000
     45       3.4823      0.00000
     46       3.5514      0.00000
     47       3.9722      0.00000
     48       4.3298      0.00000
     49       4.5335      0.00000
     50       4.7815      0.00000
     51       5.6997      0.00000
     52       5.8789      0.00000
     53       5.9819      0.00000
     54       6.4878      0.00000
     55       6.7198      0.00000

 k-point    71 :       0.1667   -0.1667    0.4000
  band No.  band energies     occupation 
      1     -13.8904      1.00000
      2     -13.7940      1.00000
      3     -12.8441      1.00000
      4     -12.7851      1.00000
      5     -11.1270      1.00000
      6     -11.1008      1.00000
      7     -10.6098      1.00000
      8     -10.5171      1.00000
      9      -9.5130      1.00000
     10      -9.4725      1.00000
     11      -7.2390      1.00000
     12      -7.1299      1.00000
     13      -5.3515      1.00000
     14      -5.1951      1.00000
     15      -4.6780      1.00000
     16      -4.4596      1.00000
     17      -3.6370      1.00000
     18      -3.5196      1.00000
     19      -2.9778      1.00000
     20      -2.9123      1.00000
     21      -2.6817      1.00000
     22      -2.4972      1.00000
     23      -2.3169      1.00000
     24      -2.2344      1.00000
     25      -1.6749      1.00000
     26      -1.4653      1.00000
     27      -1.1195      1.00000
     28      -0.9533      1.00000
     29      -0.6957      1.00000
     30      -0.4762      1.00000
     31      -0.2773      1.00000
     32      -0.2160      1.00000
     33       0.2569      1.00000
     34       0.3947      1.00000
     35       0.6704      1.00000
     36       0.9266      1.00000
     37       1.0246      1.00000
     38       1.1667      1.00000
     39       1.2554      1.00000
     40       1.3093      1.00000
     41       1.8445      0.00000
     42       1.8795      0.00000
     43       2.5448      0.00000
     44       2.5991      0.00000
     45       3.4823      0.00000
     46       3.5514      0.00000
     47       3.9722      0.00000
     48       4.3298      0.00000
     49       4.5335      0.00000
     50       4.7815      0.00000
     51       5.6997      0.00000
     52       5.8789      0.00000
     53       5.9819      0.00000
     54       6.4877      0.00000
     55       6.7125      0.00000

 k-point    72 :       0.3333    0.1667    0.4000
  band No.  band energies     occupation 
      1     -13.8764      1.00000
      2     -13.7813      1.00000
      3     -12.8556      1.00000
      4     -12.7930      1.00000
      5     -11.1571      1.00000
      6     -11.1395      1.00000
      7     -10.6035      1.00000
      8     -10.5219      1.00000
      9      -9.5153      1.00000
     10      -9.4612      1.00000
     11      -7.1728      1.00000
     12      -7.0801      1.00000
     13      -5.3139      1.00000
     14      -5.1238      1.00000
     15      -4.6370      1.00000
     16      -4.4822      1.00000
     17      -3.6865      1.00000
     18      -3.5852      1.00000
     19      -2.9896      1.00000
     20      -2.8669      1.00000
     21      -2.6603      1.00000
     22      -2.5450      1.00000
     23      -2.3363      1.00000
     24      -2.1656      1.00000
     25      -1.7456      1.00000
     26      -1.6056      1.00000
     27      -1.1011      1.00000
     28      -0.9416      1.00000
     29      -0.6068      1.00000
     30      -0.4960      1.00000
     31      -0.3722      1.00000
     32      -0.2266      1.00000
     33       0.2563      1.00000
     34       0.3274      1.00000
     35       0.7493      1.00000
     36       0.8612      1.00000
     37       0.9772      1.00000
     38       1.0817      1.00000
     39       1.2076      1.00000
     40       1.3467      1.00000
     41       1.8288      0.00000
     42       1.9108      0.00000
     43       2.4306      0.00000
     44       2.4904      0.00000
     45       3.5330      0.00000
     46       3.5623      0.00000
     47       4.1228      0.00000
     48       4.3726      0.00000
     49       4.6717      0.00000
     50       4.8784      0.00000
     51       5.6635      0.00000
     52       5.9656      0.00000
     53       6.2030      0.00000
     54       6.6130      0.00000
     55       6.6615      0.00000

 k-point    73 :      -0.1667    0.3333    0.4000
  band No.  band energies     occupation 
      1     -13.8829      1.00000
      2     -13.7866      1.00000
      3     -12.8510      1.00000
      4     -12.7908      1.00000
      5     -11.1473      1.00000
      6     -11.1175      1.00000
      7     -10.5925      1.00000
      8     -10.5018      1.00000
      9      -9.5219      1.00000
     10      -9.4811      1.00000
     11      -7.2620      1.00000
     12      -7.1672      1.00000
     13      -5.2800      1.00000
     14      -5.1108      1.00000
     15      -4.6621      1.00000
     16      -4.4766      1.00000
     17      -3.6309      1.00000
     18      -3.5095      1.00000
     19      -2.9978      1.00000
     20      -2.8938      1.00000
     21      -2.6173      1.00000
     22      -2.4446      1.00000
     23      -2.2530      1.00000
     24      -2.1835      1.00000
     25      -1.7434      1.00000
     26      -1.4744      1.00000
     27      -1.1015      1.00000
     28      -0.9138      1.00000
     29      -0.6802      1.00000
     30      -0.6429      1.00000
     31      -0.2957      1.00000
     32      -0.2196      1.00000
     33       0.2799      1.00000
     34       0.4265      1.00000
     35       0.6714      1.00000
     36       0.8170      1.00000
     37       1.0055      1.00000
     38       1.0828      1.00000
     39       1.1628      1.00000
     40       1.3087      1.00000
     41       1.6397      0.00032
     42       1.7465      0.00000
     43       2.4640      0.00000
     44       2.5291      0.00000
     45       3.4108      0.00000
     46       3.6023      0.00000
     47       4.1925      0.00000
     48       4.3562      0.00000
     49       4.6660      0.00000
     50       4.9144      0.00000
     51       5.6693      0.00000
     52       5.8690      0.00000
     53       5.9860      0.00000
     54       6.4406      0.00000
     55       6.7833      0.00000

 k-point    74 :      -0.3333   -0.1667    0.4000
  band No.  band energies     occupation 
      1     -13.8761      1.00000
      2     -13.7816      1.00000
      3     -12.8561      1.00000
      4     -12.7924      1.00000
      5     -11.1618      1.00000
      6     -11.1351      1.00000
      7     -10.6049      1.00000
      8     -10.5198      1.00000
      9      -9.5195      1.00000
     10      -9.4572      1.00000
     11      -7.1768      1.00000
     12      -7.0755      1.00000
     13      -5.3042      1.00000
     14      -5.1389      1.00000
     15      -4.6718      1.00000
     16      -4.4502      1.00000
     17      -3.6569      1.00000
     18      -3.5845      1.00000
     19      -2.9628      1.00000
     20      -2.8795      1.00000
     21      -2.7644      1.00000
     22      -2.5350      1.00000
     23      -2.3116      1.00000
     24      -2.1038      1.00000
     25      -1.7815      1.00000
     26      -1.5651      1.00000
     27      -1.0796      1.00000
     28      -0.9830      1.00000
     29      -0.6204      1.00000
     30      -0.4987      1.00000
     31      -0.3725      1.00000
     32      -0.2299      1.00000
     33       0.2468      1.00000
     34       0.3424      1.00000
     35       0.6542      1.00000
     36       0.8624      1.00000
     37       1.0321      1.00000
     38       1.1198      1.00000
     39       1.2329      1.00000
     40       1.3061      1.00000
     41       1.8509      0.00000
     42       1.8911      0.00000
     43       2.4356      0.00000
     44       2.5092      0.00000
     45       3.5102      0.00000
     46       3.6052      0.00000
     47       4.0720      0.00000
     48       4.4320      0.00000
     49       4.6258      0.00000
     50       4.8769      0.00000
     51       5.7046      0.00000
     52       5.9723      0.00000
     53       6.2230      0.00000
     54       6.5521      0.00000
     55       6.7178      0.00000

 k-point    75 :       0.1667   -0.3333    0.4000
  band No.  band energies     occupation 
      1     -13.8825      1.00000
      2     -13.7870      1.00000
      3     -12.8515      1.00000
      4     -12.7902      1.00000
      5     -11.1483      1.00000
      6     -11.1167      1.00000
      7     -10.5942      1.00000
      8     -10.4996      1.00000
      9      -9.5222      1.00000
     10      -9.4809      1.00000
     11      -7.2682      1.00000
     12      -7.1626      1.00000
     13      -5.2674      1.00000
     14      -5.1178      1.00000
     15      -4.6802      1.00000
     16      -4.4576      1.00000
     17      -3.6329      1.00000
     18      -3.5002      1.00000
     19      -2.9922      1.00000
     20      -2.9229      1.00000
     21      -2.6613      1.00000
     22      -2.4805      1.00000
     23      -2.2146      1.00000
     24      -2.1180      1.00000
     25      -1.6994      1.00000
     26      -1.4951      1.00000
     27      -1.0962      1.00000
     28      -0.9471      1.00000
     29      -0.6869      1.00000
     30      -0.6033      1.00000
     31      -0.3428      1.00000
     32      -0.2448      1.00000
     33       0.2973      1.00000
     34       0.4244      1.00000
     35       0.6027      1.00000
     36       0.8603      1.00000
     37       1.0173      1.00000
     38       1.1272      1.00000
     39       1.1977      1.00000
     40       1.2669      1.00000
     41       1.6650      0.00002
     42       1.7011      0.00000
     43       2.4887      0.00000
     44       2.5320      0.00000
     45       3.4481      0.00000
     46       3.5793      0.00000
     47       4.1256      0.00000
     48       4.4273      0.00000
     49       4.6108      0.00000
     50       4.9145      0.00000
     51       5.7073      0.00000
     52       5.8125      0.00000
     53       6.0509      0.00000
     54       6.3938      0.00000
     55       6.7399      0.00000

 k-point    76 :      -0.3333    0.1667   -0.4000
  band No.  band energies     occupation 
      1     -13.8761      1.00000
      2     -13.7816      1.00000
      3     -12.8561      1.00000
      4     -12.7924      1.00000
      5     -11.1618      1.00000
      6     -11.1351      1.00000
      7     -10.6049      1.00000
      8     -10.5198      1.00000
      9      -9.5195      1.00000
     10      -9.4572      1.00000
     11      -7.1768      1.00000
     12      -7.0755      1.00000
     13      -5.3042      1.00000
     14      -5.1389      1.00000
     15      -4.6718      1.00000
     16      -4.4502      1.00000
     17      -3.6569      1.00000
     18      -3.5845      1.00000
     19      -2.9628      1.00000
     20      -2.8795      1.00000
     21      -2.7644      1.00000
     22      -2.5350      1.00000
     23      -2.3116      1.00000
     24      -2.1038      1.00000
     25      -1.7815      1.00000
     26      -1.5651      1.00000
     27      -1.0796      1.00000
     28      -0.9830      1.00000
     29      -0.6204      1.00000
     30      -0.4987      1.00000
     31      -0.3725      1.00000
     32      -0.2299      1.00000
     33       0.2468      1.00000
     34       0.3424      1.00000
     35       0.6542      1.00000
     36       0.8624      1.00000
     37       1.0321      1.00000
     38       1.1198      1.00000
     39       1.2329      1.00000
     40       1.3061      1.00000
     41       1.8509      0.00000
     42       1.8911      0.00000
     43       2.4356      0.00000
     44       2.5092      0.00000
     45       3.5102      0.00000
     46       3.6052      0.00000
     47       4.0720      0.00000
     48       4.4320      0.00000
     49       4.6258      0.00000
     50       4.8769      0.00000
     51       5.7046      0.00000
     52       5.9723      0.00000
     53       6.2230      0.00000
     54       6.5520      0.00000
     55       6.7233      0.00000

 k-point    77 :       0.1667    0.3333   -0.4000
  band No.  band energies     occupation 
      1     -13.8825      1.00000
      2     -13.7870      1.00000
      3     -12.8515      1.00000
      4     -12.7902      1.00000
      5     -11.1483      1.00000
      6     -11.1167      1.00000
      7     -10.5942      1.00000
      8     -10.4996      1.00000
      9      -9.5222      1.00000
     10      -9.4809      1.00000
     11      -7.2682      1.00000
     12      -7.1626      1.00000
     13      -5.2674      1.00000
     14      -5.1178      1.00000
     15      -4.6802      1.00000
     16      -4.4576      1.00000
     17      -3.6329      1.00000
     18      -3.5002      1.00000
     19      -2.9922      1.00000
     20      -2.9229      1.00000
     21      -2.6613      1.00000
     22      -2.4805      1.00000
     23      -2.2146      1.00000
     24      -2.1180      1.00000
     25      -1.6994      1.00000
     26      -1.4951      1.00000
     27      -1.0962      1.00000
     28      -0.9471      1.00000
     29      -0.6869      1.00000
     30      -0.6033      1.00000
     31      -0.3428      1.00000
     32      -0.2448      1.00000
     33       0.2973      1.00000
     34       0.4244      1.00000
     35       0.6027      1.00000
     36       0.8603      1.00000
     37       1.0173      1.00000
     38       1.1272      1.00000
     39       1.1977      1.00000
     40       1.2669      1.00000
     41       1.6650      0.00002
     42       1.7011      0.00000
     43       2.4887      0.00000
     44       2.5320      0.00000
     45       3.4481      0.00000
     46       3.5793      0.00000
     47       4.1256      0.00000
     48       4.4273      0.00000
     49       4.6108      0.00000
     50       4.9145      0.00000
     51       5.7073      0.00000
     52       5.8125      0.00000
     53       6.0509      0.00000
     54       6.3938      0.00000
     55       6.7380      0.00000

 k-point    78 :       0.3333   -0.1667   -0.4000
  band No.  band energies     occupation 
      1     -13.8764      1.00000
      2     -13.7813      1.00000
      3     -12.8556      1.00000
      4     -12.7930      1.00000
      5     -11.1571      1.00000
      6     -11.1395      1.00000
      7     -10.6035      1.00000
      8     -10.5219      1.00000
      9      -9.5153      1.00000
     10      -9.4612      1.00000
     11      -7.1728      1.00000
     12      -7.0801      1.00000
     13      -5.3139      1.00000
     14      -5.1238      1.00000
     15      -4.6370      1.00000
     16      -4.4822      1.00000
     17      -3.6865      1.00000
     18      -3.5852      1.00000
     19      -2.9896      1.00000
     20      -2.8669      1.00000
     21      -2.6603      1.00000
     22      -2.5450      1.00000
     23      -2.3363      1.00000
     24      -2.1656      1.00000
     25      -1.7456      1.00000
     26      -1.6056      1.00000
     27      -1.1011      1.00000
     28      -0.9416      1.00000
     29      -0.6068      1.00000
     30      -0.4960      1.00000
     31      -0.3722      1.00000
     32      -0.2266      1.00000
     33       0.2563      1.00000
     34       0.3274      1.00000
     35       0.7493      1.00000
     36       0.8612      1.00000
     37       0.9772      1.00000
     38       1.0817      1.00000
     39       1.2076      1.00000
     40       1.3467      1.00000
     41       1.8288      0.00000
     42       1.9108      0.00000
     43       2.4306      0.00000
     44       2.4904      0.00000
     45       3.5330      0.00000
     46       3.5623      0.00000
     47       4.1228      0.00000
     48       4.3726      0.00000
     49       4.6717      0.00000
     50       4.8784      0.00000
     51       5.6635      0.00000
     52       5.9656      0.00000
     53       6.2030      0.00000
     54       6.6164      0.00000
     55       6.7046      0.00000

 k-point    79 :      -0.1667   -0.3333   -0.4000
  band No.  band energies     occupation 
      1     -13.8829      1.00000
      2     -13.7866      1.00000
      3     -12.8510      1.00000
      4     -12.7908      1.00000
      5     -11.1473      1.00000
      6     -11.1175      1.00000
      7     -10.5925      1.00000
      8     -10.5018      1.00000
      9      -9.5219      1.00000
     10      -9.4811      1.00000
     11      -7.2620      1.00000
     12      -7.1672      1.00000
     13      -5.2800      1.00000
     14      -5.1108      1.00000
     15      -4.6621      1.00000
     16      -4.4766      1.00000
     17      -3.6309      1.00000
     18      -3.5095      1.00000
     19      -2.9978      1.00000
     20      -2.8938      1.00000
     21      -2.6173      1.00000
     22      -2.4446      1.00000
     23      -2.2530      1.00000
     24      -2.1835      1.00000
     25      -1.7434      1.00000
     26      -1.4744      1.00000
     27      -1.1015      1.00000
     28      -0.9138      1.00000
     29      -0.6802      1.00000
     30      -0.6429      1.00000
     31      -0.2957      1.00000
     32      -0.2196      1.00000
     33       0.2799      1.00000
     34       0.4265      1.00000
     35       0.6714      1.00000
     36       0.8170      1.00000
     37       1.0055      1.00000
     38       1.0828      1.00000
     39       1.1628      1.00000
     40       1.3087      1.00000
     41       1.6397      0.00032
     42       1.7465      0.00000
     43       2.4640      0.00000
     44       2.5291      0.00000
     45       3.4108      0.00000
     46       3.6023      0.00000
     47       4.1925      0.00000
     48       4.3562      0.00000
     49       4.6660      0.00000
     50       4.9144      0.00000
     51       5.6693      0.00000
     52       5.8690      0.00000
     53       5.9860      0.00000
     54       6.4406      0.00000
     55       6.7789      0.00000

 k-point    80 :       0.5000    0.1667    0.4000
  band No.  band energies     occupation 
      1     -13.8690      1.00000
      2     -13.7751      1.00000
      3     -12.8617      1.00000
      4     -12.7971      1.00000
      5     -11.1706      1.00000
      6     -11.1589      1.00000
      7     -10.5980      1.00000
      8     -10.5269      1.00000
      9      -9.5163      1.00000
     10      -9.4577      1.00000
     11      -7.1020      1.00000
     12      -7.0890      1.00000
     13      -5.2820      1.00000
     14      -5.1219      1.00000
     15      -4.6122      1.00000
     16      -4.4876      1.00000
     17      -3.6738      1.00000
     18      -3.5846      1.00000
     19      -2.9977      1.00000
     20      -2.8819      1.00000
     21      -2.7995      1.00000
     22      -2.5962      1.00000
     23      -2.1038      1.00000
     24      -2.0547      1.00000
     25      -1.9139      1.00000
     26      -1.7086      1.00000
     27      -1.0693      1.00000
     28      -0.9205      1.00000
     29      -0.5863      1.00000
     30      -0.5662      1.00000
     31      -0.4018      1.00000
     32      -0.2808      1.00000
     33       0.2394      1.00000
     34       0.4053      1.00000
     35       0.7973      1.00000
     36       0.8483      1.00000
     37       0.9318      1.00000
     38       1.0433      1.00000
     39       1.2921      1.00000
     40       1.2926      1.00000
     41       1.8057      0.00000
     42       1.8861      0.00000
     43       2.3787      0.00000
     44       2.4333      0.00000
     45       3.5535      0.00000
     46       3.5859      0.00000
     47       4.2563      0.00000
     48       4.3470      0.00000
     49       4.6832      0.00000
     50       4.8710      0.00000
     51       5.7827      0.00000
     52       5.8839      0.00000
     53       6.4845      0.00000
     54       6.5715      0.00000
     55       6.7199      0.00000

 k-point    81 :      -0.1667    0.5000    0.4000
  band No.  band energies     occupation 
      1     -13.8786      1.00000
      2     -13.7833      1.00000
      3     -12.8548      1.00000
      4     -12.7933      1.00000
      5     -11.1577      1.00000
      6     -11.1251      1.00000
      7     -10.5834      1.00000
      8     -10.4947      1.00000
      9      -9.5264      1.00000
     10      -9.4856      1.00000
     11      -7.2521      1.00000
     12      -7.2091      1.00000
     13      -5.1980      1.00000
     14      -5.1089      1.00000
     15      -4.6676      1.00000
     16      -4.4749      1.00000
     17      -3.5970      1.00000
     18      -3.5201      1.00000
     19      -2.9915      1.00000
     20      -2.9257      1.00000
     21      -2.6355      1.00000
     22      -2.4801      1.00000
     23      -2.1434      1.00000
     24      -2.0571      1.00000
     25      -1.6863      1.00000
     26      -1.6227      1.00000
     27      -1.0596      1.00000
     28      -0.9701      1.00000
     29      -0.6450      1.00000
     30      -0.6052      1.00000
     31      -0.3856      1.00000
     32      -0.2892      1.00000
     33       0.3161      1.00000
     34       0.4276      1.00000
     35       0.6617      1.00000
     36       0.7763      1.00000
     37       1.0257      1.00000
     38       1.0472      1.00000
     39       1.1392      1.00000
     40       1.2722      1.00000
     41       1.5730      0.06328
     42       1.6477      0.00014
     43       2.4561      0.00000
     44       2.4874      0.00000
     45       3.4140      0.00000
     46       3.5964      0.00000
     47       4.3083      0.00000
     48       4.4045      0.00000
     49       4.7555      0.00000
     50       4.8137      0.00000
     51       5.7071      0.00000
     52       5.8524      0.00000
     53       6.1833      0.00000
     54       6.2620      0.00000
     55       6.7524      0.00000

 k-point    82 :       0.5000   -0.1667    0.4000
  band No.  band energies     occupation 
      1     -13.8688      1.00000
      2     -13.7753      1.00000
      3     -12.8621      1.00000
      4     -12.7964      1.00000
      5     -11.1765      1.00000
      6     -11.1535      1.00000
      7     -10.5992      1.00000
      8     -10.5248      1.00000
      9      -9.5226      1.00000
     10      -9.4516      1.00000
     11      -7.1108      1.00000
     12      -7.0785      1.00000
     13      -5.2607      1.00000
     14      -5.1596      1.00000
     15      -4.6500      1.00000
     16      -4.4458      1.00000
     17      -3.6461      1.00000
     18      -3.5688      1.00000
     19      -3.0023      1.00000
     20      -2.9413      1.00000
     21      -2.7635      1.00000
     22      -2.6017      1.00000
     23      -2.1726      1.00000
     24      -2.0006      1.00000
     25      -1.8137      1.00000
     26      -1.7857      1.00000
     27      -0.9905      1.00000
     28      -0.9193      1.00000
     29      -0.6970      1.00000
     30      -0.6222      1.00000
     31      -0.3242      1.00000
     32      -0.2906      1.00000
     33       0.2876      1.00000
     34       0.3772      1.00000
     35       0.6754      1.00000
     36       0.8473      1.00000
     37       1.0241      1.00000
     38       1.0663      1.00000
     39       1.2651      1.00000
     40       1.2857      1.00000
     41       1.8467      0.00000
     42       1.8543      0.00000
     43       2.4125      0.00000
     44       2.4317      0.00000
     45       3.5406      0.00000
     46       3.5962      0.00000
     47       4.2401      0.00000
     48       4.3710      0.00000
     49       4.7600      0.00000
     50       4.7747      0.00000
     51       5.7887      0.00000
     52       5.9824      0.00000
     53       6.4014      0.00000
     54       6.6061      0.00000
     55       6.7644      0.00000

 k-point    83 :       0.1667    0.5000    0.4000
  band No.  band energies     occupation 
      1     -13.8786      1.00000
      2     -13.7833      1.00000
      3     -12.8548      1.00000
      4     -12.7933      1.00000
      5     -11.1577      1.00000
      6     -11.1251      1.00000
      7     -10.5834      1.00000
      8     -10.4947      1.00000
      9      -9.5264      1.00000
     10      -9.4856      1.00000
     11      -7.2521      1.00000
     12      -7.2091      1.00000
     13      -5.1980      1.00000
     14      -5.1089      1.00000
     15      -4.6676      1.00000
     16      -4.4749      1.00000
     17      -3.5970      1.00000
     18      -3.5201      1.00000
     19      -2.9915      1.00000
     20      -2.9257      1.00000
     21      -2.6355      1.00000
     22      -2.4801      1.00000
     23      -2.1434      1.00000
     24      -2.0571      1.00000
     25      -1.6863      1.00000
     26      -1.6227      1.00000
     27      -1.0596      1.00000
     28      -0.9701      1.00000
     29      -0.6450      1.00000
     30      -0.6052      1.00000
     31      -0.3856      1.00000
     32      -0.2892      1.00000
     33       0.3161      1.00000
     34       0.4276      1.00000
     35       0.6617      1.00000
     36       0.7763      1.00000
     37       1.0257      1.00000
     38       1.0472      1.00000
     39       1.1392      1.00000
     40       1.2722      1.00000
     41       1.5730      0.06328
     42       1.6477      0.00014
     43       2.4561      0.00000
     44       2.4874      0.00000
     45       3.4140      0.00000
     46       3.5964      0.00000
     47       4.3083      0.00000
     48       4.4045      0.00000
     49       4.7555      0.00000
     50       4.8137      0.00000
     51       5.7071      0.00000
     52       5.8524      0.00000
     53       6.1833      0.00000
     54       6.2620      0.00000
     55       6.7464      0.00000

 k-point    84 :       0.3333    0.3333    0.4000
  band No.  band energies     occupation 
      1     -13.8713      1.00000
      2     -13.7770      1.00000
      3     -12.8533      1.00000
      4     -12.7899      1.00000
      5     -11.1791      1.00000
      6     -11.1512      1.00000
      7     -10.6171      1.00000
      8     -10.5259      1.00000
      9      -9.5162      1.00000
     10      -9.4612      1.00000
     11      -7.1465      1.00000
     12      -7.0489      1.00000
     13      -5.3256      1.00000
     14      -5.1395      1.00000
     15      -4.6296      1.00000
     16      -4.4698      1.00000
     17      -3.6784      1.00000
     18      -3.5782      1.00000
     19      -2.9420      1.00000
     20      -2.8665      1.00000
     21      -2.6916      1.00000
     22      -2.4562      1.00000
     23      -2.2876      1.00000
     24      -2.0688      1.00000
     25      -1.7940      1.00000
     26      -1.4985      1.00000
     27      -1.1780      1.00000
     28      -1.0242      1.00000
     29      -0.5469      1.00000
     30      -0.5362      1.00000
     31      -0.3423      1.00000
     32      -0.2107      1.00000
     33       0.2235      1.00000
     34       0.2798      1.00000
     35       0.6127      1.00000
     36       0.7958      1.00000
     37       1.0189      1.00000
     38       1.0479      1.00000
     39       1.1590      1.00000
     40       1.3416      1.00000
     41       1.6591      0.00004
     42       1.7871      0.00000
     43       2.4340      0.00000
     44       2.4932      0.00000
     45       3.5036      0.00000
     46       3.5649      0.00000
     47       4.0305      0.00000
     48       4.3185      0.00000
     49       4.7102      0.00000
     50       4.8744      0.00000
     51       5.8262      0.00000
     52       6.1151      0.00000
     53       6.2959      0.00000
     54       6.6248      0.00000
     55       6.7128      0.00000

 k-point    85 :      -0.3333    0.3333    0.4000
  band No.  band energies     occupation 
      1     -13.8713      1.00000
      2     -13.7770      1.00000
      3     -12.8533      1.00000
      4     -12.7899      1.00000
      5     -11.1791      1.00000
      6     -11.1512      1.00000
      7     -10.6171      1.00000
      8     -10.5259      1.00000
      9      -9.5162      1.00000
     10      -9.4612      1.00000
     11      -7.1465      1.00000
     12      -7.0489      1.00000
     13      -5.3256      1.00000
     14      -5.1395      1.00000
     15      -4.6296      1.00000
     16      -4.4698      1.00000
     17      -3.6784      1.00000
     18      -3.5782      1.00000
     19      -2.9420      1.00000
     20      -2.8665      1.00000
     21      -2.6916      1.00000
     22      -2.4562      1.00000
     23      -2.2876      1.00000
     24      -2.0688      1.00000
     25      -1.7940      1.00000
     26      -1.4985      1.00000
     27      -1.1780      1.00000
     28      -1.0242      1.00000
     29      -0.5469      1.00000
     30      -0.5362      1.00000
     31      -0.3423      1.00000
     32      -0.2107      1.00000
     33       0.2235      1.00000
     34       0.2798      1.00000
     35       0.6127      1.00000
     36       0.7958      1.00000
     37       1.0189      1.00000
     38       1.0479      1.00000
     39       1.1590      1.00000
     40       1.3416      1.00000
     41       1.6591      0.00004
     42       1.7871      0.00000
     43       2.4340      0.00000
     44       2.4932      0.00000
     45       3.5036      0.00000
     46       3.5649      0.00000
     47       4.0305      0.00000
     48       4.3185      0.00000
     49       4.7102      0.00000
     50       4.8744      0.00000
     51       5.8262      0.00000
     52       6.1151      0.00000
     53       6.2959      0.00000
     54       6.6248      0.00000
     55       6.7126      0.00000

 k-point    86 :      -0.3333   -0.3333    0.4000
  band No.  band energies     occupation 
      1     -13.8711      1.00000
      2     -13.7773      1.00000
      3     -12.8538      1.00000
      4     -12.7893      1.00000
      5     -11.1837      1.00000
      6     -11.1468      1.00000
      7     -10.6187      1.00000
      8     -10.5238      1.00000
      9      -9.5204      1.00000
     10      -9.4571      1.00000
     11      -7.1503      1.00000
     12      -7.0446      1.00000
     13      -5.3120      1.00000
     14      -5.1591      1.00000
     15      -4.6700      1.00000
     16      -4.4280      1.00000
     17      -3.6653      1.00000
     18      -3.5614      1.00000
     19      -2.9332      1.00000
     20      -2.8870      1.00000
     21      -2.7388      1.00000
     22      -2.4979      1.00000
     23      -2.2435      1.00000
     24      -2.0037      1.00000
     25      -1.7954      1.00000
     26      -1.4995      1.00000
     27      -1.1573      1.00000
     28      -1.0486      1.00000
     29      -0.6272      1.00000
     30      -0.5009      1.00000
     31      -0.3239      1.00000
     32      -0.2235      1.00000
     33       0.1840      1.00000
     34       0.3439      1.00000
     35       0.5542      1.00000
     36       0.7633      1.00000
     37       1.0516      1.00000
     38       1.0983      1.00000
     39       1.1800      1.00000
     40       1.2889      1.00000
     41       1.6970      0.00000
     42       1.7546      0.00000
     43       2.4476      0.00000
     44       2.5128      0.00000
     45       3.4920      0.00000
     46       3.5999      0.00000
     47       3.9665      0.00000
     48       4.3644      0.00000
     49       4.6953      0.00000
     50       4.8674      0.00000
     51       5.8968      0.00000
     52       6.0620      0.00000
     53       6.3126      0.00000
     54       6.6271      0.00000
     55       6.7644      0.00000

 k-point    87 :       0.3333   -0.3333    0.4000
  band No.  band energies     occupation 
      1     -13.8711      1.00000
      2     -13.7773      1.00000
      3     -12.8538      1.00000
      4     -12.7893      1.00000
      5     -11.1837      1.00000
      6     -11.1468      1.00000
      7     -10.6187      1.00000
      8     -10.5238      1.00000
      9      -9.5204      1.00000
     10      -9.4571      1.00000
     11      -7.1503      1.00000
     12      -7.0446      1.00000
     13      -5.3120      1.00000
     14      -5.1591      1.00000
     15      -4.6700      1.00000
     16      -4.4280      1.00000
     17      -3.6653      1.00000
     18      -3.5614      1.00000
     19      -2.9332      1.00000
     20      -2.8870      1.00000
     21      -2.7388      1.00000
     22      -2.4979      1.00000
     23      -2.2435      1.00000
     24      -2.0037      1.00000
     25      -1.7954      1.00000
     26      -1.4995      1.00000
     27      -1.1573      1.00000
     28      -1.0486      1.00000
     29      -0.6272      1.00000
     30      -0.5009      1.00000
     31      -0.3239      1.00000
     32      -0.2235      1.00000
     33       0.1840      1.00000
     34       0.3439      1.00000
     35       0.5542      1.00000
     36       0.7633      1.00000
     37       1.0516      1.00000
     38       1.0983      1.00000
     39       1.1800      1.00000
     40       1.2889      1.00000
     41       1.6970      0.00000
     42       1.7546      0.00000
     43       2.4476      0.00000
     44       2.5128      0.00000
     45       3.4920      0.00000
     46       3.5999      0.00000
     47       3.9665      0.00000
     48       4.3644      0.00000
     49       4.6953      0.00000
     50       4.8674      0.00000
     51       5.8968      0.00000
     52       6.0620      0.00000
     53       6.3126      0.00000
     54       6.6272      0.00000
     55       6.7658      0.00000

 k-point    88 :       0.5000    0.3333    0.4000
  band No.  band energies     occupation 
      1     -13.8655      1.00000
      2     -13.7721      1.00000
      3     -12.8545      1.00000
      4     -12.7898      1.00000
      5     -11.1933      1.00000
      6     -11.1678      1.00000
      7     -10.6275      1.00000
      8     -10.5418      1.00000
      9      -9.5119      1.00000
     10      -9.4516      1.00000
     11      -7.0482      1.00000
     12      -7.0262      1.00000
     13      -5.3280      1.00000
     14      -5.1959      1.00000
     15      -4.5980      1.00000
     16      -4.4573      1.00000
     17      -3.7118      1.00000
     18      -3.6103      1.00000
     19      -2.8708      1.00000
     20      -2.8641      1.00000
     21      -2.7854      1.00000
     22      -2.4400      1.00000
     23      -2.1903      1.00000
     24      -2.1057      1.00000
     25      -1.7777      1.00000
     26      -1.6077      1.00000
     27      -1.1869      1.00000
     28      -1.0711      1.00000
     29      -0.5169      1.00000
     30      -0.4489      1.00000
     31      -0.3528      1.00000
     32      -0.2523      1.00000
     33       0.2114      1.00000
     34       0.2368      1.00000
     35       0.6488      1.00000
     36       0.7148      1.00000
     37       0.9879      1.00000
     38       1.0276      1.00000
     39       1.2270      1.00000
     40       1.3300      1.00000
     41       1.6882      0.00000
     42       1.7981      0.00000
     43       2.4449      0.00000
     44       2.4725      0.00000
     45       3.5247      0.00000
     46       3.5402      0.00000
     47       4.0576      0.00000
     48       4.1347      0.00000
     49       4.7326      0.00000
     50       4.8653      0.00000
     51       6.0191      0.00000
     52       6.1672      0.00000
     53       6.5355      0.00000
     54       6.6038      0.00000
     55       6.7928      0.00000

 k-point    89 :      -0.3333    0.5000    0.4000
  band No.  band energies     occupation 
      1     -13.8686      1.00000
      2     -13.7750      1.00000
      3     -12.8523      1.00000
      4     -12.7883      1.00000
      5     -11.1920      1.00000
      6     -11.1552      1.00000
      7     -10.6221      1.00000
      8     -10.5295      1.00000
      9      -9.5184      1.00000
     10      -9.4595      1.00000
     11      -7.1058      1.00000
     12      -7.0628      1.00000
     13      -5.2887      1.00000
     14      -5.1911      1.00000
     15      -4.6468      1.00000
     16      -4.4467      1.00000
     17      -3.6629      1.00000
     18      -3.5646      1.00000
     19      -2.9352      1.00000
     20      -2.8941      1.00000
     21      -2.6389      1.00000
     22      -2.5218      1.00000
     23      -2.1574      1.00000
     24      -2.0662      1.00000
     25      -1.6335      1.00000
     26      -1.5657      1.00000
     27      -1.1892      1.00000
     28      -1.1615      1.00000
     29      -0.5542      1.00000
     30      -0.4672      1.00000
     31      -0.3451      1.00000
     32      -0.2476      1.00000
     33       0.1918      1.00000
     34       0.2889      1.00000
     35       0.5905      1.00000
     36       0.6703      1.00000
     37       1.0147      1.00000
     38       1.0665      1.00000
     39       1.1898      1.00000
     40       1.3070      1.00000
     41       1.6220      0.00179
     42       1.7048      0.00000
     43       2.4551      0.00000
     44       2.4954      0.00000
     45       3.4777      0.00000
     46       3.5829      0.00000
     47       4.0833      0.00000
     48       4.1721      0.00000
     49       4.7399      0.00000
     50       4.8281      0.00000
     51       6.0075      0.00000
     52       6.1413      0.00000
     53       6.4233      0.00000
     54       6.5510      0.00000
     55       6.7628      0.00000

 k-point    90 :       0.5000   -0.3333    0.4000
  band No.  band energies     occupation 
      1     -13.8652      1.00000
      2     -13.7724      1.00000
      3     -12.8549      1.00000
      4     -12.7892      1.00000
      5     -11.1991      1.00000
      6     -11.1624      1.00000
      7     -10.6288      1.00000
      8     -10.5399      1.00000
      9      -9.5181      1.00000
     10      -9.4456      1.00000
     11      -7.0576      1.00000
     12      -7.0147      1.00000
     13      -5.3062      1.00000
     14      -5.2335      1.00000
     15      -4.6357      1.00000
     16      -4.4131      1.00000
     17      -3.6932      1.00000
     18      -3.5912      1.00000
     19      -2.9689      1.00000
     20      -2.8599      1.00000
     21      -2.6763      1.00000
     22      -2.5219      1.00000
     23      -2.1731      1.00000
     24      -2.0785      1.00000
     25      -1.7078      1.00000
     26      -1.6795      1.00000
     27      -1.1490      1.00000
     28      -1.0733      1.00000
     29      -0.5804      1.00000
     30      -0.4923      1.00000
     31      -0.3146      1.00000
     32      -0.2261      1.00000
     33       0.1822      1.00000
     34       0.2861      1.00000
     35       0.5561      1.00000
     36       0.7167      1.00000
     37       1.0139      1.00000
     38       1.0483      1.00000
     39       1.2707      1.00000
     40       1.2863      1.00000
     41       1.7264      0.00000
     42       1.7530      0.00000
     43       2.4582      0.00000
     44       2.5018      0.00000
     45       3.4990      0.00000
     46       3.5704      0.00000
     47       4.0342      0.00000
     48       4.1536      0.00000
     49       4.7566      0.00000
     50       4.8276      0.00000
     51       6.0715      0.00000
     52       6.2242      0.00000
     53       6.5591      0.00000
     54       6.6263      0.00000
     55       6.7680      0.00000

 k-point    91 :       0.3333    0.5000    0.4000
  band No.  band energies     occupation 
      1     -13.8686      1.00000
      2     -13.7750      1.00000
      3     -12.8523      1.00000
      4     -12.7883      1.00000
      5     -11.1920      1.00000
      6     -11.1552      1.00000
      7     -10.6221      1.00000
      8     -10.5295      1.00000
      9      -9.5184      1.00000
     10      -9.4595      1.00000
     11      -7.1058      1.00000
     12      -7.0628      1.00000
     13      -5.2887      1.00000
     14      -5.1911      1.00000
     15      -4.6468      1.00000
     16      -4.4467      1.00000
     17      -3.6629      1.00000
     18      -3.5646      1.00000
     19      -2.9352      1.00000
     20      -2.8941      1.00000
     21      -2.6389      1.00000
     22      -2.5218      1.00000
     23      -2.1574      1.00000
     24      -2.0662      1.00000
     25      -1.6335      1.00000
     26      -1.5657      1.00000
     27      -1.1892      1.00000
     28      -1.1615      1.00000
     29      -0.5542      1.00000
     30      -0.4672      1.00000
     31      -0.3451      1.00000
     32      -0.2476      1.00000
     33       0.1918      1.00000
     34       0.2889      1.00000
     35       0.5905      1.00000
     36       0.6703      1.00000
     37       1.0147      1.00000
     38       1.0665      1.00000
     39       1.1898      1.00000
     40       1.3070      1.00000
     41       1.6220      0.00179
     42       1.7048      0.00000
     43       2.4551      0.00000
     44       2.4954      0.00000
     45       3.4777      0.00000
     46       3.5829      0.00000
     47       4.0833      0.00000
     48       4.1721      0.00000
     49       4.7399      0.00000
     50       4.8281      0.00000
     51       6.0075      0.00000
     52       6.1413      0.00000
     53       6.4233      0.00000
     54       6.5510      0.00000
     55       6.7620      0.00000

 k-point    92 :       0.5000    0.5000    0.4000
  band No.  band energies     occupation 
      1     -13.8636      1.00000
      2     -13.7708      1.00000
      3     -12.8511      1.00000
      4     -12.7858      1.00000
      5     -11.2075      1.00000
      6     -11.1696      1.00000
      7     -10.6425      1.00000
      8     -10.5482      1.00000
      9      -9.5131      1.00000
     10      -9.4457      1.00000
     11      -7.0250      1.00000
     12      -6.9871      1.00000
     13      -5.3414      1.00000
     14      -5.2532      1.00000
     15      -4.6111      1.00000
     16      -4.4207      1.00000
     17      -3.7222      1.00000
     18      -3.6099      1.00000
     19      -2.9100      1.00000
     20      -2.8427      1.00000
     21      -2.6115      1.00000
     22      -2.4969      1.00000
     23      -2.1787      1.00000
     24      -2.1309      1.00000
     25      -1.6178      1.00000
     26      -1.5519      1.00000
     27      -1.2478      1.00000
     28      -1.2417      1.00000
     29      -0.4804      1.00000
     30      -0.3735      1.00000
     31      -0.3284      1.00000
     32      -0.2274      1.00000
     33       0.0976      1.00000
     34       0.1739      1.00000
     35       0.5858      1.00000
     36       0.6185      1.00000
     37       0.9870      1.00000
     38       1.0243      1.00000
     39       1.2610      1.00000
     40       1.3361      1.00000
     41       1.6671      0.00001
     42       1.7490      0.00000
     43       2.5035      0.00000
     44       2.5181      0.00000
     45       3.4966      0.00000
     46       3.5243      0.00000
     47       3.9241      0.00000
     48       4.0289      0.00000
     49       4.7665      0.00000
     50       4.8643      0.00000
     51       6.1651      0.00000
     52       6.2875      0.00000
     53       6.5494      0.00000
     54       6.6493      0.00000
     55       6.8260      0.00000


--------------------------------------------------------------------------------------------------------


 soft charge-density along one line, spin component           1
         0         1         2         3         4         5         6         7         8         9
 total charge-density along one line
 
 soft charge-density along one line, spin component           2
         0         1         2         3         4         5         6         7         8         9
 total charge-density along one line
 
 pseudopotential strength for first ion, spin component:           1
  6.582  10.034  -0.002  -0.001   0.000  -0.003  -0.002   0.001
 10.034  15.293  -0.003  -0.002   0.001  -0.005  -0.004   0.002
 -0.002  -0.003  -2.274  -0.001   0.000  -3.889  -0.002   0.001
 -0.001  -0.002  -0.001  -2.275   0.000  -0.002  -3.891   0.000
  0.000   0.001   0.000   0.000  -2.278   0.001   0.000  -3.896
 -0.003  -0.005  -3.889  -0.002   0.001  -6.453  -0.004   0.002
 -0.002  -0.004  -0.002  -3.891   0.000  -0.004  -6.457   0.001
  0.001   0.002   0.001   0.000  -3.896   0.002   0.001  -6.466
 pseudopotential strength for first ion, spin component:           2
  6.583  10.036  -0.002  -0.001   0.001  -0.003  -0.002   0.002
 10.036  15.296  -0.003  -0.001   0.002  -0.005  -0.003   0.003
 -0.002  -0.003  -2.274  -0.001   0.001  -3.889  -0.002   0.001
 -0.001  -0.001  -0.001  -2.275   0.001  -0.002  -3.891   0.001
  0.001   0.002   0.001   0.001  -2.277   0.001   0.001  -3.894
 -0.003  -0.005  -3.889  -0.002   0.001  -6.453  -0.005   0.003
 -0.002  -0.003  -0.002  -3.891   0.001  -0.005  -6.456   0.003
  0.002   0.003   0.001   0.001  -3.894   0.003   0.003  -6.463
 total augmentation occupancy for first ion, spin component:           1
  2.365  -0.430  -0.094   0.068  -0.385   0.032  -0.021   0.144
 -0.430   0.115   0.035  -0.014   0.150  -0.008   0.006  -0.049
 -0.094   0.035   1.950  -0.095  -0.302  -0.452   0.004   0.104
  0.068  -0.014  -0.095   1.478  -0.679   0.004  -0.308   0.179
 -0.385   0.150  -0.302  -0.679   1.806   0.104   0.180  -0.436
  0.032  -0.008  -0.452   0.004   0.104   0.114   0.003  -0.034
 -0.021   0.006   0.004  -0.308   0.180   0.003   0.071  -0.050
  0.144  -0.049   0.104   0.179  -0.436  -0.034  -0.050   0.116
 total augmentation occupancy for first ion, spin component:           2
 -0.003  -0.000  -0.000  -0.002  -0.003  -0.000   0.000   0.001
 -0.000  -0.000  -0.000  -0.000  -0.000   0.000   0.000  -0.000
 -0.000  -0.000   0.000   0.005  -0.003   0.000  -0.000   0.000
 -0.002  -0.000   0.005   0.004  -0.006  -0.000  -0.001   0.001
 -0.003  -0.000  -0.003  -0.006  -0.009   0.000   0.001   0.001
 -0.000   0.000   0.000  -0.000   0.000   0.000   0.000  -0.000
  0.000   0.000  -0.000  -0.001   0.001   0.000   0.000  -0.000
  0.001  -0.000   0.000   0.001   0.001  -0.000  -0.000   0.000


------------------------ aborting loop because EDIFF is reached ----------------------------------------





 total charge

# of ion       s       p       d       tot
------------------------------------------
    1        0.663   0.898   0.000   1.562
    2        0.730   1.222   0.000   1.952
    3        0.663   0.898   0.000   1.562
    4        0.730   1.222   0.000   1.952
    5        1.128   1.251   0.000   2.379
    6        1.128   1.251   0.000   2.379
    7        1.374   2.542   0.000   3.916
    8        1.374   2.542   0.000   3.916
    9        1.377   2.273   0.000   3.650
   10        1.367   2.261   0.000   3.628
   11        1.381   2.192   0.000   3.572
   12        1.353   2.352   0.000   3.704
   13        1.367   2.261   0.000   3.628
   14        1.377   2.273   0.000   3.650
   15        1.353   2.352   0.000   3.704
   16        1.381   2.192   0.000   3.572
--------------------------------------------------
tot         18.745  29.982   0.000  48.727



 magnetization (x)

# of ion       s       p       d       tot
------------------------------------------
    1       -0.002  -0.002   0.000  -0.004
    2       -0.002  -0.013   0.000  -0.015
    3       -0.002  -0.002   0.000  -0.004
    4       -0.002  -0.013   0.000  -0.015
    5        0.006   0.004   0.000   0.010
    6        0.006   0.004   0.000   0.010
    7        0.002   0.045   0.000   0.047
    8        0.002   0.045   0.000   0.047
    9        0.002   0.052   0.000   0.054
   10        0.002   0.034   0.000   0.036
   11        0.013   0.431   0.000   0.443
   12        0.002   0.045   0.000   0.046
   13        0.002   0.034   0.000   0.036
   14        0.002   0.052   0.000   0.054
   15        0.002   0.045   0.000   0.046
   16        0.013   0.431   0.000   0.443
--------------------------------------------------
tot          0.043   1.192   0.000   1.235
 
    CHARGE:  cpu time      0.7221: real time      0.7253
    FORLOC:  cpu time      0.0050: real time      0.0050
    FORNL :  cpu time      3.0590: real time      3.0724
    STRESS:  cpu time      5.9552: real time      5.9801
    FORCOR:  cpu time      0.0788: real time      0.0791
    FORHAR:  cpu time      0.0129: real time      0.0129
    MIXING:  cpu time      0.0025: real time      0.0025
    OFIELD:  cpu time      0.0001: real time      0.0001

  FORCE on cell =-STRESS in cart. coord.  units (eV):
  Direction    XX          YY          ZZ          XY          YZ          ZX
  --------------------------------------------------------------------------------------
  Alpha Z    82.56966    82.56966    82.56966
  Ewald    -557.75844 -1004.69847 -1104.71963    -0.00005  -164.90758     0.00000
  Hartree   375.81811   187.20944   185.05824    -0.00001   -36.98880     0.00000
  E(xc)    -277.40668  -278.90768  -280.17143    -0.00000    -0.01995     0.00000
  Local   -1263.56176  -641.65841  -597.89310     0.00006   196.50810     0.00000
  n-local   850.81317   843.74671   860.29650    -0.00000   -12.12045    -0.00000
  augment  -195.08749  -195.25273  -202.56344    -0.00000     0.92546     0.00000
  Kinetic   966.89242  1008.51302  1074.58548     0.00001     1.10355    -0.00001
  Fock        0.00000     0.00000     0.00000     0.00000     0.00000     0.00000
  -------------------------------------------------------------------------------------
  Total     -17.72100     1.52153    17.16229    -0.00000   -15.49967    -0.00000
  in kB     -74.56676     6.40233    72.21578    -0.00001   -65.21978    -0.00002
  external pressure =        1.35 kB  Pullay stress =        0.00 kB


 VOLUME and BASIS-vectors are now :
 -----------------------------------------------------------------------------
  energy-cutoff  :      520.00
  volume of cell :      380.76
      direct lattice vectors                 reciprocal lattice vectors
     6.887064934  0.000000000  0.000000000     0.145199735  0.000000000  0.000000000
     0.000000000  6.887064934  0.000000000     0.000000000  0.145199735  0.000000000
     0.000000000  0.000000000  8.027591705     0.000000000  0.000000000  0.124570361

  length of vectors
     6.887064934  6.887064934  8.027591705     0.145199735  0.145199735  0.124570361


 FORCES acting on ions
    electron-ion (+dipol)            ewald-force                    non-local-force                 convergence-correction
 -----------------------------------------------------------------------------------------------
   -.491E+02 0.627E+01 -.440E+01   0.490E+02 -.515E+01 0.452E+01   -.398E+00 0.916E-01 -.600E+00   0.167E-05 -.135E-04 0.930E-04
   0.407E+02 -.615E+02 0.245E+02   -.433E+02 0.657E+02 -.295E+02   -.708E+00 0.270E+01 -.353E+01   -.235E-03 -.226E-03 0.113E-03
   0.491E+02 0.627E+01 -.440E+01   -.490E+02 -.515E+01 0.452E+01   0.398E+00 0.916E-01 -.600E+00   -.119E-05 -.135E-04 0.947E-04
   -.407E+02 -.615E+02 0.245E+02   0.433E+02 0.657E+02 -.295E+02   0.708E+00 0.270E+01 -.353E+01   0.232E-03 -.226E-03 0.116E-03
   -.123E+02 0.395E+02 -.518E+02   0.110E+02 -.439E+02 0.625E+02   -.961E+00 0.352E+01 -.958E+01   0.690E-04 -.106E-03 0.368E-03
   0.123E+02 0.395E+02 -.518E+02   -.110E+02 -.439E+02 0.625E+02   0.961E+00 0.352E+01 -.958E+01   -.699E-04 -.105E-03 0.363E-03
   -.135E+02 0.864E+02 -.971E+02   0.154E+02 -.857E+02 0.959E+02   -.542E+01 -.864E+01 0.765E+01   0.104E-03 0.482E-03 -.436E-03
   0.135E+02 0.864E+02 -.971E+02   -.154E+02 -.857E+02 0.959E+02   0.542E+01 -.864E+01 0.765E+01   -.107E-03 0.483E-03 -.445E-03
   0.467E+02 0.229E+02 0.423E+02   -.476E+02 -.229E+02 -.417E+02   0.291E+01 0.619E+00 -.367E+00   -.434E-04 0.182E-04 0.747E-04
   0.671E+02 -.958E+02 0.287E+02   -.683E+02 0.987E+02 -.295E+02   0.179E+01 -.605E+01 0.197E+01   -.382E-03 0.217E-03 -.352E-03
   -.569E+02 -.346E+02 0.206E+02   0.605E+02 0.342E+02 -.217E+02   -.629E+01 0.147E+01 0.211E+01   0.395E-03 0.111E-03 -.879E-04
   -.303E+02 0.377E+02 0.356E+02   0.314E+02 -.409E+02 -.405E+02   0.959E+00 0.538E+01 0.397E+01   0.113E-03 0.111E-03 -.164E-03
   -.671E+02 -.958E+02 0.287E+02   0.683E+02 0.987E+02 -.295E+02   -.179E+01 -.605E+01 0.197E+01   0.380E-03 0.217E-03 -.352E-03
   -.467E+02 0.229E+02 0.423E+02   0.476E+02 -.229E+02 -.417E+02   -.291E+01 0.619E+00 -.367E+00   0.432E-04 0.167E-04 0.725E-04
   0.303E+02 0.377E+02 0.356E+02   -.314E+02 -.409E+02 -.405E+02   -.959E+00 0.538E+01 0.397E+01   -.112E-03 0.112E-03 -.163E-03
   0.569E+02 -.346E+02 0.206E+02   -.605E+02 0.342E+02 -.217E+02   0.629E+01 0.147E+01 0.211E+01   -.394E-03 0.111E-03 -.861E-04
 -----------------------------------------------------------------------------------------------
   0.133E-04 0.183E+01 -.326E+01   -.142E-13 0.355E-13 0.213E-13   -.460E-05 -.183E+01 0.326E+01   -.722E-05 0.119E-02 -.791E-03
 
 
 POSITION                                       TOTAL-FORCE (eV/Angst)
 -----------------------------------------------------------------------------------
      4.95010      3.90324      3.07770        -0.430709      1.213392     -0.478355
      2.98382      4.95010      3.07770        -3.353968      6.872455     -8.470774
      1.93697      3.90324      7.09150         0.430708      1.213392     -0.478359
      3.90324      4.95010      7.09150         3.353968      6.872462     -8.470784
      6.33570      1.45927      7.34701        -2.335394     -0.898775      1.064305
      0.55136      1.45927      3.33321         2.335395     -0.898776      1.064316
      3.51214      3.90283      0.10094        -3.445718     -7.926563      6.490657
      3.37493      3.90283      4.11474         3.445716     -7.926557      6.490649
      4.61934      1.03403      6.35560         1.943187      0.612260      0.251139
      2.26772      5.85303      6.35560         0.633052     -3.173315      1.148143
      5.85303      4.61934      6.35560        -2.725663      1.087443      0.940782
      1.03403      2.26772      6.35560         2.067050      2.213096     -0.945883
      4.61934      5.85303      2.34180        -0.633051     -3.173313      1.148139
      2.26772      1.03403      2.34180        -1.943182      0.612259      0.251134
      5.85303      2.26772      2.34180        -2.067056      2.213097     -0.945889
      1.03403      4.61934      2.34180         2.725665      1.087443      0.940780
 -----------------------------------------------------------------------------------
    total drift:                                0.000002     -0.000216     -0.000478


--------------------------------------------------------------------------------------------------------



  FREE ENERGIE OF THE ION-ELECTRON SYSTEM (eV)
  ---------------------------------------------------
  free  energy   TOTEN  =       -70.03564736 eV

  energy  without entropy=      -70.03411387  energy(sigma->0) =      -70.03488061
 


--------------------------------------------------------------------------------------------------------


    POTLOK:  cpu time      0.3195: real time      0.3207


--------------------------------------------------------------------------------------------------------


     LOOP+:  cpu time    315.6927: real time    317.2101
    4ORBIT:  cpu time      0.0000: real time      0.0000



 total charge

# of ion       s       p       d       tot
------------------------------------------
    1        0.663   0.898   0.000   1.562
    2        0.730   1.222   0.000   1.952
    3        0.663   0.898   0.000   1.562
    4        0.730   1.222   0.000   1.952
    5        1.128   1.251   0.000   2.379
    6        1.128   1.251   0.000   2.379
    7        1.374   2.542   0.000   3.916
    8        1.374   2.542   0.000   3.916
    9        1.377   2.273   0.000   3.650
   10        1.367   2.261   0.000   3.628
   11        1.381   2.192   0.000   3.572
   12        1.353   2.352   0.000   3.704
   13        1.367   2.261   0.000   3.628
   14        1.377   2.273   0.000   3.650
   15        1.353   2.352   0.000   3.704
   16        1.381   2.192   0.000   3.572
--------------------------------------------------
tot         18.745  29.982   0.000  48.727



 magnetization (x)

# of ion       s       p       d       tot
------------------------------------------
    1       -0.002  -0.002   0.000  -0.004
    2       -0.002  -0.013   0.000  -0.015
    3       -0.002  -0.002   0.000  -0.004
    4       -0.002  -0.013   0.000  -0.015
    5        0.006   0.004   0.000   0.010
    6        0.006   0.004   0.000   0.010
    7        0.002   0.045   0.000   0.047
    8        0.002   0.045   0.000   0.047
    9        0.002   0.052   0.000   0.054
   10        0.002   0.034   0.000   0.036
   11        0.013   0.431   0.000   0.443
   12        0.002   0.045   0.000   0.046
   13        0.002   0.034   0.000   0.036
   14        0.002   0.052   0.000   0.054
   15        0.002   0.045   0.000   0.046
   16        0.013   0.431   0.000   0.443
--------------------------------------------------
tot          0.043   1.192   0.000   1.235
 

 total amount of memory used by VASP MPI-rank0   183885. kBytes
=======================================================================

   base      :      30000. kBytes
   nonl-proj :      46412. kBytes
   fftplans  :      11852. kBytes
   grid      :      10589. kBytes
   one-center:         24. kBytes
   wavefun   :      85008. kBytes
 
  
  
 General timing and accounting informations for this job:
 ========================================================
  
                  Total CPU time used (sec):      324.586
                            User time (sec):      318.205
                          System time (sec):        6.382
                         Elapsed time (sec):      326.470
  
                   Maximum memory used (kb):      241620.
                   Average memory used (kb):          N/A
  
                          Minor page faults:       190665
                          Major page faults:            5
                 Voluntary context switches:          861
