Mg1 Cd1 Fe1 S1 Br8
1.0
   6.1714200973510742    0.0000000000000000    0.0000000000000000
   0.0000000000000000    6.1714200973510742    0.0000000000000000
   0.0000000000000000    0.0000000000000000   11.6038665771484375
Fe Br Mg Br S Cd
1 4 1 4 1 1
direct
   0.4959644973278046    0.9820204973220825    0.7470097541809082 Fe
   0.2535606026649475    0.7508391737937927    0.8749327659606934 Br
   0.7464393973350525    0.2491608262062073    0.8749327659606934 Br
   0.7508391737937927    0.7464393973350525    0.1250672340393066 Br
   0.2491608262062073    0.2535606026649475    0.1250672340393066 Br
   0.9950334429740906    0.4824251532554626    0.2515579760074615 Mg
   0.7571533918380737    0.2551083266735077    0.3710858523845673 Br
   0.2428466081619263    0.7448916435241699    0.3710858523845673 Br
   0.2551083266735077    0.2428466081619263    0.6289141178131104 Br
   0.7448916435241699    0.7571533918380737    0.6289141178131104 Br
   0.7514551877975464    0.4849507510662079    0.7471295595169067 S
   0.9992228150367737    0.9805282950401306    0.0028043673373759 Cd
