F12
1.0
   7.5301609039306641    0.0000000000000000    0.0000000000000000
   0.0000000000000000    7.5301609039306641    0.0000000000000000
   0.0000000000000000    0.0000000000000000    2.8964223861694336
F
12
direct
   0.5378652811050415    0.2979439795017242    0.7498770952224731 F
   0.9621347188949585    0.2020560204982758    0.7498770952224731 F
   0.2020560204982758    0.5378652811050415    0.7498770952224731 F
   0.2979439795017242    0.9621347188949585    0.7498770952224731 F
   0.4621347188949585    0.7020560503005981    0.2501229047775269 F
   0.0378652811050415    0.7979439496994019    0.2501229047775269 F
   0.7979439496994019    0.4621347188949585    0.2501229047775269 F
   0.7020560503005981    0.0378652811050415    0.2501229047775269 F
   0.9340205788612366    0.9241343140602112    0.7530744671821594 F
   0.5659794211387634    0.5758656859397888    0.7530744671821594 F
   0.5758656859397888    0.9340205788612366    0.7530744671821594 F
   0.9241343140602112    0.5659794211387634    0.7530744671821594 F
