H10
1.0
   4.9303836822509766   -1.3210923671722412    0.0000000000000000
  -1.3210923671722412    4.9303836822509766    0.0000000000000000
   0.0000000000000000    0.0000000000000000    4.7224335670471191
H
10
direct
   0.8356639146804810    0.6252796053886414    0.6266610026359558 H
   0.3747203946113586    0.2103843092918396    0.6266610026359558 H
   0.7896156907081604    0.1643360853195190    0.6266610026359558 H
   0.1643360853195190    0.3747203946113586    0.1266610622406006 H
   0.6252796053886414    0.7896156907081604    0.1266610622406006 H
   0.2103843092918396    0.8356639146804810    0.1266610622406006 H
   0.0355707518756390    0.3926756978034973    0.7253947854042053 H
   0.6428950428962708    0.0355707518756390    0.2253947257995605 H
   0.0355707518756390    0.6428950428962708    0.2253947257995605 H
   0.3926756978034973    0.0355707518756390    0.7253947854042053 H
