Zn2 H10
1.0
   4.7691040039062500    0.0000000000000000    0.0000000000000000
   0.0000000000000000    4.7691040039062500    0.0000000000000000
   0.0000000000000000    0.0000000000000000    5.7691426277160645
Zn H
2 10
direct
   0.3934953510761261    0.3980001211166382    0.7379630804061890 Zn
   0.1019998788833618    0.3934953510761261    0.2379630804061890 Zn
   0.8071361780166626    0.5294035077095032    0.1717336177825928 H
   0.6928638219833374    0.9705964922904968    0.1717336177825928 H
   0.9705964922904968    0.8071361780166626    0.6717336177825928 H
   0.5294035077095032    0.6928638219833374    0.6717336177825928 H
   0.6928638219833374    0.5294035077095032    0.3282663822174072 H
   0.8071361780166626    0.9705964922904968    0.3282663822174072 H
   0.5294035077095032    0.8071361780166626    0.8282663822174072 H
   0.9705964922904968    0.6928638219833374    0.8282663822174072 H
   0.1975811570882797    0.2022690623998642    0.5164462327957153 H
   0.2977309226989746    0.1975811570882797    0.0164462327957153 H
