Al1 Bi1 F10
1.0
   5.2800273895263672    0.0000000000000000    0.0000000000000000
   0.0000000000000000    5.6050772666931152    0.0000000000000000
   0.0000000000000000    0.0000000000000000    7.2563776969909668
Bi F Al
1 10 1
direct
   0.4803616404533386    0.4917815029621124    0.9220008254051208 Bi
   0.2788126766681671    0.2675369679927826    0.0989895686507225 F
   0.7211873531341553    0.7324630022048950    0.0989895686507225 F
   0.2788126766681671    0.7324630022048950    0.0989895686507225 F
   0.7211873531341553    0.2675369679927826    0.0989895686507225 F
   0.2461182177066803    0.2810021042823792    0.7268155813217163 F
   0.7538818120956421    0.7189978957176208    0.7268155813217163 F
   0.2461182177066803    0.7189978957176208    0.7268155813217163 F
   0.7538818120956421    0.2810021042823792    0.7268155813217163 F
   0.0899469926953316    0.2934708595275879    0.4380204975605011 F
   0.9100530147552490    0.7065291404724121    0.4380204975605011 F
   0.9856227040290833    0.4672685861587524    0.6104836463928223 Al
