Zr4 B2 S6
1.0
   6.3621072769165039    0.0000000000000000   -0.6691889166831970
   0.0000000000000000    7.3770561218261719    0.0000000000000000
  -0.6691889166831970    0.0000000000000000    5.6100482940673828
S Zr S B
4 4 2 2
direct
   0.7301003932952881    0.2345016300678253    0.4273209869861603 S
   0.2698996067047119    0.2345016300678253    0.5726790428161621 S
   0.2698996067047119    0.7654983997344971    0.5726790428161621 S
   0.7301003932952881    0.7654983997344971    0.4273209869861603 S
   0.6710549592971802    0.9986231923103333    0.7960761785507202 Zr
   0.3289450407028198    0.0013767873169854    0.2039238214492798 Zr
   0.1710549592971802    0.4986232221126556    0.7960761785507202 Zr
   0.8289450407028198    0.5013768076896667    0.2039238214492798 Zr
   0.9726088643074036    0.7767183184623718    0.9861136674880981 S
   0.4726088047027588    0.2767183780670166    0.9861136674880981 S
   0.4979639351367950    0.2710235714912415    0.6506613492965698 B
   0.9979639053344727    0.7710235714912415    0.6506613492965698 B
