Cr3 I2
1.0
   5.0063300132751465   -1.3414419889450073    0.0000000000000000
  -1.3414419889450073    5.0063300132751465    0.0000000000000000
   0.0000000000000000    0.0000000000000000    5.5762238502502441
Cr I
3 2
direct
   0.0147064700722694    0.3014848530292511    0.9808351993560791 Cr
   0.6985151767730713    0.7132216095924377    0.9808351993560791 Cr
   0.2867783904075623    0.9852935075759888    0.9808351993560791 Cr
   0.1957914680242538    0.7050768136978149    0.3089086711406708 I
   0.8042085170745850    0.2949231863021851    0.6910912990570068 I
