Hg4 Se4
1.0
   5.5229792594909668    0.0000000000000000    0.0000000000000000
   0.0000000000000000    6.5114860534667969    0.0000000000000000
   0.0000000000000000    0.0000000000000000    8.2306060791015625
Hg Se
4 4
direct
   0.3597139120101929    0.8754602074623108    0.7468704581260681 Hg
   0.6402860879898071    0.1245397925376892    0.2531295418739319 Hg
   0.6402860879898071    0.3754601478576660    0.7468704581260681 Hg
   0.3597139120101929    0.6245397925376892    0.2531295418739319 Hg
   0.9310500025749207    0.8511388301849365    0.9543761014938354 Se
   0.0689499974250793    0.1488611698150635    0.4543761014938354 Se
   0.0689499974250793    0.1488611698150635    0.0456238985061646 Se
   0.9310500025749207    0.8511388301849365    0.5456238985061646 Se
