Ge2 P2 O6
1.0
   4.7341232299804688    0.0000000000000000    0.0000000000000000
   0.0000000000000000    4.7341232299804688    0.0000000000000000
   0.0000000000000000    0.0000000000000000    6.9113512039184570
Ge O P O
2 2 2 4
direct
   0.7508333325386047    0.7515197992324829    0.9940820336341858 Ge
   0.2491666674613953    0.2484802007675171    0.0059179663658142 Ge
   0.4902055263519287    0.4634756445884705    0.4827970862388611 O
   0.4902055263519287    0.4634756445884705    0.9827970862388611 O
   0.3691741228103638    0.6416053175926208    0.2775557041168213 P
   0.6308258771896362    0.3583946824073792    0.7224442958831787 P
   0.4621990323066711    0.9106217622756958    0.1889888346195221 O
   0.9106217622756958    0.5378009676933289    0.8110111951828003 O
   0.5378009676933289    0.0893782377243042    0.8110111951828003 O
   0.0893782377243042    0.4621990323066711    0.1889888346195221 O
