Mn2 Zn2 H4 F8
1.0
   5.6740274429321289    0.0000000000000000   -0.5365420579910278
   0.0000000000000000    5.5783348083496094    0.0000000000000000
  -0.5365420579910278    0.0000000000000000    6.5539627075195312
F Mn F Zn H
2 2 6 2 4
direct
   0.4056088030338287    0.8313106298446655    0.3551803827285767 F
   0.5943912267684937    0.3313106298446655    0.6448196172714233 F
   0.7386032342910767    0.0714231878519058    0.4727303683757782 Mn
   0.2613967657089233    0.5714231729507446    0.5272696018218994 Mn
   0.0830122530460358    0.2469336092472076    0.4521038532257080 F
   0.9169877767562866    0.7469335794448853    0.5478961467742920 F
   0.0812464505434036    0.4552633166313171    0.9982830286026001 F
   0.9187535643577576    0.9552633166313171    0.0017169713973999 F
   0.5704830884933472    0.2619965374469757    0.1979076862335205 F
   0.4295169115066528    0.7619965076446533    0.8020923137664795 F
   0.2165694683790207    0.1140662580728531    0.1860862225294113 Zn
   0.7834305167198181    0.6140662431716919    0.8139137625694275 Zn
   0.3389214277267456    0.9037826657295227    0.8498328328132629 H
   0.6610785722732544    0.4037826061248779    0.1501671671867371 H
   0.2581941485404968    0.5581541657447815    0.0156810060143471 H
   0.7418058514595032    0.0581541061401367    0.9843189716339111 H
