Nb4 Cl12
1.0
   8.2767477035522461    0.0000000000000000    0.0000000000000000
   0.0000000000000000    8.2767477035522461    0.0000000000000000
   0.0000000000000000    0.0000000000000000    8.2767477035522461
Cl Nb
12 4
direct
   0.7534526586532593    0.7442591786384583    0.0055399993434548 Cl
   0.2465473413467407    0.2557408213615417    0.0055399993434548 Cl
   0.2465473413467407    0.7442591786384583    0.9944599866867065 Cl
   0.7534526586532593    0.2557408213615417    0.9944599866867065 Cl
   0.7557408213615417    0.7465473413467407    0.4944599866867065 Cl
   0.7557408213615417    0.2534526586532593    0.5055400133132935 Cl
   0.2442591190338135    0.2534526586532593    0.4944599866867065 Cl
   0.2442591190338135    0.7465473413467407    0.5055400133132935 Cl
   0.4944599866867065    0.7557408213615417    0.7465473413467407 Cl
   0.5055400133132935    0.7557408213615417    0.2534526586532593 Cl
   0.4944599866867065    0.2442591190338135    0.2534526586532593 Cl
   0.5055400133132935    0.2442591190338135    0.7465473413467407 Cl
   0.5968619585037231    0.9425388574600220    0.9542034864425659 Nb
   0.4031380414962769    0.0574611425399780    0.9542034864425659 Nb
   0.4425388574600220    0.9031380414962769    0.4542034864425659 Nb
   0.5574611425399780    0.0968619585037231    0.4542034864425659 Nb
