K2 Rb2 C2 Cl2 O8
1.0
   5.7212972640991211    0.0000000000000000   -0.2419467866420746
   0.0000000000000000    5.9496068954467773    0.0000000000000000
  -0.2419467717409134    0.0000000000000000    8.7326631546020508
K O Rb O C Cl O
2 2 2 2 2 2 4
direct
   0.7547066807746887    0.1488213539123535    0.9800949692726135 K
   0.2452933192253113    0.6488213539123535    0.0199050307273865 K
   0.0237890444695950    0.0928916558623314    0.6414314508438110 O
   0.9762109518051147    0.5928916335105896    0.3585685491561890 O
   0.2623837292194366    0.1546865999698639    0.2561921775341034 Rb
   0.7376163005828857    0.6546865701675415    0.7438077926635742 Rb
   0.2239230722188950    0.7108854651451111    0.6902963519096375 O
   0.7760769128799438    0.2108855247497559    0.3097036480903625 O
   0.7423998713493347    0.4651425480842590    0.2856264114379883 C
   0.2576001286506653    0.9651425480842590    0.7143735885620117 C
   0.2343105077743530    0.6357215046882629    0.4743019342422485 Cl
   0.7656894922256470    0.1357214450836182    0.5256980657577515 Cl
   0.4833757877349854    0.0454123802483082    0.5990349054336548 O
   0.5166242122650146    0.5454123616218567    0.4009650945663452 O
   0.3163822889328003    0.0226060263812542    0.8800649046897888 O
   0.6836177110671997    0.5226060152053833    0.1199350953102112 O
