Li2 S4 F14
1.0
   5.2234201347384115   -0.0000002808580197   -0.0000000865075836
  -0.0000003592143334    8.1371108194788970    0.0370413709278977
  -0.0000001213259660    0.0332722167989063    8.6193398126763867
S F Li F
4 8 2 6
direct
   0.4373673343890701    0.0970326767466805    0.7466901963063823 S
   0.4270272645428121    0.7043847791102408    0.6773472552728117 S
   0.9270273227135475    0.7956158014813087    0.3226528957125271 S
  -0.0626326164954320    0.4029667210873663    0.2533099495632420 S
   0.8895064310499767    0.3552848309365164    0.4376782917318306 F
   0.0592213471265950    0.8386923651513967    0.4947157992053394 F
   0.5592213598364032    0.6613078545444733    0.5052842583314826 F
   0.3895068050546556    0.1447145129560559    0.5623215678755183 F
   0.4048599443269317    0.2847051207293642    0.7908021636977007 F
   0.6805597168114603    0.6320868560048372    0.7725746131633949 F
   0.1805597414224625    0.8679133690214181    0.2274254199023086 F
   0.9048603377571441    0.2152961719147231    0.2091981117752796 F
   0.4570560236955353    0.8519011111749931    0.0498622511078486 Li
   0.9570561162235919    0.6480985060528892    0.9501378968852847 Li
   0.5112547110971882    1.0629348312758247    0.9494232526172810 F
   0.0112543975373181    0.4370645080086687    0.0505764044418925 F
   0.2645628622550004    0.7464510463754096    0.9004270977356964 F
   0.7361256982760873    0.0975026898188865    0.7183546148255019 F
   0.2361253298232300    0.4024973410091425    0.2816452956533700 F
   0.7645630145776795    0.7535491865155718    0.0995728860031319 F
