Mg2 Al4 As4 H10
1.0
   6.8741731643676758    0.0000000000000000   -0.5543954372406006
   0.0000000000000000    7.6500291824340820    0.0000000000000000
  -0.5543954968452454    0.0000000000000000    5.5997118949890137
Al H Mg As H
4 8 2 4 2
direct
   0.5613287687301636    0.5881025195121765    0.7940124869346619 Al
   0.4386712312698364    0.5881025195121765    0.2059875130653381 Al
   0.0613287687301636    0.0881025791168213    0.7940124869346619 Al
   0.9386712312698364    0.0881025791168213    0.2059875130653381 Al
   0.8197997212409973    0.9772977828979492    0.8670138716697693 H
   0.1802002787590027    0.9772977828979492    0.1329861283302307 H
   0.3197996616363525    0.4772977828979492    0.8670138716697693 H
   0.6802002787590027    0.4772977828979492    0.1329861283302307 H
   0.3122258782386780    0.1066033542156219    0.7353945374488831 H
   0.6877741217613220    0.1066033542156219    0.2646054625511169 H
   0.8122258782386780    0.6066033840179443    0.7353945374488831 H
   0.1877741217613220    0.6066033840179443    0.2646054625511169 H
   0.4733901619911194    0.1082820072770119    0.9923701882362366 Mg
   0.9733901619911194    0.6082820296287537    0.9923701882362366 Mg
   0.6936043500900269    0.3008087873458862    0.7545821666717529 As
   0.3063956499099731    0.3008087873458862    0.2454178333282471 As
   0.1936043500900269    0.8008087873458862    0.7545821666717529 As
   0.8063956499099731    0.8008087873458862    0.2454178333282471 As
   0.4880680739879608    0.7142366766929626    0.4880047142505646 H
   0.9880681037902832    0.2142367362976074    0.4880047142505646 H
