Li2 V4 O10
1.0
   8.2212839126586914    0.0000000000000000    0.0000000000000000
   0.0000000000000000    5.9644918441772461    0.0000000000000000
   0.0000000000000000    0.0000000000000000    5.0493597984313965
Li O V O V
2 6 2 4 2
direct
   0.4956866204738617    0.2548899948596954    0.4497914910316467 Li
   0.0043133795261383    0.2548899948596954    0.4497914910316467 Li
   0.0031395498663187    0.6938534379005432    0.8073205351829529 O
   0.9968604445457458    0.3061465620994568    0.8073205351829529 O
   0.5031395554542542    0.3061465620994568    0.8073205351829529 O
   0.4968604445457458    0.6938534379005432    0.8073205351829529 O
   0.0052918102592230    0.9414899945259094    0.3820738792419434 O
   0.4947081804275513    0.9414899945259094    0.3820738792419434 O
   0.9980484843254089    0.7124044895172119    0.4481166899204254 V
   0.5019515156745911    0.7124044895172119    0.4481166899204254 V
   0.3685847222805023    0.5041844844818115    0.2558118999004364 O
   0.6314152479171753    0.4958155155181885    0.2558118999004364 O
   0.8685847520828247    0.4958155155181885    0.2558118999004364 O
   0.1314152777194977    0.5041844844818115    0.2558118999004364 O
   0.2512425184249878    0.5119912624359131    0.9550401568412781 V
   0.7487574815750122    0.4880087375640869    0.9550401568412781 V
