Ca1 F14
1.0
   5.4102301597595215    0.0000000000000000    0.0000000000000000
   0.0000000000000000    5.4102301597595215    0.0000000000000000
   0.0000000000000000    0.0000000000000000    7.0524158477783203
F Ca
14 1
direct
   0.2789523601531982    0.1410054266452789    0.8317734599113464 F
   0.8589946031570435    0.2789523601531982    0.8317734599113464 F
   0.3353594541549683    0.7984753251075745    0.3580021858215332 F
   0.6646405458450317    0.2015246748924255    0.3580021858215332 F
   0.2015246748924255    0.3353594541549683    0.3580021858215332 F
   0.7984753251075745    0.6646405458450317    0.3580021858215332 F
   0.6646405458450317    0.2015246748924255    0.6419978141784668 F
   0.3353594541549683    0.7984753251075745    0.6419978141784668 F
   0.7984753251075745    0.6646405458450317    0.6419978141784668 F
   0.2015246748924255    0.3353594541549683    0.6419978141784668 F
   0.5983079075813293    0.9954695105552673    0.9113266468048096 F
   0.4016920924186707    0.0045304894447327    0.0886733531951904 F
   0.0045304894447327    0.5983079075813293    0.9113266468048096 F
   0.9954695105552673    0.4016920924186707    0.0886733531951904 F
   0.9083554744720459    0.9264044761657715    0.2051146328449249 Ca
