H3 N6 O9
1.0
   6.3138499259948730   -1.6917908191680908    0.0000000000000000
  -1.6917908191680908    6.3138499259948730    0.0000000000000000
   0.0000000000000000    0.0000000000000000    7.1471877098083496
H O N O
3 3 6 6
direct
   0.5355911254882812    0.0969300568103790    0.1123118475079536 H
   0.9030699729919434    0.4386610686779022    0.4456451833248138 H
   0.5613389015197754    0.4644088745117188    0.7789785265922546 H
   0.4855733215808868    0.4495058953762054    0.3985399305820465 O
   0.5504940748214722    0.0360674262046814    0.7318732738494873 O
   0.9639325737953186    0.5144267082214355    0.0652066469192505 O
   0.2616492509841919    0.4803906679153442    0.5588814020156860 N
   0.5196093320846558    0.7812585830688477    0.8922147750854492 N
   0.2187414169311523    0.7383507490158081    0.2255480289459229 N
   0.5196093320846558    0.7383507490158081    0.1077852845191956 N
   0.2187414169311523    0.4803906679153442    0.7744519710540771 N
   0.2616492509841919    0.7812585830688477    0.4411185979843140 N
   0.0700983926653862    0.7292259931564331    0.5076289772987366 O
   0.2707740068435669    0.3408724069595337    0.8409622907638550 O
   0.6591275930404663    0.9299015998840332    0.1742956638336182 O
   0.2707740068435669    0.9299015998840332    0.1590377092361450 O
   0.6591275930404663    0.7292259931564331    0.8257043361663818 O
   0.0700983926653862    0.3408724069595337    0.4923710227012634 O
