Yb1 Sb4 O13
1.0
   6.5830907821655273    0.0000000000000000    0.0000000000000000
   0.0000000000000000    6.5830907821655273    0.0000000000000000
   0.0000000000000000    0.0000000000000000    6.6637759208679199
O Sb O Yb O
8 4 4 1 1
direct
   0.6265562772750854    0.1250190436840057    0.1483151614665985 O
   0.3734437227249146    0.8749809265136719    0.1483151614665985 O
   0.1250190436840057    0.3734437227249146    0.8516848087310791 O
   0.8749809265136719    0.6265562772750854    0.8516848087310791 O
   0.3734437227249146    0.1250190436840057    0.8516848087310791 O
   0.6265562772750854    0.8749809265136719    0.8516848087310791 O
   0.8749809265136719    0.3734437227249146    0.1483151614665985 O
   0.1250190436840057    0.6265562772750854    0.1483151614665985 O
   0.6835166215896606    0.7798340916633606    0.1165463179349899 Sb
   0.3164833784103394    0.2201659083366394    0.1165463179349899 Sb
   0.7798340916633606    0.3164833784103394    0.8834536671638489 Sb
   0.2201659083366394    0.6835166215896606    0.8834536671638489 Sb
   0.1897002011537552    0.7763876318931580    0.6410692334175110 O
   0.8102998137474060    0.2236123681068420    0.6410692334175110 O
   0.7763876318931580    0.8102998137474060    0.3589307665824890 O
   0.2236123681068420    0.1897002011537552    0.3589307665824890 O
   0.1176920682191849    0.1185232922434807    0.6112585663795471 Yb
   0.5011718869209290    0.5148108005523682    0.1430386900901794 O
