F12
1.0
   5.1836462020874023    0.0000000000000000    0.0000000000000000
   0.0000000000000000    5.1836462020874023    0.0000000000000000
   0.0000000000000000    0.0000000000000000    6.4408731460571289
F
12
direct
   0.3112190663814545    0.1907876431941986    0.7758422493934631 F
   0.6887809038162231    0.8092123270034790    0.7758422493934631 F
   0.8092123270034790    0.3112190663814545    0.7758422493934631 F
   0.1907876431941986    0.6887809038162231    0.7758422493934631 F
   0.6887809038162231    0.8092123270034790    0.2241577506065369 F
   0.3112190663814545    0.1907876431941986    0.2241577506065369 F
   0.1907876431941986    0.6887809038162231    0.2241577506065369 F
   0.8092123270034790    0.3112190663814545    0.2241577506065369 F
   0.0071107670664787    0.4966325163841248    0.8934968113899231 F
   0.5033674836158752    0.0071107670664787    0.8934968113899231 F
   0.5033674836158752    0.0071107670664787    0.3934967517852783 F
   0.0071107670664787    0.4966325163841248    0.3934967517852783 F
