V4 S8
1.0
  11.0627985000610352    0.0000000000000000    0.0000000000000000
   0.0000000000000000    4.4798998832702637    0.0000000000000000
   0.0000000000000000    0.0000000000000000    4.7667613029479980
S V
8 4
direct
   0.3739023804664612    0.7508032917976379    0.9939829111099243 S
   0.1260976195335388    0.2491967082023621    0.9939829111099243 S
   0.6260976195335388    0.7508032917976379    0.5060170888900757 S
   0.8739023804664612    0.2491967082023621    0.5060170888900757 S
   0.6260976195335388    0.2491967082023621    0.0060170888900757 S
   0.8739023804664612    0.7508032917976379    0.0060170888900757 S
   0.3739023804664612    0.2491967082023621    0.4939829111099243 S
   0.1260976195335388    0.7508032917976379    0.4939829111099243 S
   0.8444449305534363    0.2456261217594147    0.9627017974853516 V
   0.6555550694465637    0.7543739080429077    0.9627017974853516 V
   0.1555550694465637    0.7543739080429077    0.0372982025146484 V
   0.3444449901580811    0.2456261217594147    0.0372982025146484 V
