Se8
1.0
   4.2147116661071777    0.0000000000000000    0.0000000000000000
   0.0000000000000000    4.2147116661071777    0.0000000000000000
   0.0000000000000000    0.0000000000000000   10.8344078063964844
Se
8
direct
   0.3800244927406311    0.6056323647499084    0.8641921281814575 Se
   0.8800244927406311    0.6056323647499084    0.6141921281814575 Se
   0.8800244927406311    0.1056323051452637    0.3641921281814575 Se
   0.3800244927406311    0.1056323051452637    0.1141921281814575 Se
   0.3800244927406311    0.6056323647499084    0.3641921281814575 Se
   0.8800244927406311    0.6056323647499084    0.1141921281814575 Se
   0.8800244927406311    0.1056323051452637    0.8641921281814575 Se
   0.3800244927406311    0.1056323051452637    0.6141921281814575 Se
