Al4 Cl8
1.0
   8.1738189996885229   -0.0000006637957836   -0.0000001438173409
  -0.0000002819722524    9.9927394578545545    0.1025415387294633
   0.0000000966828600    0.0756840665863884    6.2898295264740138
Al Cl
4 8
direct
   0.3626442850199907    0.1447689347380886    0.9703797025222093 Al
   0.6373553705452446    0.1447690954699522    0.4703796633341482 Al
   0.8121536868075770    0.6170534945592444    0.3684147237783237 Al
   0.1878469834283218    0.6170532831520729    0.8684145690467969 Al
   0.8437483867214189    0.2468145482651706    0.5774352561966941 Cl
   0.0931013853411198    0.6515082077920020    0.5021965075913060 Cl
   0.6269822185263169    0.9365016181466175    0.4726089319390036 Cl
   0.4127737522240458    0.2309818134678110    0.6373939082776516 Cl
   0.3730176245583884    0.9365015615426359   -0.0273909903428023 Cl
   0.5872258336301831    0.2309818978912130    0.1373938968686761 Cl
   0.1562511660874497    0.2468142914709126    0.0774353342752566 Cl
   0.9068992583701687    0.6515074645836197    0.0021964453351446 Cl
