H14
1.0
   5.7962408065795898   -1.5530982017517090    0.0000000000000000
  -1.5530982017517090    5.7962408065795898    0.0000000000000000
   0.0000000000000000    0.0000000000000000    4.5804719924926758
H
14
direct
   0.6638843417167664    0.0278521701693535    0.1737325638532639 H
   0.9721478223800659    0.6360321640968323    0.1737325638532639 H
   0.3639678359031677    0.3361156582832336    0.1737325638532639 H
   0.3361156582832336    0.9721478223800659    0.6737325787544250 H
   0.0278521701693535    0.3639678359031677    0.6737325787544250 H
   0.6360321640968323    0.6638843417167664    0.6737325787544250 H
   0.0278521701693535    0.3639678359031677    0.8262674212455750 H
   0.3361156582832336    0.9721478223800659    0.8262674212455750 H
   0.6360321640968323    0.6638843417167664    0.8262674212455750 H
   0.9721478223800659    0.6360321640968323    0.3262674212455750 H
   0.6638843417167664    0.0278521701693535    0.3262674212455750 H
   0.3639678359031677    0.3361156582832336    0.3262674212455750 H
   0.8830173015594482    0.6872327923774719    0.8574361205101013 H
   0.1169826984405518    0.3127672076225281    0.1425638794898987 H
