Np4 F8
1.0
   6.0612182617187500    0.0000000000000000    0.0000000000000000
   0.0000000000000000    6.0612182617187500    0.0000000000000000
   0.0000000000000000    0.0000000000000000    6.0612182617187500
Np F
4 8
direct
   0.9549054503440857    0.6066204309463501    0.4978069961071014 Np
   0.9549054503440857    0.1066204309463501    0.9978070259094238 Np
   0.4549055099487305    0.6066204309463501    0.9978070259094238 Np
   0.4549055099487305    0.1066204309463501    0.4978069961071014 Np
   0.8028806447982788    0.3064120113849640    0.7518067955970764 F
   0.8028806447982788    0.3064120113849640    0.2481932044029236 F
   0.3064120113849640    0.1971193552017212    0.2481932044029236 F
   0.3064120113849640    0.1971193552017212    0.7518067955970764 F
   0.6935880184173584    0.8028806447982788    0.2481932044029236 F
   0.6935880184173584    0.8028806447982788    0.7518067955970764 F
   0.1971193552017212    0.6935880184173584    0.7518067955970764 F
   0.1971193552017212    0.6935880184173584    0.2481932044029236 F
