Ca4 H8 O4
1.0
   4.4361491203308105    0.0000000000000000    0.0000000000000000
   0.0000000000000000    5.7897815704345703    0.0000000000000000
   0.0000000000000000    0.0000000000000000    6.5935792922973633
O H Ca
4 8 4
direct
   0.5611720681190491    0.7918991446495056    0.1829137802124023 O
   0.9388279318809509    0.2081008553504944    0.6829137802124023 O
   0.4388279318809509    0.2918992042541504    0.3170862197875977 O
   0.0611720085144043    0.7081008553504944    0.8170862197875977 O
   0.5731905698776245    0.9403994083404541    0.1099902763962746 H
   0.9268094301223755    0.0596005916595459    0.6099902987480164 H
   0.4268094301223755    0.4403994083404541    0.3900097310543060 H
   0.0731905698776245    0.5596005916595459    0.8900097012519836 H
   0.4268094301223755    0.0596005916595459    0.8900097012519836 H
   0.0731905698776245    0.9403994083404541    0.3900097310543060 H
   0.5731905698776245    0.5596005916595459    0.6099902987480164 H
   0.9268094301223755    0.4403994083404541    0.1099902763962746 H
   0.5328835248947144    0.4762534797191620    0.9480952620506287 Ca
   0.9671164751052856    0.5237464904785156    0.4480953216552734 Ca
   0.4671164751052856    0.9762535095214844    0.5519047379493713 Ca
   0.0328835248947144    0.0237465202808380    0.0519047379493713 Ca
