La4 Ge4 O8
1.0
   6.0753412246704102    0.0000000000000000    0.0000000000000000
   0.0000000000000000    7.8226881027221680    0.0000000000000000
   0.0000000000000000    0.0000000000000000    5.6305999755859375
O La Ge O
4 4 4 4
direct
   0.8911722898483276    0.1675457209348679    0.5360041260719299 O
   0.1088277101516724    0.8324542641639709    0.0360040664672852 O
   0.3911722898483276    0.3324542641639709    0.5360041260719299 O
   0.6088277101516724    0.6675457358360291    0.0360040664672852 O
   0.9449017047882080    0.1286260932683945    0.9872220158576965 La
   0.0550982952117920    0.8713738918304443    0.4872219562530518 La
   0.4449017047882080    0.3713738918304443    0.9872220158576965 La
   0.5550982952117920    0.6286261081695557    0.4872219562530518 La
   0.4305740892887115    0.8788627982139587    0.9550629258155823 Ge
   0.5694259405136108    0.1211372017860413    0.4550628662109375 Ge
   0.9305740594863892    0.6211372017860413    0.9550629258155823 Ge
   0.0694259107112885    0.3788628578186035    0.4550628662109375 Ge
   0.0668489634990692    0.4192207753658295    0.1022071391344070 O
   0.9331510066986084    0.5807791948318481    0.6022071242332458 O
   0.5668489933013916    0.0807792246341705    0.1022071391344070 O
   0.4331510365009308    0.9192208051681519    0.6022071242332458 O
