C2 O14
1.0
   6.9540557861328125   -1.8633335828781128    0.0000000000000000
  -1.8633335828781128    6.9540557861328125    0.0000000000000000
   0.0000000000000000    0.0000000000000000    6.3848066329956055
O C O
12 2 2
direct
   0.8827611207962036    0.3451742231845856    0.9386242032051086 O
   0.6548258066177368    0.5375869274139404    0.9386242032051086 O
   0.4624130725860596    0.1172388792037964    0.9386242032051086 O
   0.1172388792037964    0.6548258066177368    0.4386241436004639 O
   0.3451742231845856    0.4624130725860596    0.4386241436004639 O
   0.5375869274139404    0.8827611207962036    0.4386241436004639 O
   0.0849438011646271    0.3387428820133209    0.9665737748146057 O
   0.6612571477890015    0.7462009191513062    0.9665737748146057 O
   0.2537990808486938    0.9150562286376953    0.9665737748146057 O
   0.9150562286376953    0.6612571477890015    0.4665737152099609 O
   0.3387428820133209    0.2537990808486938    0.4665737152099609 O
   0.7462009191513062    0.0849438011646271    0.4665737152099609 O
   0.0102887768298388    0.6474382281303406    0.5401006937026978 C
   0.3628505468368530    0.0102887768298388    0.0401006937026978 C
   0.9754816889762878    0.4953271448612213    0.6050776243209839 O
   0.4801545441150665    0.9754816889762878    0.1050776243209839 O
