Li2 Sb2 H4 O8
1.0
   6.0316987037658691    0.0000000000000000    0.0000000000000000
   0.0000000000000000    4.7585802078247070    0.0000000000000000
   0.0000000000000000    0.0000000000000000    6.4375066757202148
Li O H Sb
2 8 4 2
direct
   0.0012719068909064    0.6342592835426331    0.6619572639465332 Li
   0.9987280964851379    0.3657407164573669    0.1619572639465332 Li
   0.7483105063438416    0.8839345574378967    0.6421547532081604 O
   0.2516894936561584    0.1160654425621033    0.1421546936035156 O
   0.7483105063438416    0.1160654425621033    0.1421546936035156 O
   0.2516894936561584    0.8839345574378967    0.6421547532081604 O
   0.7455700635910034    0.6253237128257751    0.1485034227371216 O
   0.2544299364089966    0.3746762871742249    0.6485034227371216 O
   0.7455700635910034    0.3746762871742249    0.6485034227371216 O
   0.2544299364089966    0.6253237128257751    0.1485034227371216 O
   0.7561963796615601    0.1364331692457199    0.6057088971138000 H
   0.2438036203384399    0.8635668158531189    0.1057088375091553 H
   0.7561963796615601    0.8635668158531189    0.1057088375091553 H
   0.2438036203384399    0.1364331692457199    0.6057088971138000 H
   0.5081210136413574    0.6458618640899658    0.6579760313034058 Sb
   0.4918789863586426    0.3541381359100342    0.1579760313034058 Sb
