H4 O6
1.0
   5.6060280799865723   -1.5021307468414307    0.0000000000000000
  -1.5021307468414307    5.6060280799865723    0.0000000000000000
   0.0000000000000000    0.0000000000000000    3.7744250297546387
O H
6 4
direct
   0.6759661436080933    0.5752481222152710    0.2511976063251495 O
   0.4247518777847290    0.1007180213928223    0.2511976063251495 O
   0.8992819786071777    0.3240338563919067    0.7488024234771729 O
   0.3240338563919067    0.4247518777847290    0.7488024234771729 O
   0.5752481222152710    0.8992819786071777    0.7488024234771729 O
   0.1007180213928223    0.6759661436080933    0.2511976063251495 O
   0.4734579622745514    0.6044124364852905    0.2838874757289886 H
   0.8690454959869385    0.4734579622745514    0.2838874757289886 H
   0.5265420675277710    0.3955875635147095    0.7161124944686890 H
   0.1309544742107391    0.5265420675277710    0.7161124944686890 H
