H6 O6
1.0
   4.5922517776489258   -1.2304900884628296    0.0000000000000000
  -1.2304900884628296    4.5922517776489258    0.0000000000000000
   0.0000000000000000    0.0000000000000000    6.9817533493041992
H O
6 6
direct
   0.4821081757545471    0.2007494568824768    0.2865048944950104 H
   0.7992505431175232    0.2813587188720703    0.9531716108322144 H
   0.7186412811279297    0.5178918242454529    0.6198382377624512 H
   0.2007494568824768    0.4821081757545471    0.7134951353073120 H
   0.2813587188720703    0.7992505431175232    0.0468284487724304 H
   0.5178918242454529    0.7186412811279297    0.3801617920398712 H
   0.3418266475200653    0.0281394422054291    0.3942857682704926 O
   0.9718605279922485    0.3136872053146362    0.0609524250030518 O
   0.6863127946853638    0.6581733226776123    0.7276191115379333 O
   0.0281394422054291    0.3418266475200653    0.6057142019271851 O
   0.3136872053146362    0.9718605279922485    0.9390475749969482 O
   0.6581733226776123    0.6863127946853638    0.2723809182643890 O
