Al4 O8
1.0
   4.8206048011779785    0.0000000000000000    0.0000000000000000
   0.0000000000000000    4.8206048011779785    0.0000000000000000
   0.0000000000000000    0.0000000000000000    8.1125640869140625
O Al
8 4
direct
   0.8253301978111267    0.7445240616798401    0.1268205344676971 O
   0.1746698021888733    0.2554759383201599    0.1268205344676971 O
   0.7445240616798401    0.1746698021888733    0.8731794357299805 O
   0.2554759383201599    0.8253301978111267    0.8731794357299805 O
   0.3253302574157715    0.2445240020751953    0.6268205642700195 O
   0.6746698021888733    0.7554759383201599    0.6268205642700195 O
   0.2554759383201599    0.6746698021888733    0.3768205344676971 O
   0.7445240616798401    0.3253302574157715    0.3768205344676971 O
   0.4802381694316864    0.0002751571591944    0.7499755024909973 Al
   0.9802381992340088    0.9997248649597168    0.0000244975090027 Al
   0.9802381992340088    0.5002751350402832    0.2499754428863525 Al
   0.4802381694316864    0.4997248351573944    0.5000244975090027 Al
