B8 O10
1.0
   5.9387426376342773    0.0000000000000000    0.0000000000000000
   0.0000000000000000    5.9387426376342773    0.0000000000000000
   0.0000000000000000    0.0000000000000000    5.7797408103942871
O B O
4 8 6
direct
   0.0191924422979355    0.5942533612251282    0.3195156753063202 O
   0.4808075428009033    0.9057466387748718    0.6804842948913574 O
   0.0942533016204834    0.9808075428009033    0.6804842948913574 O
   0.4057466387748718    0.5191924571990967    0.3195156753063202 O
   0.3316417336463928    0.4021274149417877    0.6958065629005432 B
   0.1683582663536072    0.0978725850582123    0.3041934370994568 B
   0.1683582663536072    0.4021274149417877    0.3041934370994568 B
   0.3316417336463928    0.0978725850582123    0.6958065629005432 B
   0.5978726148605347    0.6683582663536072    0.3041934370994568 B
   0.9021273851394653    0.8316417336463928    0.6958065629005432 B
   0.9021273851394653    0.6683582663536072    0.3041934370994568 B
   0.5978726148605347    0.8316417336463928    0.6958065629005432 B
   0.7897668480873108    0.7546572089195251    0.5169511437416077 O
   0.2453427910804749    0.2897667884826660    0.5169511437416077 O
   0.4224584996700287    0.2609133124351501    0.8755673170089722 O
   0.9224585294723511    0.7609133124351501    0.8755673170089722 O
   0.0775415003299713    0.2390866875648499    0.1244326829910278 O
   0.5775414705276489    0.7390866875648499    0.1244326829910278 O
