Re2 O14
1.0
   5.7060289382934570    0.0000000000000000    0.0000000000000000
   0.0000000000000000    5.7060289382934570    0.0000000000000000
   0.0000000000000000    0.0000000000000000    7.4902238845825195
O Re
14 2
direct
   0.5309768915176392    0.5216661095619202    0.6964346766471863 O
   0.0309768915176392    0.0216660499572754    0.1964347362518311 O
   0.4881991147994995    0.0000171072315425    0.7464532256126404 O
   0.0000171072315425    0.5118008852005005    0.2535467743873596 O
   0.4881991147994995    0.9999828934669495    0.2535467743873596 O
   0.0000171072315425    0.4881991147994995    0.7464532256126404 O
   0.3259244561195374    0.7990753054618835    0.9767556786537170 O
   0.6740755438804626    0.2009246945381165    0.9767556786537170 O
   0.7990753054618835    0.6740755438804626    0.0232443213462830 O
   0.2009246945381165    0.3259244561195374    0.0232443213462830 O
   0.8259244561195374    0.2990753650665283    0.4767556190490723 O
   0.1740755438804626    0.7009246945381165    0.4767556190490723 O
   0.2990753650665283    0.1740755438804626    0.5232443213462830 O
   0.7009246945381165    0.8259244561195374    0.5232443213462830 O
   0.3313276171684265    0.0486906021833420    0.0807756111025810 Re
   0.8313276171684265    0.5486906170845032    0.5807756185531616 Re
