S6
1.0
   6.3332777023315430    0.0000000000000000    0.0000000000000000
   0.0000000000000000    6.1729903221130371    0.0000000000000000
   0.0000000000000000    0.0000000000000000    3.6976854801177979
S
6
direct
   0.6268516778945923    0.2662371397018433    0.3474480807781219 S
   0.3731483221054077    0.7337628602981567    0.3474480807781219 S
   0.1268516778945923    0.7662371397018433    0.3474480807781219 S
   0.8731483221054077    0.2337628602981567    0.3474480807781219 S
   0.7992558479309082    0.9770992398262024    0.8268065452575684 S
   0.2992558479309082    0.4770991802215576    0.8268065452575684 S
