Li4 S8
1.0
   9.5962062042374647    1.1503872867474514   -0.1572960845884387
   0.7526369690985344    6.7996485599929306    0.5428745956645717
  -0.1549794975693421    0.3945066061136823    4.2196159968394946
S Li
8 4
direct
   0.3875047238720542    0.2614543747263788    0.4195332526511211 S
   0.8875062352344898    0.2614574295386198    0.9195364304686130 S
   0.9041892066779509    0.7630303570986865    0.2907386265328444 S
   0.4041519791959173    0.7630116581040834    0.7907561562562728 S
   0.6022705422306797    0.7846660338755199    0.6577096178002324 S
   0.1022302337498544    0.7846482975893341    0.1577257478303157 S
   0.0666746143899326    0.0679312706299827    0.8044946522516031 S
   0.5666712039576146    0.0679407465666770    0.3044954362677779 S
   0.8342408673239222    0.1020229532980083    0.4610435841863720 Li
   0.9603079277492736    0.5852178442021885    0.8505693160141797 Li
   0.4603070931393011    0.5852149403916452    0.3505696538416182 Li
   0.3342398491301062    0.1020274318988650    0.9610451576185240 Li
