Li8 O4
1.0
   4.5699405670166016    0.0000000000000000    0.0000000000000000
   0.0000000000000000    4.5699405670166016    0.0000000000000000
   0.0000000000000000    0.0000000000000000    5.3583760261535645
Li O
8 4
direct
   0.9954829216003418    0.4998660385608673    0.9954825639724731 Li
   0.5045170783996582    0.0001339614391327    0.9954825639724731 Li
   0.0001339614391327    0.9954829216003418    0.4954825639724731 Li
   0.4998660385608673    0.5045170783996582    0.4954825639724731 Li
   0.4998660385608673    0.5045170783996582    0.9954825639724731 Li
   0.0001339614391327    0.9954829216003418    0.9954825639724731 Li
   0.5045170783996582    0.0001339614391327    0.4954825639724731 Li
   0.9954829216003418    0.4998660385608673    0.4954825639724731 Li
   0.2492899298667908    0.2556088566780090    0.2443095445632935 O
   0.2492899298667908    0.2556088566780090    0.7443095445632935 O
   0.7492899298667908    0.7443911433219910    0.7556904554367065 O
   0.7492899298667908    0.7443911433219910    0.2556904554367065 O
