S6
1.0
   4.8674244880676270   -1.3042225837707520    0.0000000000000000
  -1.3042225837707520    4.8674244880676270    0.0000000000000000
   0.0000000000000000    0.0000000000000000    6.0999374389648438
S
6
direct
   0.4430420696735382    0.3099117577075958    0.0804088115692139 S
   0.5569579601287842    0.6900882720947266    0.9195911884307861 S
   0.1097087860107422    0.6432451009750366    0.4137421548366547 S
   0.2236246168613434    0.0234215855598450    0.2529245316982269 S
   0.7763754129409790    0.9765784740447998    0.7470754981040955 S
   0.8902912735939026    0.3567549288272858    0.5862578749656677 S
