Gd4 Cl8
1.0
   6.3126344680786133    0.0000000000000000    0.0000000000000000
   0.0000000000000000    6.5354294776916504    0.0000000000000000
   0.0000000000000000    0.0000000000000000   10.9947147369384766
Gd Cl
4 8
direct
   0.0019917106255889    0.9992341399192810    0.7500412464141846 Gd
   0.9980083107948303    0.0007658600807190    0.2499587535858154 Gd
   0.5019916892051697    0.4992341995239258    0.2500412464141846 Gd
   0.4980082809925079    0.5007658600807190    0.7499587535858154 Gd
   0.7575381994247437    0.2528951466083527    0.8811175227165222 Cl
   0.2424618005752563    0.7471048831939697    0.8811175227165222 Cl
   0.2424618005752563    0.2528951466083527    0.1188824772834778 Cl
   0.7575381994247437    0.7471048831939697    0.1188824772834778 Cl
   0.2575381994247437    0.7528951168060303    0.3811175823211670 Cl
   0.7424618005752563    0.2471048533916473    0.3811175823211670 Cl
   0.7424618005752563    0.7528951168060303    0.6188824772834778 Cl
   0.2575381994247437    0.2471048533916473    0.6188824772834778 Cl
