S16
1.0
   6.8078899383544922    0.0000000000000000    0.0000000000000000
   0.0000000000000000    6.8078899383544922    0.0000000000000000
   0.0000000000000000    0.0000000000000000    6.8078899383544922
S
16
direct
   0.9701852798461914    0.2908907532691956    0.3557284474372864 S
   0.4701852798461914    0.2908907532691956    0.8557284474372864 S
   0.9701852798461914    0.7908907532691956    0.8557284474372864 S
   0.4701852798461914    0.7908907532691956    0.3557284474372864 S
   0.7201852798461914    0.5408907532691956    0.6057284474372864 S
   0.7201852798461914    0.0408906936645508    0.1057283878326416 S
   0.2201852798461914    0.5408907532691956    0.1057283878326416 S
   0.2201852798461914    0.0408906936645508    0.6057284474372864 S
   0.4701852798461914    0.7908907532691956    0.8557284474372864 S
   0.9701852798461914    0.7908907532691956    0.3557284474372864 S
   0.4701852798461914    0.2908907532691956    0.3557284474372864 S
   0.9701852798461914    0.2908907532691956    0.8557284474372864 S
   0.2201852798461914    0.0408906936645508    0.1057283878326416 S
   0.2201852798461914    0.5408907532691956    0.6057284474372864 S
   0.7201852798461914    0.0408906936645508    0.6057284474372864 S
   0.7201852798461914    0.5408907532691956    0.1057283878326416 S
