V2 Cl8
1.0
   9.2712287902832031    0.0000000000000000    0.0000000000000000
   0.0000000000000000    9.2712287902832031    0.0000000000000000
   0.0000000000000000    0.0000000000000000    4.9397015571594238
Cl V
8 2
direct
   0.9553719162940979    0.2254996001720428    0.2517835497856140 Cl
   0.0446280837059021    0.7745003700256348    0.2517835497856140 Cl
   0.7745003700256348    0.9553719162940979    0.2517835497856140 Cl
   0.2254996001720428    0.0446280837059021    0.2517835497856140 Cl
   0.4553718566894531    0.2745003998279572    0.7517835497856140 Cl
   0.5446280837059021    0.7254996299743652    0.7517835497856140 Cl
   0.2745003998279572    0.5446280837059021    0.7517835497856140 Cl
   0.7254996299743652    0.4553718566894531    0.7517835497856140 Cl
   0.4918547272682190    0.4849556088447571    0.8086284995079041 V
   0.0081452727317810    0.9849556088447571    0.3086285591125488 V
