Sr4 P4 O12
1.0
   5.6556696891784668    0.0000000000000000    0.0000000000000000
   0.0000000000000000    5.6556696891784668    0.0000000000000000
   0.0000000000000000    0.0000000000000000   10.1431884765625000
O Sr P O
8 4 4 4
direct
   0.1203525140881538    0.8862318396568298    0.6403053998947144 O
   0.8796474933624268    0.1137681603431702    0.8596946001052856 O
   0.1203525140881538    0.1137681603431702    0.3596946001052856 O
   0.8796474933624268    0.8862318396568298    0.1403053998947144 O
   0.3862318992614746    0.6203525066375732    0.1403053998947144 O
   0.6137681603431702    0.3796474933624268    0.3596946001052856 O
   0.3862318992614746    0.3796474933624268    0.8596946001052856 O
   0.6137681603431702    0.6203525066375732    0.6403053998947144 O
   0.4896994531154633    0.9960578680038452    0.5013657212257385 Sr
   0.0103005468845367    0.5039421319961548    0.4986342787742615 Sr
   0.9896994829177856    0.4960578680038452    0.0013656616210938 Sr
   0.5103005170822144    0.0039421319961548    0.9986342787742615 Sr
   0.5004531145095825    0.5851422548294067    0.7547860145568848 P
   0.5004531145095825    0.4148577451705933    0.2452139854431152 P
   0.0004531145095825    0.0851422548294067    0.2547860145568848 P
   0.0004531145095825    0.9148577451705933    0.7452139854431152 P
   0.7192233204841614    0.2834806144237518    0.1567533314228058 O
   0.7192233204841614    0.7165193557739258    0.8432466983795166 O
   0.2165193855762482    0.7807766795158386    0.8432466983795166 O
   0.2165193855762482    0.2192232608795166    0.1567533314228058 O
