H6 O2 F8
1.0
   4.8237605094909668    0.0000000000000000   -1.0275688171386719
   0.0000000000000000    5.8052234649658203    0.0000000000000000
  -1.0275688171386719    0.0000000000000000    6.1950902938842773
H F O F H
4 4 2 4 2
direct
   0.3781418204307556    0.2861079573631287    0.0968889519572258 H
   0.6218581795692444    0.2861079573631287    0.4031110405921936 H
   0.6218581795692444    0.7138920426368713    0.9031110405921936 H
   0.3781418204307556    0.7138920426368713    0.5968889594078064 H
   0.2493241280317307    0.1294159144163132    0.5018666386604309 F
   0.7506758570671082    0.1294159144163132    0.9981333613395691 F
   0.7506758570671082    0.8705840706825256    0.4981333613395691 F
   0.2493241280317307    0.8705840706825256    0.0018665790557861 F
   0.4617401361465454    0.3051211237907410    0.2580603659152985 O
   0.5382598638534546    0.6948788762092590    0.7419396638870239 O
   0.2157640308141708    0.6177900433540344    0.4284179508686066 F
   0.7842359542846680    0.6177900433540344    0.0715820491313934 F
   0.7842359542846680    0.3822099566459656    0.5715820789337158 F
   0.2157640308141708    0.3822099566459656    0.9284179210662842 F
   0.6756691336631775    0.5982545018196106    0.6340324282646179 H
   0.3243308663368225    0.4017454981803894    0.3659675717353821 H
