K12 Pb4
1.0
   6.9911241531372070    0.0000000000000000   -2.5182523727416992
   0.0000000000000000    7.4349360466003418    0.0000000000000000
  -2.5182518959045410    0.0000000000000000   16.4902343750000000
Pb K
4 12
direct
   0.2407808005809784    0.1687897592782974    0.3792863190174103 Pb
   0.7592191696166992    0.6687897443771362    0.1207136809825897 Pb
   0.7592191696166992    0.8312102556228638    0.6207137107849121 Pb
   0.2407808005809784    0.3312102556228638    0.8792862892150879 Pb
   0.2730866372585297    0.8547301888465881    0.9549004435539246 K
   0.7269133329391479    0.3547301292419434    0.5450995564460754 K
   0.7269133329391479    0.1452698111534119    0.0450995564460754 K
   0.2730866372585297    0.6452698111534119    0.4549005031585693 K
   0.7771421074867249    0.5980558991432190    0.8828029036521912 K
   0.2228578925132751    0.0980558395385742    0.6171970963478088 K
   0.2228578925132751    0.4019441008567810    0.1171970963478088 K
   0.7771421074867249    0.9019441008567810    0.3828029632568359 K
   0.2546176612377167    0.6097421050071716    0.7106904983520508 K
   0.7453823089599609    0.1097421646118164    0.7893095016479492 K
   0.7453823089599609    0.3902578949928284    0.2893095016479492 K
   0.2546176612377167    0.8902578949928284    0.2106904983520508 K
