Rb2 F8
1.0
   5.7286863327026367    0.0000000000000000    0.0000000000000000
   0.0000000000000000    5.7286863327026367    0.0000000000000000
   0.0000000000000000    0.0000000000000000    6.0642662048339844
F Rb
8 2
direct
   0.3159700036048889    0.1881787925958633    0.7092306613922119 F
   0.6840299963951111    0.8118212223052979    0.7092306613922119 F
   0.8118212223052979    0.3159700036048889    0.7092306613922119 F
   0.1881787925958633    0.6840299963951111    0.7092306613922119 F
   0.8351781368255615    0.6762574315071106    0.3243448734283447 F
   0.1648218631744385    0.3237425684928894    0.3243448734283447 F
   0.3237425684928894    0.8351781368255615    0.3243448734283447 F
   0.6762574315071106    0.1648218631744385    0.3243448734283447 F
   0.0097965952008963    0.0503751933574677    0.0100666340440512 Rb
   0.4902034103870392    0.5503752231597900    0.0100666340440512 Rb
