Pr2 Pb2 O1 F3
1.0
   5.2084441184997559   -1.3955984115600586    0.0000000000000000
  -1.3955984115600586    5.2084441184997559    0.0000000000000000
   0.0000000000000000    0.0000000000000000    7.4368391036987305
Pb Pr O F
2 2 1 3
direct
   0.6708096265792847    0.8327332735061646    0.5016890764236450 Pb
   0.1619236469268799    0.3291903734207153    0.4983109235763550 Pb
   0.6766983270645142    0.8232704401016235    0.0048428643494844 Pr
   0.1465721130371094    0.3233016729354858    0.9951571226119995 Pr
   0.0206670742481947    0.1691607534885406    0.2508967220783234 O
   0.4964688420295715    0.0389094464480877    0.7294620871543884 F
   0.9610905647277832    0.4575594067573547    0.7294620871543884 F
   0.5424405932426453    0.5035311579704285    0.2705379128456116 F
