B2 S6
1.0
   6.0722684860229492   -1.6270593404769897    0.0000000000000000
  -1.6270593404769897    6.0722684860229492    0.0000000000000000
   0.0000000000000000    0.0000000000000000    5.5357632637023926
S B
6 2
direct
   0.9871216416358948    0.6432712078094482    0.0142449373379350 S
   0.3567287921905518    0.3438504338264465    0.0142449373379350 S
   0.6561495661735535    0.0128783583641052    0.0142449373379350 S
   0.3567287921905518    0.0128783583641052    0.5142449140548706 S
   0.6561495661735535    0.6432712078094482    0.5142449140548706 S
   0.9871216416358948    0.3438504338264465    0.5142449140548706 S
   0.8752735257148743    0.6093602180480957    0.6904812455177307 B
   0.3906397819519043    0.1247264742851257    0.1904811859130859 B
