Cs4 S4
1.0
  11.3394441604614258    0.0000000000000000   -1.2958174943923950
   0.0000000000000000    4.8988552093505859    0.0000000000000000
  -1.2958173751831055    0.0000000000000000    6.7714214324951172
S Cs
4 4
direct
   0.9066292643547058    0.2128521949052811    0.1821797192096710 S
   0.0933707356452942    0.2128521949052811    0.8178203105926514 S
   0.4066293239593506    0.7128521800041199    0.1821797192096710 S
   0.5933707356452942    0.7128521800041199    0.8178203105926514 S
   0.8550725579261780    0.7102749347686768    0.7297077178955078 Cs
   0.1449274420738220    0.7102749347686768    0.2702922821044922 Cs
   0.3550724983215332    0.2102749347686768    0.7297077178955078 Cs
   0.6449274420738220    0.2102749347686768    0.2702922821044922 Cs
