As1 P2 H3 O10
1.0
   5.0816740989685059    0.0000000000000000    0.0000000000000000
   0.0000000000000000    5.4814405441284180    0.0000000000000000
   0.0000000000000000    0.0000000000000000    8.3325252532958984
O As P O H
8 1 2 2 3
direct
   0.2268776893615723    0.7271350026130676    0.6924655437469482 O
   0.7731223106384277    0.2728649973869324    0.6924655437469482 O
   0.7731223106384277    0.7271350026130676    0.3075344562530518 O
   0.2268776893615723    0.2728649973869324    0.3075344562530518 O
   0.7731223106384277    0.2728649973869324    0.3075344562530518 O
   0.2268776893615723    0.7271350026130676    0.3075344562530518 O
   0.2268776893615723    0.2728649973869324    0.6924655437469482 O
   0.7731223106384277    0.7271350026130676    0.6924655437469482 O
   0.0026656279806048    0.8835214972496033    0.7946900129318237 As
   0.9935688376426697    0.5298951864242554    0.7199072241783142 P
   0.0064311623573303    0.4701048135757446    0.2800927758216858 P
   0.0644127279520035    0.6825553178787231    0.9046227335929871 O
   0.9355872869491577    0.3174446821212769    0.0953772664070129 O
   0.6098175644874573    0.7163072228431702    0.3731594979763031 H
   0.3901824355125427    0.2836927771568298    0.6268404722213745 H
   0.4677800536155701    0.8457965850830078    0.6481686234474182 H
