Te4 S4 Cl8
1.0
  10.2314872741699219    0.0000000000000000    0.0000000000000000
   0.0000000000000000   10.6459083557128906    0.0000000000000000
   0.0000000000000000    0.0000000000000000    4.4883427619934082
S Cl Te Cl
4 4 4 4
direct
   0.6083397269248962    0.5473851561546326    0.5378076434135437 S
   0.3916602730751038    0.4526148438453674    0.5378076434135437 S
   0.1083397865295410    0.9526148438453674    0.5378076434135437 S
   0.8916602730751038    0.0473852157592773    0.5378076434135437 S
   0.2369392514228821    0.5472630262374878    0.0546537078917027 Cl
   0.7630607485771179    0.4527369737625122    0.0546537078917027 Cl
   0.7369392514228821    0.9527369737625122    0.0546537078917027 Cl
   0.2630607485771179    0.0472630262374878    0.0546537078917027 Cl
   0.3957812488079071    0.2921654582023621    0.0456432737410069 Te
   0.6042187213897705    0.7078345417976379    0.0456432737410069 Te
   0.8957812786102295    0.2078345417976379    0.0456432737410069 Te
   0.1042187511920929    0.7921654582023621    0.0456432737410069 Te
   0.5608977675437927    0.2443014234304428    0.5557327270507812 Cl
   0.4391022324562073    0.7556985616683960    0.5557327270507812 Cl
   0.0608978271484375    0.2556985616683960    0.5557327270507812 Cl
   0.9391022324562073    0.7443014383316040    0.5557327270507812 Cl
