H4 N2
1.0
   4.0620126724243164    0.0000000000000000    0.0000000000000000
   0.0000000000000000    4.0620126724243164    0.0000000000000000
   0.0000000000000000    0.0000000000000000    4.7444343566894531
H N
4 2
direct
   0.5919823050498962    0.6120588779449463    0.7165249586105347 H
   0.4080176949501038    0.3879411220550537    0.2834750413894653 H
   0.0919823646545410    0.1120588779449463    0.2165249586105347 H
   0.9080176949501038    0.8879411220550537    0.7834750413894653 H
   0.5461167693138123    0.5645130872726440    0.4362016916275024 N
   0.0461168289184570    0.0645130872726440    0.9362016916275024 N
