S8 O8
1.0
   5.9336481094360352    0.0000000000000000    0.0000000000000000
   0.0000000000000000    5.9336481094360352    0.0000000000000000
   0.0000000000000000    0.0000000000000000    9.5075349807739258
O S
8 8
direct
   0.1908024996519089    0.3745808601379395    0.7548966407775879 O
   0.8091974854469299    0.6254191398620605    0.2548966407775879 O
   0.1254191398620605    0.6908025145530701    0.5048966407775879 O
   0.8745808601379395    0.3091974854469299    0.0048966407775879 O
   0.3091974854469299    0.8745808601379395    0.9951033592224121 O
   0.6908025145530701    0.1254191398620605    0.4951033592224121 O
   0.3745808601379395    0.1908024996519089    0.2451033592224121 O
   0.6254191398620605    0.8091974854469299    0.7451033592224121 O
   0.4637399911880493    0.7717898488044739    0.8850595355033875 S
   0.5362600088119507    0.2282101511955261    0.3850595951080322 S
   0.7282101511955261    0.9637399911880493    0.6350595951080322 S
   0.2717897891998291    0.0362600088119507    0.1350595951080322 S
   0.0362600088119507    0.2717897891998291    0.8649404644966125 S
   0.9637399911880493    0.7282101511955261    0.3649404644966125 S
   0.7717898488044739    0.4637399911880493    0.1149404644966125 S
   0.2282101511955261    0.5362600088119507    0.6149404644966125 S
