Li2 Mg2 H8 O8
1.0
   5.5355024337768555    0.0000000000000000    0.0000000000000000
   0.0000000000000000    5.3693356513977051    0.0000000000000000
   0.0000000000000000    0.0000000000000000    6.0506143569946289
Li O Mg O H
2 4 2 4 8
direct
   0.5146085619926453    0.2411158531904221    0.5062212347984314 Li
   0.4853914380073547    0.7588841319084167    0.4937787652015686 Li
   0.2215193361043930    0.7263822555541992    0.9845011830329895 O
   0.2215193361043930    0.2736177444458008    0.9845011830329895 O
   0.7784806489944458    0.7263822555541992    0.0154988169670105 O
   0.7784806489944458    0.2736177444458008    0.0154988169670105 O
   0.0005287788808346    0.4906728267669678    0.2071206271648407 Mg
   0.9994712471961975    0.5093271732330322    0.7928793430328369 Mg
   0.3445785343647003    0.0044367695227265    0.2967843413352966 O
   0.6554214954376221    0.9955632090568542    0.7032156586647034 O
   0.6477085351943970    0.5323634743690491    0.3858177661895752 O
   0.1556400358676910    0.4559149146080017    0.5125412940979004 O
   0.7056979537010193    0.8253074884414673    0.1420204043388367 H
   0.2943020462989807    0.1746925115585327    0.1420204043388367 H
   0.2943020462989807    0.8253074884414673    0.8579795956611633 H
   0.7056979537010193    0.1746925115585327    0.8579795956611633 H
   0.2943020462989807    0.1746925115585327    0.8579795956611633 H
   0.7056979537010193    0.8253074884414673    0.8579795956611633 H
   0.7056979537010193    0.1746925115585327    0.1420204043388367 H
   0.2943020462989807    0.8253074884414673    0.1420204043388367 H
