Li4 H12
1.0
   5.8482689857482910   -1.5670390129089355    0.0000000000000000
  -1.5670390129089355    5.8482689857482910    0.0000000000000000
   0.0000000000000000    0.0000000000000000    4.6485147476196289
H Li H Li H
2 1 4 3 6
direct
   0.8822230100631714    0.2573501467704773    0.0315023846924305 H
   0.6248728632926941    0.8822230100631714    0.0315023846924305 H
   0.9611836671829224    0.1796531230211258    0.7272899150848389 Li
   0.2971372902393341    0.5571427345275879    0.4258003532886505 H
   0.7399945259094238    0.2971372902393341    0.4258003532886505 H
   0.2849906682968140    0.8836167454719543    0.0198133252561092 H
   0.4013739228248596    0.2849906682968140    0.0198133252561092 H
   0.0324174389243126    0.6082157492637634    0.0681305080652237 Li
   0.3917842507362366    0.4242016673088074    0.0681305080652237 Li
   0.4242016673088074    0.0324174389243126    0.0681305080652237 Li
   0.2708363831043243    0.3939706087112427    0.5121522545814514 H
   0.6060293912887573    0.8768657445907593    0.5121522545814514 H
   0.1231342256069183    0.7291636466979980    0.5121522545814514 H
   0.7291636466979980    0.6060293912887573    0.5121522545814514 H
   0.3939706087112427    0.1231342256069183    0.5121522545814514 H
   0.8768657445907593    0.2708363831043243    0.5121522545814514 H
