H1 S1 O10
1.0
   6.0983209609985352   -1.6340404748916626    0.0000000000000000
  -1.6340404748916626    6.0983209609985352    0.0000000000000000
   0.0000000000000000    0.0000000000000000    4.7322578430175781
O S O H
8 1 2 1
direct
   0.6483951807022095    0.7936368584632874    0.2512176632881165 O
   0.3516048192977905    0.2063631415367126    0.7487823367118835 O
   0.6108588576316833    0.5036759376525879    0.2583285570144653 O
   0.4963240623474121    0.1071829199790955    0.2583285570144653 O
   0.8928170800209045    0.3891411423683167    0.7416714429855347 O
   0.3891411423683167    0.4963240623474121    0.7416714429855347 O
   0.5036759376525879    0.8928170800209045    0.7416714429855347 O
   0.1071829199790955    0.6108588576316833    0.2583285570144653 O
   0.1528454869985580    0.3159757554531097    0.7255008220672607 S
   0.0131670366972685    0.8883032798767090    0.2489584684371948 O
   0.9868329763412476    0.1116967201232910    0.7510415315628052 O
   0.5182288885116577    0.3157780766487122    0.3156322538852692 H
