C3 O9
1.0
   4.5992689132690430   -1.2323703765869141    0.0000000000000000
  -1.2323703765869141    4.5992689132690430    0.0000000000000000
   0.0000000000000000    0.0000000000000000    8.3208255767822266
C O
3 9
direct
   0.6979208588600159    0.3606148958206177    0.7685180306434631 C
   0.3645875453948975    0.6939482688903809    0.1018513441085815 C
   0.0312541723251343    0.0272815227508545    0.4351847171783447 C
   0.2799495458602905    0.8755860328674316    0.0791860446333885 O
   0.1244139671325684    0.4043635129928589    0.0791860446333885 O
   0.5956364870071411    0.7200504541397095    0.0791860446333885 O
   0.9466162323951721    0.2089194059371948    0.4125193953514099 O
   0.7910806536674500    0.7376968860626221    0.4125193953514099 O
   0.2623031139373779    0.0533837974071503    0.4125193953514099 O
   0.6132829189300537    0.5422527790069580    0.7458527088165283 O
   0.4577473402023315    0.0710301995277405    0.7458527088165283 O
   0.9289698600769043    0.3867171406745911    0.7458527088165283 O
