Ca4 H8
1.0
   5.3154253959655762    0.0000000000000000    0.0000000000000000
   0.0000000000000000    5.4043130874633789    0.0000000000000000
   0.0000000000000000    0.0000000000000000    5.2180528640747070
H Ca
8 4
direct
   0.7557763457298279    0.7478632330894470    0.2738396823406219 H
   0.7557763457298279    0.2521367669105530    0.2738396823406219 H
   0.7442236542701721    0.2521367669105530    0.7738397121429443 H
   0.7442236542701721    0.7478632330894470    0.7738397121429443 H
   0.2557764053344727    0.7478632330894470    0.7738397121429443 H
   0.2557764053344727    0.2521367669105530    0.7738397121429443 H
   0.2442236542701721    0.2521367669105530    0.2738396823406219 H
   0.2442236542701721    0.7478632330894470    0.2738396823406219 H
   0.4557603895664215    0.0300845764577389    0.5510683059692383 Ca
   0.4557603895664215    0.5300845503807068    0.0510683059692383 Ca
   0.9557603597640991    0.0300845764577389    0.0510683059692383 Ca
   0.9557603597640991    0.5300845503807068    0.5510683059692383 Ca
