In12 S8
1.0
  11.2669010162353516   -3.0189571380615234    0.0000000000000000
  -3.0189571380615234   11.2669010162353516    0.0000000000000000
   0.0000000000000000    0.0000000000000000    4.7019243240356445
In S
12 8
direct
   0.3098397850990295    0.8730398416519165    0.9993112087249756 In
   0.1269601583480835    0.4367999434471130    0.9993112087249756 In
   0.5632000565528870    0.6901602149009705    0.9993112087249756 In
   0.1269601583480835    0.6901602149009705    0.5006887912750244 In
   0.5632000565528870    0.8730398416519165    0.5006887912750244 In
   0.3098397850990295    0.4367999434471130    0.5006887912750244 In
   0.6901602149009705    0.1269601583480835    0.0006887912750244 In
   0.8730398416519165    0.5632000565528870    0.0006887912750244 In
   0.4367999434471130    0.3098397850990295    0.0006887912750244 In
   0.8730398416519165    0.3098397850990295    0.4993112087249756 In
   0.4367999434471130    0.1269601583480835    0.4993112087249756 In
   0.6901602149009705    0.5632000565528870    0.4993112087249756 In
   0.6182280778884888    0.3250846266746521    0.4909023940563202 S
   0.3817719221115112    0.6749153733253479    0.5090975761413574 S
   0.7290447950363159    0.7524493932723999    0.4932389855384827 S
   0.2475506067276001    0.9765954017639160    0.4932389855384827 S
   0.0234045982360840    0.2709552049636841    0.4932389855384827 S
   0.2475506067276001    0.2709552049636841    0.0067610144615173 S
   0.0234045982360840    0.7524493932723999    0.0067610144615173 S
   0.7290447950363159    0.9765954017639160    0.0067610144615173 S
