Ga4 Ni4 Sn2 Pt8
1.0
   7.5494875907897949    0.0000000000000000    0.0000000000000000
   0.0000000000000000    7.5494875907897949    0.0000000000000000
   0.0000000000000000    0.0000000000000000    5.1006746292114258
Ni Pt Sn Ga
4 8 2 4
direct
   0.6258195638656616    0.6896950602531433    0.4075711965560913 Ni
   0.3741804361343384    0.3103049397468567    0.4075711965560913 Ni
   0.8103049397468567    0.1258195638656616    0.9075711965560913 Ni
   0.1896951198577881    0.8741804361343384    0.9075711965560913 Ni
   0.3231966495513916    0.9860459566116333    0.3773639500141144 Pt
   0.6768033504486084    0.0139540433883667    0.3773639500141144 Pt
   0.5139540433883667    0.8231966495513916    0.8773639202117920 Pt
   0.4860459566116333    0.1768033504486084    0.8773639202117920 Pt
   0.1768033504486084    0.4860459566116333    0.1226360499858856 Pt
   0.8231966495513916    0.5139540433883667    0.1226360499858856 Pt
   0.9860459566116333    0.3231966495513916    0.6226360797882080 Pt
   0.0139540433883667    0.6768033504486084    0.6226360797882080 Pt
   0.4770517051219940    0.5165698528289795    0.1013230383396149 Sn
   0.9834301471710205    0.9770517349243164    0.6013230085372925 Sn
   0.6837204098701477    0.3800482153892517    0.6006940603256226 Ga
   0.3162795901298523    0.6199517846107483    0.6006940603256226 Ga
   0.1199517846107483    0.1837203502655029    0.1006940603256226 Ga
   0.8800482153892517    0.8162795901298523    0.1006940603256226 Ga
