V2 F10
1.0
   8.9069061279296875    0.0000000000000000    0.0000000000000000
   0.0000000000000000    4.4211778640747070    0.0000000000000000
   0.0000000000000000    0.0000000000000000    5.0817613601684570
V F
2 10
direct
   0.4624456763267517    0.9896020293235779    0.0524241253733635 V
   0.9624456763267517    0.4896020889282227    0.0524241253733635 V
   0.4064210355281830    0.7772744894027710    0.7848982810974121 F
   0.5935789346694946    0.2227255105972290    0.7848982810974121 F
   0.5935789346694946    0.7772744894027710    0.2151017189025879 F
   0.4064210355281830    0.2227255105972290    0.2151017189025879 F
   0.9064210653305054    0.2772744894027710    0.7848982810974121 F
   0.0935789644718170    0.7227255105972290    0.7848982810974121 F
   0.0935789644718170    0.2772744894027710    0.2151017189025879 F
   0.9064210653305054    0.7227255105972290    0.2151017189025879 F
   0.2938908040523529    0.7735409140586853    0.2147983312606812 F
   0.7938908338546753    0.2735409736633301    0.2147983312606812 F
