H4 I4 N4 O6
1.0
   6.1296048164367676    0.0000000000000000    0.0000000000000000
   0.0000000000000000    8.5970516204833984    0.0000000000000000
   0.0000000000000000    0.0000000000000000    7.3349752426147461
O N O I H
4 4 2 4 4
direct
   0.2608813047409058    0.6519303321838379    0.9829982519149780 O
   0.7391186952590942    0.3480696678161621    0.9829982519149780 O
   0.2608813047409058    0.8480696678161621    0.4829982519149780 O
   0.7391186952590942    0.1519303321838379    0.4829982519149780 O
   0.5752443671226501    0.4403657019138336    0.8659161329269409 N
   0.4247556328773499    0.5596343278884888    0.8659161329269409 N
   0.5752443671226501    0.0596342980861664    0.3659161329269409 N
   0.4247556328773499    0.9403656721115112    0.3659161329269409 N
   0.3331812918186188    0.9642254114151001    0.2706017792224884 O
   0.6668187379837036    0.4642254114151001    0.7706017494201660 O
   0.7507960796356201    0.8572554588317871    0.8620703816413879 I
   0.2492039203643799    0.1427445411682129    0.8620703816413879 I
   0.7507960796356201    0.6427445411682129    0.3620703220367432 I
   0.2492039203643799    0.3572554588317871    0.3620703220367432 I
   0.1949236243963242    0.8767301440238953    0.4218463003635406 H
   0.8050763607025146    0.1232698559761047    0.4218463003635406 H
   0.1949236243963242    0.6232698559761047    0.9218462705612183 H
   0.8050763607025146    0.3767302036285400    0.9218462705612183 H
