Tb4 Se16
1.0
   7.6560153961181641    0.0000000000000000    0.0000000000000000
   0.0000000000000000    7.6560153961181641    0.0000000000000000
   0.0000000000000000    0.0000000000000000   11.3584594726562500
Se Tb
16 4
direct
   0.9980468750000000    0.2532585561275482    0.3812377750873566 Se
   0.5019531250000000    0.2467414438724518    0.8812377452850342 Se
   0.7467414140701294    0.4980468750000000    0.6312377452850342 Se
   0.7532585859298706    0.0019531250000000    0.1312377452850342 Se
   0.5019531250000000    0.2532585561275482    0.3687622249126434 Se
   0.9980468750000000    0.2467414438724518    0.8687622547149658 Se
   0.7532585859298706    0.4980468750000000    0.1187622249126434 Se
   0.7467414140701294    0.0019531250000000    0.6187622547149658 Se
   0.4980468750000000    0.7532585859298706    0.8812377452850342 Se
   0.0019531250000000    0.7467414140701294    0.3812377750873566 Se
   0.2467414438724518    0.9980468750000000    0.1312377452850342 Se
   0.2532585561275482    0.5019531250000000    0.6312377452850342 Se
   0.0019531250000000    0.7532585859298706    0.8687622547149658 Se
   0.4980468750000000    0.7467414140701294    0.3687622249126434 Se
   0.2532585561275482    0.9980468750000000    0.6187622547149658 Se
   0.2467414438724518    0.5019531250000000    0.1187622249126434 Se
   0.7551668286323547    0.9897489547729492    0.8742401599884033 Tb
   0.0102510452270508    0.2551667690277100    0.1242401599884033 Tb
   0.7448331713676453    0.5102510452270508    0.3742401599884033 Tb
   0.4897489547729492    0.2448331713676453    0.6242401599884033 Tb
