P4 C8 O8
1.0
   8.6118335723876953    0.0000000000000000    0.0000000000000000
   0.0000000000000000    8.6118335723876953    0.0000000000000000
   0.0000000000000000    0.0000000000000000    6.2023658752441406
C O P
8 8 4
direct
   0.1705163121223450    0.4232030808925629    0.4196852743625641 C
   0.8294836878776550    0.5767968893051147    0.4196852743625641 C
   0.4232030808925629    0.8294836878776550    0.5803147554397583 C
   0.5767968893051147    0.1705163121223450    0.5803147554397583 C
   0.8294836878776550    0.4232030808925629    0.5803147554397583 C
   0.1705163121223450    0.5767968893051147    0.5803147554397583 C
   0.5767968893051147    0.8294836878776550    0.4196852743625641 C
   0.4232030808925629    0.1705163121223450    0.4196852743625641 C
   0.8913215994834900    0.6736403703689575    0.2553651630878448 O
   0.1086784005165100    0.3263596296310425    0.2553651630878448 O
   0.6736403703689575    0.1086784005165100    0.7446348667144775 O
   0.3263596296310425    0.8913215994834900    0.7446348667144775 O
   0.1086784005165100    0.6736403703689575    0.7446348667144775 O
   0.8913215994834900    0.3263596296310425    0.7446348667144775 O
   0.3263596296310425    0.1086784005165100    0.2553651630878448 O
   0.6736403703689575    0.8913215994834900    0.2553651630878448 O
   0.2862056195735931    0.7066158056259155    0.7598874568939209 P
   0.7137943506240845    0.2933841943740845    0.7598874568939209 P
   0.7066158056259155    0.7137943506240845    0.2401125431060791 P
   0.2933841943740845    0.2862056195735931    0.2401125431060791 P
