Al1 H14 O1
1.0
   5.2229065895080566    0.0000000000000000    0.0000000000000000
   0.0000000000000000    5.2229065895080566    0.0000000000000000
   0.0000000000000000    0.0000000000000000    4.9309606552124023
H Al H O H
8 1 4 1 2
direct
   0.9130122065544128    0.6531533598899841    0.1077683418989182 H
   0.0869877934455872    0.3468466401100159    0.1077683418989182 H
   0.6531533598899841    0.0869877934455872    0.8922316431999207 H
   0.3468466401100159    0.9130122065544128    0.8922316431999207 H
   0.0869877934455872    0.6531533598899841    0.8922316431999207 H
   0.9130122065544128    0.3468466401100159    0.8922316431999207 H
   0.3468466401100159    0.0869877934455872    0.1077683418989182 H
   0.6531533598899841    0.9130122065544128    0.1077683418989182 H
   0.3917778134346008    0.6411179304122925    0.1170173063874245 Al
   0.4514661729335785    0.2468556314706802    0.6763619780540466 H
   0.5485337972640991    0.7531443834304810    0.6763619780540466 H
   0.2468556314706802    0.5485337972640991    0.3236380219459534 H
   0.7531443834304810    0.4514661729335785    0.3236380219459534 H
   0.5562442541122437    0.8408941030502319    0.9093701243400574 O
   0.9526231288909912    0.1174722164869308    0.5731362104415894 H
   0.1174722164869308    0.0473768711090088    0.4268637895584106 H
