B4 P2 S10                               
   1.00000000000000     
     6.4675704030261878    0.0000000253272888   -0.0000003712800301
     0.0000000389436675    6.9418053063785443    0.0425745308696538
    -0.0000003991422518    0.0752740844193226    9.5642107179890061
   B    P    S 
     4     2    10
Direct
  0.6996649538539301  0.5592638000367275  0.3769933695065369
  0.4325358409074763  0.7010181191582475  0.3756075668221876
  0.3003350515541855  0.5592638077723036  0.8769933557662931
  0.5674641164056401  0.7010181100644064  0.8756075373192452
  0.9263742134174939  0.2152362429368918  0.9253208215411358
  0.0736258176193250  0.2152362090447616  0.4253208552543601
  0.4859490941798658  0.5335159200219038  0.0186373548922929
  0.5140509307568801  0.5335159153870351  0.5186373603176818
  0.7179258390610183  0.1629328960627284  0.7871015431917607
  0.3238494075263827  0.8001188452403913  0.7975205374275762
  0.8020087381252258  0.7206379003716504  0.7968708065216598
  0.1469430824582628  0.3713540654427001  0.7834004684713249
  0.6761505920028666  0.8001188223861017  0.2975205449435721
  0.2820741645407053  0.1629329418531160  0.2871015798494525
  0.8530568619822002  0.3713540502016770  0.2834004660135635
  0.1979912658062191  0.7206379133207341  0.2968708756739399
 
  0.00000000E+00  0.00000000E+00  0.00000000E+00
  0.00000000E+00  0.00000000E+00  0.00000000E+00
  0.00000000E+00  0.00000000E+00  0.00000000E+00
  0.00000000E+00  0.00000000E+00  0.00000000E+00
  0.00000000E+00  0.00000000E+00  0.00000000E+00
  0.00000000E+00  0.00000000E+00  0.00000000E+00
  0.00000000E+00  0.00000000E+00  0.00000000E+00
  0.00000000E+00  0.00000000E+00  0.00000000E+00
  0.00000000E+00  0.00000000E+00  0.00000000E+00
  0.00000000E+00  0.00000000E+00  0.00000000E+00
  0.00000000E+00  0.00000000E+00  0.00000000E+00
  0.00000000E+00  0.00000000E+00  0.00000000E+00
  0.00000000E+00  0.00000000E+00  0.00000000E+00
  0.00000000E+00  0.00000000E+00  0.00000000E+00
  0.00000000E+00  0.00000000E+00  0.00000000E+00
  0.00000000E+00  0.00000000E+00  0.00000000E+00
