unknown system                          
           1
     6.887065    0.000000    0.000000
     0.000000    6.887065    0.000000
     0.000000    0.000000    8.027592
   B    P    S 
     4     2    10
Direct configuration=     1
   0.71875250  0.56674963  0.38339064
   0.43325037  0.71875250  0.38339064
   0.28124750  0.56674963  0.88339067
   0.56674963  0.71875250  0.88339067
   0.91994214  0.21188593  0.91521937
   0.08005786  0.21188593  0.41521931
   0.50996166  0.56668973  0.01257426
   0.49003834  0.56668973  0.51257426
   0.67072719  0.15014099  0.79171938
   0.32927281  0.84985900  0.79171938
   0.84985900  0.67072719  0.79171938
   0.15014099  0.32927281  0.79171938
   0.67072719  0.84985900  0.29171944
   0.32927281  0.15014099  0.29171944
   0.84985900  0.32927281  0.29171944
   0.15014099  0.67072719  0.29171944
unknown system                          
           1
     6.666195    0.000000    0.000000
     0.000000    6.905826   -0.193056
     0.000000   -0.225027    8.276722
   B    P    S 
     4     2    10
Direct configuration=     2
   0.71693480  0.57186076  0.38167567
   0.41914506  0.74763389  0.35284341
   0.28306519  0.57186076  0.88167568
   0.58085495  0.74763392  0.85284340
   0.91012633  0.20813675  0.91904118
   0.08987367  0.20813674  0.41904116
   0.49546417  0.53337690  0.03598003
   0.50453582  0.53337693  0.53597999
   0.67890379  0.15270949  0.79263279
   0.33193752  0.83652004  0.79585603
   0.83839875  0.67529096  0.79511419
   0.15882319  0.33854896  0.78830915
   0.66806248  0.83652005  0.29585608
   0.32109625  0.15270949  0.29263283
   0.84117677  0.33854897  0.28830920
   0.16160124  0.67529095  0.29511424
unknown system                          
           1
     6.760008    0.000000    0.000000
     0.000000    6.897857   -0.111057
     0.000000   -0.129448    8.170905
   B    P    S 
     4     2    10
Direct configuration=     3
   0.71773244  0.56971713  0.38233216
   0.42533470  0.73580111  0.36515160
   0.28226756  0.56971713  0.88233218
   0.57466531  0.73580112  0.86515160
   0.91443366  0.20967473  0.91750263
   0.08556633  0.20967472  0.41750259
   0.50182591  0.54718417  0.02665988
   0.49817409  0.54718418  0.52665986
   0.67531577  0.15160840  0.79223082
   0.33076820  0.84211901  0.79428250
   0.84342769  0.67331072  0.79366948
   0.15501330  0.33466250  0.78962337
   0.66923180  0.84211901  0.29428255
   0.32468425  0.15160840  0.29223087
   0.84498667  0.33466251  0.28962342
   0.15657229  0.67331072  0.29366953
unknown system                          
           1
     6.552288   -0.000000   -0.000000
    -0.000000    6.759598   -0.081267
    -0.000000   -0.091071    8.201634
   B    P    S 
     4     2    10
Direct configuration=     4
   0.71284920  0.57135723  0.38250155
   0.42015269  0.73353912  0.36209276
   0.28715080  0.57135722  0.88250157
   0.57984727  0.73353915  0.86209276
   0.91104522  0.20789024  0.92076860
   0.08895477  0.20789023  0.42076859
   0.49523307  0.54645615  0.02172316
   0.50476695  0.54645617  0.52172316
   0.67970272  0.15329504  0.79165667
   0.33266994  0.83056683  0.79834897
   0.83149067  0.67849341  0.79646081
   0.15992438  0.34247975  0.78789990
   0.66733007  0.83056684  0.29834901
   0.32029732  0.15329504  0.29165671
   0.84007557  0.34247973  0.28789994
   0.16850933  0.67849343  0.29646088
unknown system                          
           1
     6.521084   -0.000000   -0.000000
    -0.000000    6.738828   -0.076792
    -0.000000   -0.085306    8.206250
   B    P    S 
     4     2    10
Direct configuration=     5
   0.71209236  0.57160849  0.38252606
   0.41934955  0.73319501  0.36163616
   0.28790764  0.57160849  0.88252607
   0.58065040  0.73319504  0.86163617
   0.91052006  0.20761388  0.92125828
   0.08947993  0.20761388  0.42125827
   0.49421127  0.54634880  0.02098474
   0.50578875  0.54634882  0.52098475
   0.68038264  0.15355407  0.79156988
   0.33296468  0.82879250  0.79896348
   0.82964060  0.67928546  0.79687587
   0.16068553  0.34367953  0.78763795
   0.66703533  0.82879252  0.29896352
   0.31961741  0.15355408  0.29156992
   0.83931442  0.34367951  0.28763799
   0.17035940  0.67928549  0.29687594
unknown system                          
           1
     6.552647   -0.000000   -0.000000
    -0.000000    6.694130   -0.049780
    -0.000000   -0.049997    8.368578
   B    P    S 
     4     2    10
Direct configuration=     6
   0.71084509  0.57166793  0.38052721
   0.41830886  0.72783676  0.36379867
   0.28915491  0.57166792  0.88052721
   0.58169114  0.72783678  0.86379866
   0.91492120  0.20787771  0.92771769
   0.08507882  0.20787769  0.42771768
   0.49320110  0.54604688  0.01903703
   0.50679894  0.54604690  0.51903705
   0.67859689  0.15401523  0.78721089
   0.33014094  0.82200203  0.79999997
   0.82466693  0.68407399  0.79737964
   0.16400689  0.35055722  0.78578134
   0.66985906  0.82200204  0.30000000
   0.32140313  0.15401525  0.28721094
   0.83599305  0.35055720  0.28578137
   0.17533302  0.68407402  0.29737970
unknown system                          
           1
     6.555967   -0.000000   -0.000000
    -0.000000    6.689428   -0.046939
    -0.000000   -0.046283    8.385654
   B    P    S 
     4     2    10
Direct configuration=     7
   0.71071451  0.57167536  0.38032101
   0.41819991  0.72726811  0.36402353
   0.28928549  0.57167535  0.88032101
   0.58180009  0.72726812  0.86402352
   0.91538195  0.20790196  0.92838391
   0.08461807  0.20790195  0.42838389
   0.49309535  0.54601602  0.01883622
   0.50690470  0.54601604  0.51883624
   0.67840994  0.15406655  0.78676109
   0.32984532  0.82128235  0.80010916
   0.82414624  0.68458079  0.79743000
   0.16435460  0.35128661  0.78558752
   0.67015467  0.82128237  0.30010920
   0.32159008  0.15406658  0.28676115
   0.83564534  0.35128658  0.28558754
   0.17585371  0.68458082  0.29743006
unknown system                          
           1
     6.600570   -0.000000   -0.000000
    -0.000000    6.710804   -0.040383
    -0.000000   -0.037009    8.557046
   B    P    S 
     4     2    10
Direct configuration=     8
   0.71057064  0.56979506  0.37861835
   0.42291920  0.72237377  0.36821411
   0.28942937  0.56979506  0.87861834
   0.57708082  0.72237377  0.86821409
   0.91525622  0.20799116  0.92892600
   0.08474381  0.20799114  0.42892600
   0.49415704  0.54474342  0.01924236
   0.50584300  0.54474343  0.51924238
   0.68402085  0.15592069  0.78679656
   0.32687255  0.81872368  0.79897306
   0.82495047  0.68905023  0.79611570
   0.16408718  0.35547975  0.78456631
   0.67312744  0.81872370  0.29897308
   0.31597917  0.15592072  0.28679661
   0.83591276  0.35547972  0.28456633
   0.17504946  0.68905025  0.29611576
unknown system                          
           1
     6.647852   -0.000000   -0.000000
    -0.000000    6.733464   -0.033433
    -0.000000   -0.027179    8.738736
   B    P    S 
     4     2    10
Direct configuration=     9
   0.71041915  0.56781084  0.37685110
   0.42788823  0.71719529  0.37257151
   0.28958086  0.56781084  0.87685109
   0.57211180  0.71719528  0.87257148
   0.91512382  0.20808455  0.92948908
   0.08487620  0.20808453  0.42948909
   0.49527492  0.54339802  0.01966533
   0.50472513  0.54339802  0.51966536
   0.68992869  0.15787991  0.78683188
   0.32374247  0.81602173  0.79779494
   0.82579726  0.69377517  0.79474665
   0.16380560  0.35991226  0.78350197
   0.67625753  0.81602175  0.29779496
   0.31007133  0.15787994  0.28683192
   0.83619433  0.35991224  0.28350198
   0.17420265  0.69377519  0.29474671
unknown system                          
           1
     6.607120   -0.000000   -0.000000
    -0.000000    6.763441   -0.023928
    -0.000000   -0.014301    8.872226
   B    P    S 
     4     2    10
Direct configuration=    10
   0.70851537  0.56627383  0.37666113
   0.42964951  0.71326547  0.37428909
   0.29148463  0.56627384  0.87666112
   0.57035051  0.71326546  0.87428906
   0.91424972  0.20852599  0.92755041
   0.08575031  0.20852597  0.42755043
   0.49432739  0.54198543  0.01933989
   0.50567265  0.54198543  0.51933992
   0.69756515  0.15966606  0.78839633
   0.32291184  0.81335740  0.79731380
   0.82245020  0.69875159  0.79477670
   0.16133887  0.36225201  0.78312512
   0.67708816  0.81335742  0.29731381
   0.30243488  0.15966609  0.28839637
   0.83866106  0.36225199  0.28312513
   0.17754972  0.69875161  0.29477676
unknown system                          
           1
     6.568587   -0.000000   -0.000000
    -0.000000    6.791799   -0.014936
    -0.000000   -0.002119    8.998503
   B    P    S 
     4     2    10
Direct configuration=    11
   0.70670335  0.56482666  0.37648570
   0.43132591  0.70956131  0.37589345
   0.29329666  0.56482668  0.87648569
   0.56867410  0.70956130  0.87589341
   0.91341774  0.20894527  0.92574362
   0.08658228  0.20894525  0.42574365
   0.49342552  0.54065568  0.01903812
   0.50657451  0.54065568  0.51903814
   0.70483356  0.16134534  0.78985215
   0.32212125  0.81084908  0.79686823
   0.81926446  0.70343820  0.79479960
   0.15899103  0.36445622  0.78277161
   0.67787875  0.81084909  0.29686824
   0.29516647  0.16134538  0.28985218
   0.84100891  0.36445620  0.28277161
   0.18073547  0.70343822  0.29479966
unknown system                          
           1
     6.536285   -0.000000   -0.000000
    -0.000000    6.839767    0.003454
    -0.000000    0.022629    9.179401
   B    P    S 
     4     2    10
Direct configuration=    12
   0.70446020  0.56303969  0.37664778
   0.43171152  0.70681611  0.37579700
   0.29553981  0.56303969  0.87664777
   0.56828848  0.70681610  0.87579697
   0.91754699  0.21096626  0.92560937
   0.08245304  0.21096624  0.42560940
   0.49104277  0.53836132  0.01890506
   0.50895726  0.53836132  0.51890507
   0.70900609  0.16185327  0.78896133
   0.32267202  0.80740191  0.79707490
   0.81376503  0.70896619  0.79547854
   0.15515133  0.36667303  0.78297849
   0.67732799  0.80740191  0.29707491
   0.29099393  0.16185331  0.28896136
   0.84484861  0.36667301  0.28297849
   0.18623492  0.70896621  0.29547860
unknown system                          
           1
     6.467570    0.000000   -0.000000
     0.000000    6.941805    0.042575
    -0.000000    0.075274    9.564211
   B    P    S 
     4     2    10
Direct configuration=    13
   0.69966495  0.55926380  0.37699337
   0.43253584  0.70101812  0.37560757
   0.30033505  0.55926381  0.87699336
   0.56746412  0.70101811  0.87560754
   0.92637421  0.21523624  0.92532082
   0.07362582  0.21523621  0.42532086
   0.48594909  0.53351592  0.01863735
   0.51405093  0.53351592  0.51863736
   0.71792584  0.16293290  0.78710154
   0.32384941  0.80011885  0.79752054
   0.80200874  0.72063790  0.79687081
   0.14694308  0.37135407  0.78340047
   0.67615059  0.80011882  0.29752054
   0.28207416  0.16293294  0.28710158
   0.85305686  0.37135405  0.28340047
   0.19799127  0.72063791  0.29687088
