Br16
1.0
  10.3048534393310547    0.0000000000000000    0.0000000000000000
   0.0000000000000000   11.0861654281616211    0.0000000000000000
   0.0000000000000000    0.0000000000000000    6.1902770996093750
Br
16
direct
   0.0575850568711758    0.0982306823134422    0.5194522142410278 Br
   0.9424149394035339    0.9017693400382996    0.5194522142410278 Br
   0.3075850605964661    0.1517693102359772    0.7694522142410278 Br
   0.1924149394035339    0.3482306897640228    0.7694522142410278 Br
   0.0575850568711758    0.5982306599617004    0.0194522142410278 Br
   0.9424149394035339    0.4017693102359772    0.0194522142410278 Br
   0.3075850605964661    0.6517693400382996    0.2694522142410278 Br
   0.1924149394035339    0.8482306599617004    0.2694522142410278 Br
   0.5575850605964661    0.0982306823134422    0.0194522142410278 Br
   0.4424149394035339    0.9017693400382996    0.0194522142410278 Br
   0.8075850605964661    0.1517693102359772    0.2694522142410278 Br
   0.6924149394035339    0.3482306897640228    0.2694522142410278 Br
   0.5575850605964661    0.5982306599617004    0.5194522142410278 Br
   0.4424149394035339    0.4017693102359772    0.5194522142410278 Br
   0.8075850605964661    0.6517693400382996    0.7694522142410278 Br
   0.6924149394035339    0.8482306599617004    0.7694522142410278 Br
