K1 Be2 P1 H16
1.0
   6.4820146560668945    0.0000000000000000    0.0000000000000000
   0.0000000000000000    6.4820146560668945    0.0000000000000000
   0.0000000000000000    0.0000000000000000    4.8358802795410156
H K P Be
16 1 1 2
direct
   0.8268756866455078    0.3605726063251495    0.6196731328964233 H
   0.1731243133544922    0.6394274234771729    0.6196731328964233 H
   0.6394274234771729    0.8268756866455078    0.6196731328964233 H
   0.3605726063251495    0.1731243133544922    0.6196731328964233 H
   0.8268756866455078    0.6394274234771729    0.6196731328964233 H
   0.1731243133544922    0.3605726063251495    0.6196731328964233 H
   0.6394274234771729    0.1731243133544922    0.6196731328964233 H
   0.3605726063251495    0.8268756866455078    0.6196731328964233 H
   0.0754798129200935    0.6435639262199402    0.9278293848037720 H
   0.9245201945304871    0.3564360737800598    0.9278293848037720 H
   0.3564360737800598    0.0754798129200935    0.9278293848037720 H
   0.6435639262199402    0.9245201945304871    0.9278293848037720 H
   0.7801676988601685    0.1336213499307632    0.2443374991416931 H
   0.2198323011398315    0.8663786649703979    0.2443374991416931 H
   0.8663786649703979    0.7801676988601685    0.2443374991416931 H
   0.1336213499307632    0.2198323011398315    0.2443374991416931 H
   0.4274613261222839    0.4587402045726776    0.1968301683664322 K
   0.4981104135513306    0.0201647635549307    0.7250393629074097 P
   0.7560006380081177    0.9630439877510071    0.1286350786685944 Be
   0.0369560122489929    0.7560006380081177    0.1286350786685944 Be
