Rb4 Br4 Cl12
1.0
  10.3602018356323242    0.0000000000000000    0.0000000000000000
   0.0000000000000000    8.8589744567871094    0.0000000000000000
   0.0000000000000000    0.0000000000000000    8.4161529541015625
Cl Br Cl Rb
8 4 4 4
direct
   0.7840299606323242    0.0832671821117401    0.4449297785758972 Cl
   0.2159700393676758    0.9167327880859375    0.4449297785758972 Cl
   0.2840299606323242    0.4167328178882599    0.4449297785758972 Cl
   0.7159700393676758    0.5832672119140625    0.4449297785758972 Cl
   0.7840299606323242    0.5832672119140625    0.9449297785758972 Cl
   0.2159700393676758    0.4167328178882599    0.9449297785758972 Cl
   0.2840299606323242    0.9167327880859375    0.9449297785758972 Cl
   0.7159700393676758    0.0832671821117401    0.9449297785758972 Cl
   0.6237043738365173    0.1869363635778427    0.2216476649045944 Br
   0.8762956261634827    0.6869363784790039    0.2216476649045944 Br
   0.6237043738365173    0.6869363784790039    0.7216476798057556 Br
   0.8762956261634827    0.1869363635778427    0.7216476798057556 Br
   0.9382599592208862    0.4404867589473724    0.5061052441596985 Cl
   0.5617400407791138    0.9404867887496948    0.5061052441596985 Cl
   0.9382599592208862    0.9404867887496948    0.0061051845550537 Cl
   0.5617400407791138    0.4404867589473724    0.0061051845550537 Cl
   0.1017434075474739    0.2007297128438950    0.2256889194250107 Rb
   0.3982565999031067    0.7007297277450562    0.2256889194250107 Rb
   0.1017434075474739    0.7007297277450562    0.7256889343261719 Rb
   0.3982565999031067    0.2007297128438950    0.7256889343261719 Rb
