Cs16
1.0
  11.7813110351562500   -3.1567921638488770    0.0000000000000000
  -3.1567921638488770   11.7813110351562500    0.0000000000000000
   0.0000000000000000    0.0000000000000000   11.9589986801147461
Cs
16
direct
   0.3006292879581451    0.3129427433013916    0.6483596563339233 Cs
   0.6870572566986084    0.9876865148544312    0.6483596563339233 Cs
   0.0123134553432465    0.6993707418441772    0.6483596563339233 Cs
   0.6870572566986084    0.6993707418441772    0.8516403436660767 Cs
   0.0123134553432465    0.3129427433013916    0.8516403436660767 Cs
   0.3006292879581451    0.9876865148544312    0.8516403436660767 Cs
   0.6993707418441772    0.6870572566986084    0.3516403436660767 Cs
   0.3129427433013916    0.0123134553432465    0.3516403436660767 Cs
   0.9876865148544312    0.3006292879581451    0.3516403436660767 Cs
   0.3129427433013916    0.3006292879581451    0.1483596563339233 Cs
   0.9876865148544312    0.6870572566986084    0.1483596563339233 Cs
   0.6993707418441772    0.0123134553432465    0.1483596563339233 Cs
   0.3928577601909637    0.6871764659881592    0.0439850725233555 Cs
   0.3128235340118408    0.6071422100067139    0.4560149312019348 Cs
   0.6071422100067139    0.3128235340118408    0.9560149312019348 Cs
   0.6871764659881592    0.3928577601909637    0.5439850687980652 Cs
