As4 O12
1.0
   7.4065456390380859    0.0000000000000000    0.0000000000000000
   0.0000000000000000    7.4065456390380859    0.0000000000000000
   0.0000000000000000    0.0000000000000000    5.0948147773742676
O As
12 4
direct
   0.6680134534835815    0.0914958491921425    0.9717583060264587 O
   0.3319865465164185    0.9085041284561157    0.9717583060264587 O
   0.9085041284561157    0.6680134534835815    0.4717583656311035 O
   0.0914958491921425    0.3319865465164185    0.4717583656311035 O
   0.6680134534835815    0.9085041284561157    0.4717583656311035 O
   0.3319865465164185    0.0914958491921425    0.4717583656311035 O
   0.9085041284561157    0.3319865465164185    0.9717583060264587 O
   0.0914958491921425    0.6680134534835815    0.9717583060264587 O
   0.2622323036193848    0.7053685784339905    0.4077076315879822 O
   0.7377676963806152    0.2946314215660095    0.4077076315879822 O
   0.2946314215660095    0.2622323036193848    0.9077076315879822 O
   0.7053685784339905    0.7377676963806152    0.9077076315879822 O
   0.8123800754547119    0.1866722553968430    0.1862233728170395 As
   0.8133277297019958    0.8123800754547119    0.6862233877182007 As
   0.3729937374591827    0.1655612736940384    0.6472938656806946 As
   0.8344387412071228    0.3729937374591827    0.1472938060760498 As
