Si3 Se9
1.0
   6.9690012931823730   -1.8673384189605713    0.0000000000000000
  -1.8673384189605713    6.9690012931823730    0.0000000000000000
   0.0000000000000000    0.0000000000000000    7.4461526870727539
Se Si
9 3
direct
   0.9736859798431396    0.5126155614852905    0.0808755531907082 Se
   0.4873844385147095    0.4610704183578491    0.0808755531907082 Se
   0.5389295816421509    0.0263140201568604    0.0808755531907082 Se
   0.6403527259826660    0.8459489345550537    0.4142088890075684 Se
   0.1540511250495911    0.7944037914276123    0.4142088890075684 Se
   0.2055962681770325    0.3596473932266235    0.4142088890075684 Se
   0.3070193529129028    0.1792821884155273    0.7475422620773315 Se
   0.8207178115844727    0.1277370452880859    0.7475422620773315 Se
   0.8722629547119141    0.6929807066917419    0.7475422620773315 Se
   0.6696220040321350    0.2546436488628387    0.9511812329292297 Si
   0.3362886905670166    0.5879769921302795    0.2845145463943481 Si
   0.0029553174972534    0.9213103055953979    0.6178479194641113 Si
