O20
1.0
   7.1615252494812012    0.0000000000000000    0.0000000000000000
   0.0000000000000000    7.1615252494812012    0.0000000000000000
   0.0000000000000000    0.0000000000000000    7.1615252494812012
O
20
direct
   0.5864104628562927    0.1826558560132980    0.3562245368957520 O
   0.9135895371437073    0.3173441290855408    0.3562245368957520 O
   0.3173441290855408    0.5864104628562927    0.1437754631042480 O
   0.1826558560132980    0.9135895371437073    0.1437754631042480 O
   0.5864104628562927    0.1826558560132980    0.1437754631042480 O
   0.9135895371437073    0.3173441290855408    0.1437754631042480 O
   0.1826558560132980    0.9135895371437073    0.3562245368957520 O
   0.3173441290855408    0.5864104628562927    0.3562245368957520 O
   0.5537589192390442    0.3977305889129639    0.5309003591537476 O
   0.9462410807609558    0.1022694110870361    0.9690996408462524 O
   0.5309003591537476    0.5537589192390442    0.3977305889129639 O
   0.9690996408462524    0.9462410807609558    0.1022694110870361 O
   0.3977305889129639    0.5309003591537476    0.5537589192390442 O
   0.1022694110870361    0.9690996408462524    0.9462410807609558 O
   0.1022694110870361    0.5537589192390442    0.5309003591537476 O
   0.3977305889129639    0.9462410807609558    0.9690996408462524 O
   0.5537589192390442    0.5309003591537476    0.1022694110870361 O
   0.9462410807609558    0.9690996408462524    0.3977305889129639 O
   0.9690996408462524    0.3977305889129639    0.9462410807609558 O
   0.5309003591537476    0.1022694110870361    0.5537589192390442 O
