Zr1 S4
1.0
   4.5126838684082031   -0.3459163904190063    0.1284997165203094
  -0.3459164202213287    4.8761644363403320    0.0229717455804348
   0.1284997165203094    0.0229717474430799    6.0194363594055176
S Zr S
1 1 3
direct
   0.7933732867240906    0.1355371177196503    0.3342314362525940 S
   0.2238478362560272    0.2188431173563004    0.0812016576528549 Zr
   0.5067497491836548    0.3958889245986938    0.8617487549781799 S
   0.2169561088085175    0.6246405243873596    0.3307002782821655 S
   0.0238977875560522    0.8512094616889954    0.8517583608627319 S
