Li6 Si2 O8
1.0
   4.8956480026245117    0.0000000000000000   -0.3277257978916168
   0.0000000000000000    8.9818649291992188    0.0000000000000000
  -0.3277258276939392    0.0000000000000000    4.8724498748779297
O Li O Li Si O Li
2 2 2 2 2 4 2
direct
   0.2804801166057587    0.9638534784317017    0.6135349869728088 O
   0.7804801464080811    0.4638534784317017    0.6135349869728088 O
   0.4325901269912720    0.5018653273582458    0.3281862437725067 Li
   0.9325901269912720    0.0018653869628906    0.3281862437725067 Li
   0.0287353266030550    0.4691677689552307    0.1721073985099792 O
   0.5287353396415710    0.9691677689552307    0.1721073985099792 O
   0.1749214231967926    0.3558687865734100    0.8924776911735535 Li
   0.6749213933944702    0.8558688163757324    0.8924776911735535 Li
   0.3632715642452240    0.8354961872100830    0.2978025674819946 Si
   0.8632715940475464    0.3354961872100830    0.2978025674819946 Si
   0.5284151434898376    0.3101282715797424    0.1496528387069702 O
   0.5284151434898376    0.6898717284202576    0.1496528387069702 O
   0.0284152030944824    0.8101282715797424    0.1496528387069702 O
   0.0284152030944824    0.1898717284202576    0.1496528387069702 O
   0.8881705403327942    0.6475453376770020    0.3307299911975861 Li
   0.3881704807281494    0.1475453376770020    0.3307299911975861 Li
