V6 Fe3 S9
1.0
   5.8669161796569824   -1.5720355510711670    0.0000000000000000
  -1.5720355510711670    5.8669161796569824    0.0000000000000000
   0.0000000000000000    0.0000000000000000    8.6441688537597656
Fe S V
3 9 6
direct
   0.9803344607353210    0.3635178506374359    0.1714067608118057 Fe
   0.6364821195602417    0.6168166399002075    0.8380734324455261 Fe
   0.3831833600997925    0.0196655392646790    0.5047401189804077 Fe
   0.3308883607387543    0.6659765839576721    0.4316157996654510 S
   0.3340234160423279    0.6649117469787598    0.0982824563980103 S
   0.3350882232189178    0.6691116094589233    0.7649491429328918 S
   0.8321894407272339    0.1647791266441345    0.4149918854236603 S
   0.8352208733558655    0.6674103140830994    0.0816586017608643 S
   0.3325896859169006    0.1678105592727661    0.7483252286911011 S
   0.8352208733558655    0.1678105592727661    0.9183414578437805 S
   0.3325896859169006    0.1647791266441345    0.2516748011112213 S
   0.8321894407272339    0.6674103140830994    0.5850081443786621 S
   0.6329289078712463    0.0093534961342812    0.6593152284622192 V
   0.9906464815139771    0.6235753893852234    0.3259818553924561 V
   0.3764246106147766    0.3670710921287537    0.9926486015319824 V
   0.9906464815139771    0.3670710921287537    0.6740181446075439 V
   0.3764246106147766    0.0093534961342812    0.0073514580726624 V
   0.6329289078712463    0.6235753893852234    0.3406847715377808 V
