V2 F8
1.0
   4.9465975761413574    0.0000000000000000    0.0000000000000000
   0.0000000000000000    4.9465975761413574    0.0000000000000000
   0.0000000000000000    0.0000000000000000    6.6122102737426758
V F
2 8
direct
   0.9951783418655396    0.5089671015739441    0.1342454105615616 V
   0.5089671015739441    0.0048216581344604    0.8657546043395996 V
   0.7144166231155396    0.2019204795360565    0.0906487256288528 F
   0.2855833768844604    0.7980794906616211    0.0906487256288528 F
   0.2019204795360565    0.2855833768844604    0.9093512892723083 F
   0.7980794906616211    0.7144166231155396    0.9093512892723083 F
   0.1990986913442612    0.3230792582035065    0.3438015580177307 F
   0.8009012937545776    0.6769207715988159    0.3438015580177307 F
   0.3230792582035065    0.8009012937545776    0.6561984419822693 F
   0.6769207715988159    0.1990986913442612    0.6561984419822693 F
