Zn4 C4 O8
1.0
   6.4221668243408203    0.0000000000000000    0.0000000000000000
   0.0000000000000000    5.0526123046875000    0.0000000000000000
   0.0000000000000000    0.0000000000000000    5.9938039779663086
O Zn C
8 4 4
direct
   0.2459271997213364    0.9728253483772278    0.8696116209030151 O
   0.7540727853775024    0.0271746516227722    0.8696116209030151 O
   0.2459271997213364    0.0271746516227722    0.3696116209030151 O
   0.7540727853775024    0.9728253483772278    0.3696116209030151 O
   0.7459272146224976    0.4728252887725830    0.8696116209030151 O
   0.2540727853775024    0.5271746516227722    0.8696116209030151 O
   0.7459272146224976    0.5271746516227722    0.3696116209030151 O
   0.2540727853775024    0.4728252887725830    0.3696116209030151 O
   0.9832733273506165    0.2607621550559998    0.7053126692771912 Zn
   0.9832733273506165    0.7392378449440002    0.2053127288818359 Zn
   0.4832732677459717    0.7607621550559998    0.7053126692771912 Zn
   0.4832732677459717    0.2392378449440002    0.2053127288818359 Zn
   0.2472228556871414    0.7495400309562683    0.9582883119583130 C
   0.2472228556871414    0.2504599690437317    0.4582883119583130 C
   0.7527771592140198    0.2504599690437317    0.9582883119583130 C
   0.7527771592140198    0.7495400309562683    0.4582883119583130 C
