Li12 N8
1.0
   6.7509555816650391    0.0000000000000000    0.0000000000000000
   0.0000000000000000    4.8538136482238770    0.0000000000000000
   0.0000000000000000    0.0000000000000000    5.7883749008178711
Li N Li
4 8 8
direct
   0.5130671262741089    0.4978401958942413    0.2578352093696594 Li
   0.4869328737258911    0.4978401958942413    0.7578352093696594 Li
   0.0130671262741089    0.9978401660919189    0.2578352093696594 Li
   0.9869328737258911    0.9978401660919189    0.7578352093696594 Li
   0.2757886052131653    0.7415984869003296    0.3293882012367249 N
   0.7242113947868347    0.7415984869003296    0.8293882012367249 N
   0.7757886052131653    0.2415984869003296    0.3293882012367249 N
   0.2242113947868347    0.2415984869003296    0.8293882012367249 N
   0.2575232386589050    0.7476270794868469    0.8147172927856445 N
   0.2575232386589050    0.2523729205131531    0.3147172927856445 N
   0.7424767613410950    0.2523729205131531    0.8147172927856445 N
   0.7424767613410950    0.7476270794868469    0.3147172927856445 N
   0.1739737689495087    0.4919601976871490    0.5697403550148010 Li
   0.8260262012481689    0.5080398321151733    0.5697403550148010 Li
   0.1739737689495087    0.5080398321151733    0.0697402954101562 Li
   0.8260262012481689    0.4919601976871490    0.0697402954101562 Li
   0.6739737987518311    0.9919601678848267    0.5697403550148010 Li
   0.3260262310504913    0.0080398023128510    0.5697403550148010 Li
   0.6739737987518311    0.0080398023128510    0.0697402954101562 Li
   0.3260262310504913    0.9919601678848267    0.0697402954101562 Li
