Li6 P2 O8
1.0
   5.6947817802429199   -1.5259121656417847    0.0000000000000000
  -1.5259121656417847    5.6947817802429199    0.0000000000000000
   0.0000000000000000    0.0000000000000000    5.6914939880371094
O P O Li
2 2 6 6
direct
   0.2955533564090729    0.6051123142242432    0.8155669569969177 O
   0.6904410123825073    0.2955533564090729    0.3155670166015625 O
   0.0607313662767410    0.1092927679419518    0.8155740499496460 P
   0.9514386057853699    0.0607313662767410    0.3155740499496460 P
   0.6932913064956665    0.8316656947135925    0.3306123018264771 O
   0.1683343052864075    0.8616256117820740    0.3306123018264771 O
   0.1383743882179260    0.3067086935043335    0.3306123018264771 O
   0.3067086935043335    0.1683343052864075    0.8306123018264771 O
   0.8316656947135925    0.1383743882179260    0.8306123018264771 O
   0.8616256117820740    0.6932913064956665    0.8306123018264771 O
   0.0048748594708741    0.4913028776645660    0.0736564248800278 Li
   0.5086971521377563    0.5135719776153564    0.0736564248800278 Li
   0.4864280223846436    0.9951251149177551    0.0736564248800278 Li
   0.9951251149177551    0.5086971521377563    0.5736564397811890 Li
   0.4913028776645660    0.4864280223846436    0.5736564397811890 Li
   0.5135719776153564    0.0048748594708741    0.5736564397811890 Li
