Gd4 Te3 O13
1.0
   6.9825181961059570   -1.8709604740142822    0.0000000000000000
  -1.8709604740142822    6.9825181961059570    0.0000000000000000
   0.0000000000000000    0.0000000000000000    7.4803223609924316
Gd O Te O
4 12 3 1
direct
   0.1642356216907501    0.4440755844116211    0.1045126542448997 Gd
   0.7201600074768066    0.1642356216907501    0.1045126542448997 Gd
   0.8357644081115723    0.5559244155883789    0.8954873681068420 Gd
   0.2798399627208710    0.8357644081115723    0.8954873681068420 Gd
   0.8422145247459412    0.5936845541000366    0.6001526713371277 O
   0.4063154458999634    0.2485299706459045    0.6001526713371277 O
   0.7514700293540955    0.1577854752540588    0.3998473286628723 O
   0.1577854752540588    0.4063154458999634    0.3998473286628723 O
   0.5936845541000366    0.7514700293540955    0.3998473286628723 O
   0.2485299706459045    0.8422145247459412    0.6001526713371277 O
   0.0934907644987106    0.4805167317390442    0.8339248299598694 O
   0.5194832682609558    0.6129740476608276    0.8339248299598694 O
   0.6129740476608276    0.0934907644987106    0.8339248299598694 O
   0.9065092206001282    0.5194832682609558    0.1660751700401306 O
   0.4805167317390442    0.3870259523391724    0.1660751700401306 O
   0.3870259523391724    0.9065092206001282    0.1660751700401306 O
   0.3275640308856964    0.4485028088092804    0.5490965247154236 Te
   0.5514972209930420    0.8790612220764160    0.5490965247154236 Te
   0.8790612220764160    0.3275640308856964    0.5490965247154236 Te
   0.9984527826309204    0.9774466156959534    0.9903135895729065 O
