Ga16 P4
1.0
  10.6536731719970703    0.0000000000000000    0.0000000000000000
   0.0000000000000000    6.0280470848083496    0.0000000000000000
   0.0000000000000000    0.0000000000000000    6.1768102645874023
Ga P Ga
8 4 8
direct
   0.1288370043039322    0.1059506908059120    0.6485776305198669 Ga
   0.8711630105972290    0.8940492868423462    0.1485776901245117 Ga
   0.1288370043039322    0.8940492868423462    0.1485776901245117 Ga
   0.8711630105972290    0.1059506908059120    0.6485776305198669 Ga
   0.6288369894027710    0.6059507131576538    0.6485776305198669 Ga
   0.3711630105972290    0.3940493166446686    0.1485776901245117 Ga
   0.6288369894027710    0.3940493166446686    0.1485776901245117 Ga
   0.3711630105972290    0.6059507131576538    0.6485776305198669 Ga
   0.9944158792495728    0.2621986865997314    0.3144973516464233 P
   0.0055841207504272    0.7378013134002686    0.8144973516464233 P
   0.4944158792495728    0.7621986865997314    0.3144973516464233 P
   0.5055841207504272    0.2378013134002686    0.8144973516464233 P
   0.3705321848392487    0.9074240326881409    0.9820454716682434 Ga
   0.6294678449630737    0.0925759673118591    0.4820454120635986 Ga
   0.3705321848392487    0.0925759673118591    0.4820454120635986 Ga
   0.6294678449630737    0.9074240326881409    0.9820454716682434 Ga
   0.8705321550369263    0.4074239730834961    0.9820454716682434 Ga
   0.1294678151607513    0.5925759673118591    0.4820454120635986 Ga
   0.8705321550369263    0.5925759673118591    0.4820454120635986 Ga
   0.1294678151607513    0.4074239730834961    0.9820454716682434 Ga
