H12
1.0
   6.1289734840393066    0.0000000000000000    0.0000000000000000
   0.0000000000000000    6.1289734840393066    0.0000000000000000
   0.0000000000000000    0.0000000000000000    6.1289734840393066
H
12
direct
   0.2951625585556030    0.2044698596000671    0.2196033746004105 H
   0.2048374414443970    0.7955301403999329    0.7196033596992493 H
   0.7048374414443970    0.7044698596000671    0.2803966403007507 H
   0.7951625585556030    0.2955301403999329    0.7803966403007507 H
   0.0455301403999329    0.9548374414443970    0.0303966253995895 H
   0.5455301403999329    0.5451625585556030    0.9696033596992493 H
   0.4544698596000671    0.0451625585556030    0.5303966403007507 H
   0.9544698596000671    0.4548374414443970    0.4696033596992493 H
   0.0303966253995895    0.0455301403999329    0.9548374414443970 H
   0.9696033596992493    0.5455301403999329    0.5451625585556030 H
   0.5303966403007507    0.4544698596000671    0.0451625585556030 H
   0.4696033596992493    0.9544698596000671    0.4548374414443970 H
