H8
1.0
   4.9245734214782715    0.0000000000000000    0.0000000000000000
   0.0000000000000000    4.9245734214782715    0.0000000000000000
   0.0000000000000000    0.0000000000000000    3.8592083454132080
H
8
direct
   0.7040972709655762    0.8307274580001831    0.4085580408573151 H
   0.2959027290344238    0.6692725419998169    0.1628705561161041 H
   0.2959027290344238    0.1692725419998169    0.4129223525524139 H
   0.7040972709655762    0.3307274580001831    0.1585580110549927 H
   0.7959027290344238    0.6692725419998169    0.4129223525524139 H
   0.2040972709655762    0.8307274580001831    0.1585580110549927 H
   0.2040972709655762    0.3307274580001831    0.4085580408573151 H
   0.7959027290344238    0.1692725419998169    0.1628705561161041 H
