O8
1.0
   3.8146815299987793    0.0000000000000000    0.0000000000000000
   0.0000000000000000    3.8146815299987793    0.0000000000000000
   0.0000000000000000    0.0000000000000000    7.1671886444091797
O
8
direct
   0.7447210550308228    0.7426942586898804    0.8629260659217834 O
   0.2552789449691772    0.2573057413101196    0.8629260659217834 O
   0.7426942586898804    0.2552789449691772    0.1370739340782166 O
   0.2573057413101196    0.7447210550308228    0.1370739340782166 O
   0.2531825006008148    0.2397160828113556    0.3637688457965851 O
   0.7468174695968628    0.7602839469909668    0.3637688457965851 O
   0.2397160828113556    0.7468174695968628    0.6362311840057373 O
   0.7602839469909668    0.2531825006008148    0.6362311840057373 O
