W2 S6
1.0
   6.1036510467529297   -1.6354684829711914    0.0000000000000000
  -1.6354684829711914    6.1036510467529297    0.0000000000000000
   0.0000000000000000    0.0000000000000000    6.0667686462402344
W S
2 6
direct
   0.8500701785087585    0.1729221493005753    0.5450370311737061 W
   0.1499298214912415    0.8270778656005859    0.4549629688262939 W
   0.9523225426673889    0.3020530641078949    0.2525296509265900 S
   0.6979469060897827    0.6502695083618164    0.2525296509265900 S
   0.3497304916381836    0.0476774573326111    0.2474703490734100 S
   0.0476774573326111    0.6979469060897827    0.7474703788757324 S
   0.3020530641078949    0.3497304916381836    0.7474703788757324 S
   0.6502695083618164    0.9523225426673889    0.7525296211242676 S
