Ag16 O4
1.0
  12.4351425170898438    0.0000000000000000    0.0000000000000000
   0.0000000000000000    5.5234918594360352    0.0000000000000000
   0.0000000000000000    0.0000000000000000    5.6284794807434082
Ag O
16 4
direct
   0.6297089457511902    0.7665590047836304    0.7558920383453369 Ag
   0.3702910542488098    0.2334409952163696    0.7558920383453369 Ag
   0.3702910542488098    0.7665590047836304    0.2441079616546631 Ag
   0.6297089457511902    0.2334409952163696    0.2441079616546631 Ag
   0.3702910542488098    0.2334409952163696    0.2441079616546631 Ag
   0.6297089457511902    0.7665590047836304    0.2441079616546631 Ag
   0.6297089457511902    0.2334409952163696    0.7558920383453369 Ag
   0.3702910542488098    0.7665590047836304    0.7558920383453369 Ag
   0.1297090053558350    0.2665590047836304    0.7558920383453369 Ag
   0.8702910542488098    0.7334409952163696    0.7558920383453369 Ag
   0.8702910542488098    0.2665590047836304    0.2441079616546631 Ag
   0.1297090053558350    0.7334409952163696    0.2441079616546631 Ag
   0.8702910542488098    0.7334409952163696    0.2441079616546631 Ag
   0.1297090053558350    0.2665590047836304    0.2441079616546631 Ag
   0.1297090053558350    0.7334409952163696    0.7558920383453369 Ag
   0.8702910542488098    0.2665590047836304    0.7558920383453369 Ag
   0.7458535432815552    0.9944408535957336    0.0096383448690176 O
   0.2458535432815552    0.4944407939910889    0.0096383448690176 O
   0.7426076531410217    0.4980642795562744    0.5186293721199036 O
   0.2426075935363770    0.9980642795562744    0.5186293721199036 O
