Ti4 Cl4 O8
1.0
   5.4293622970581055    0.0000000000000000    0.0000000000000000
   0.0000000000000000    5.4293622970581055    0.0000000000000000
   0.0000000000000000    0.0000000000000000    8.7018880844116211
O Ti Cl
8 4 4
direct
   0.4887580275535583    0.9981869459152222    0.7499327659606934 O
   0.0112419724464417    0.5018130540847778    0.7499327659606934 O
   0.0018130610696971    0.9887580275535583    0.2499327659606934 O
   0.4981869459152222    0.5112419724464417    0.2499327659606934 O
   0.5112419724464417    0.0018130610696971    0.2500672340393066 O
   0.9887580275535583    0.4981869459152222    0.2500672340393066 O
   0.9981869459152222    0.0112419724464417    0.7500672340393066 O
   0.5018130540847778    0.4887580275535583    0.7500672340393066 O
   0.2605380117893219    0.7576190829277039    0.2904696166515350 Ti
   0.2423809170722961    0.7605379819869995    0.7904696464538574 Ti
   0.7549642920494080    0.2448019981384277    0.2910703420639038 Ti
   0.7551980018615723    0.2549643516540527    0.7910703420639038 Ti
   0.7537724971771240    0.7538577914237976    0.4991380572319031 Cl
   0.2461422085762024    0.2537724971771240    0.9991380572319031 Cl
   0.2462275028228760    0.2461422085762024    0.5008619427680969 Cl
   0.7538577914237976    0.7462275028228760    0.0008619427680969 Cl
