Tl6 Co2 S8
1.0
   7.7327747344970703    0.0000000000000000    0.0000000000000000
   0.0000000000000000    7.7327747344970703    0.0000000000000000
   0.0000000000000000    0.0000000000000000    7.7327747344970703
Tl Co S
6 2 8
direct
   0.8494058847427368    0.6300588846206665    0.8587746024131775 Tl
   0.6300588846206665    0.1505941152572632    0.1412253975868225 Tl
   0.1412253975868225    0.6300588846206665    0.1505941152572632 Tl
   0.3494058847427368    0.1300588846206665    0.3587746620178223 Tl
   0.1300588846206665    0.6505941152572632    0.6412253975868225 Tl
   0.6412253975868225    0.1300588846206665    0.6505941152572632 Tl
   0.1127149164676666    0.1098885983228683    0.8869867920875549 Co
   0.6127148866653442    0.6098886132240295    0.3869867324829102 Co
   0.7743225097656250    0.2036360204219818    0.8793308734893799 S
   0.2256774902343750    0.7963639497756958    0.8793308734893799 S
   0.7963639497756958    0.7743225097656250    0.1206691265106201 S
   0.2036360204219818    0.2256774902343750    0.1206691265106201 S
   0.2743225097656250    0.7036360502243042    0.3793308734893799 S
   0.7256774902343750    0.2963639795780182    0.3793308734893799 S
   0.2963639795780182    0.2743225097656250    0.6206691265106201 S
   0.7036360502243042    0.7256774902343750    0.6206691265106201 S
