Ca3 Au3 F6
1.0
   6.1136503219604492   -1.6381478309631348    0.0000000000000000
  -1.6381478309631348    6.1136503219604492    0.0000000000000000
   0.0000000000000000    0.0000000000000000    7.0743036270141602
F Ca Au
6 3 3
direct
   0.0727377757430077    0.6177717447280884    0.0590061470866203 F
   0.3822282552719116    0.4549660086631775    0.3923394978046417 F
   0.5450339913368225    0.9272622466087341    0.7256728410720825 F
   0.7073075175285339    0.9995811581611633    0.2479730397462845 F
   0.0004188462626189    0.7077263593673706    0.5813063979148865 F
   0.2922736406326294    0.2926924824714661    0.9146397113800049 F
   0.2846263945102692    0.9341378808021545    0.8847715258598328 Ca
   0.0658621191978455    0.3504885435104370    0.2181048393249512 Ca
   0.6495114564895630    0.7153736352920532    0.5514382123947144 Ca
   0.9227631688117981    0.3275487422943115    0.7306392192840576 Au
   0.6724512577056885    0.5952144265174866    0.0639725923538208 Au
   0.4047855734825134    0.0772368311882019    0.3973059654235840 Au
