Li4 Cr1 C1 O8
1.0
   5.4787340164184570    0.0000000000000000    0.0000000000000000
   0.0000000000000000    5.4787340164184570    0.0000000000000000
   0.0000000000000000    0.0000000000000000    4.7009649276733398
O Li C Cr
8 4 1 1
direct
   0.2365823388099670    0.0007135284249671    0.7701104283332825 O
   0.7634176611900330    0.9992864727973938    0.7701104283332825 O
   0.0007135284249671    0.7634176611900330    0.2298895716667175 O
   0.9992864727973938    0.2365823388099670    0.2298895716667175 O
   0.4988619983196259    0.7662155628204346    0.2672646045684814 O
   0.5011379718780518    0.2337844371795654    0.2672646045684814 O
   0.7662155628204346    0.5011379718780518    0.7327353954315186 O
   0.2337844371795654    0.4988619983196259    0.7327353954315186 O
   0.7454895973205566    0.5028856396675110    0.2480201572179794 Li
   0.2545104026794434    0.4971143603324890    0.2480201572179794 Li
   0.5028856396675110    0.2545104026794434    0.7519798278808594 Li
   0.4971143603324890    0.7454895973205566    0.7519798278808594 Li
   0.2606480121612549    0.9986865520477295    0.2441386282444000 C
   0.0022066114470363    0.2491052448749542    0.7470846176147461 Cr
