Zn16
1.0
   6.2955670356750488    0.0000000000000000    0.0000000000000000
   0.0000000000000000    6.2955670356750488    0.0000000000000000
   0.0000000000000000    0.0000000000000000    6.2955670356750488
Zn
16
direct
   0.6746529340744019    0.4238528013229370    0.1655905991792679 Zn
   0.1746529340744019    0.9238528013229370    0.6655905842781067 Zn
   0.6746529340744019    0.9238528013229370    0.6655905842781067 Zn
   0.1746529340744019    0.4238528013229370    0.6655905842781067 Zn
   0.1746529340744019    0.9238528013229370    0.1655905991792679 Zn
   0.1746529340744019    0.4238528013229370    0.1655905991792679 Zn
   0.6746529340744019    0.9238528013229370    0.1655905991792679 Zn
   0.6746529340744019    0.4238528013229370    0.6655905842781067 Zn
   0.9246529340744019    0.6738528013229370    0.4155905842781067 Zn
   0.4246529340744019    0.1738528013229370    0.4155905842781067 Zn
   0.4246529340744019    0.6738528013229370    0.9155905842781067 Zn
   0.9246529340744019    0.1738528013229370    0.9155905842781067 Zn
   0.4246529340744019    0.1738528013229370    0.9155905842781067 Zn
   0.9246529340744019    0.6738528013229370    0.9155905842781067 Zn
   0.9246529340744019    0.1738528013229370    0.4155905842781067 Zn
   0.4246529340744019    0.6738528013229370    0.4155905842781067 Zn
