Rb8 S8
1.0
  11.8333492279052734    0.0000000000000000    0.0000000000000000
   0.0000000000000000    9.6081562042236328    0.0000000000000000
   0.0000000000000000    0.0000000000000000    6.6113901138305664
S Rb
8 8
direct
   0.1262671649456024    0.0673899501562119    0.6127964258193970 S
   0.8737328052520752    0.9326100349426270    0.6127964258193970 S
   0.6262671947479248    0.9326100349426270    0.6127964258193970 S
   0.3737328350543976    0.0673899501562119    0.6127964258193970 S
   0.6262671947479248    0.5673899650573730    0.1127964258193970 S
   0.3737328350543976    0.4326100349426270    0.1127964258193970 S
   0.1262671649456024    0.4326100349426270    0.1127964258193970 S
   0.8737328052520752    0.5673899650573730    0.1127964258193970 S
   0.5722994804382324    0.3530931770801544    0.6557080149650574 Rb
   0.4277005195617676    0.6469068527221680    0.6557080149650574 Rb
   0.0722994804382324    0.6469068527221680    0.6557080149650574 Rb
   0.9277005195617676    0.3530931770801544    0.6557080149650574 Rb
   0.0722994804382324    0.8530931472778320    0.1557080745697021 Rb
   0.9277005195617676    0.1469068229198456    0.1557080745697021 Rb
   0.5722994804382324    0.1469068229198456    0.1557080745697021 Rb
   0.4277005195617676    0.8530931472778320    0.1557080745697021 Rb
