Ca2 Sn2 Bi4 O8
1.0
   7.2161026000976562    0.0000000000000000    0.0000000000000000
   0.0000000000000000    7.2161026000976562    0.0000000000000000
   0.0000000000000000    0.0000000000000000    6.1548318862915039
O Bi Sn Ca
8 4 2 2
direct
   0.8265523910522461    0.3199013769626617    0.4743467569351196 O
   0.1734476089477539    0.6800986528396606    0.4743467569351196 O
   0.3199013769626617    0.1734476089477539    0.5256532430648804 O
   0.6800986528396606    0.8265523910522461    0.5256532430648804 O
   0.3265523910522461    0.1800986230373383    0.9743467569351196 O
   0.6734476089477539    0.8199013471603394    0.9743467569351196 O
   0.8199013471603394    0.3265523910522461    0.0256532430648804 O
   0.1800986230373383    0.6734476089477539    0.0256532430648804 O
   0.4548760056495667    0.6990936398506165    0.2449079304933548 Bi
   0.6990936398506165    0.5451239943504333    0.7550920844078064 Bi
   0.9548760056495667    0.1990935802459717    0.7449079155921936 Bi
   0.1990935802459717    0.0451239943504333    0.2550920844078064 Bi
   0.4855965077877045    0.9999332427978516    0.7447003722190857 Sn
   0.9999332427978516    0.5144034624099731    0.2552996277809143 Sn
   0.5171713829040527    0.2728910148143768    0.2416238486766815 Ca
   0.0171713829040527    0.7728910446166992    0.7416238784790039 Ca
