P12 S8
1.0
  10.0839806636311202   -0.2420773521363379   -0.0000001053642921
  -0.1757289620657270    8.0768425619310946    0.0000005976170634
  -0.0000003653567693    0.0000011797842165    9.1989755922222383
P S P
4 8 8
direct
   0.4554623541392626    0.6260455613242372    0.3608014806314699 P
   1.0445691057578699    0.3739488068122546    0.8608036442698298 P
  -0.0445559612270394    0.6260486800584260    0.1391975554675341 P
   0.5445855513292832    0.3739463229269594    0.6391957293427862 P
   0.1437368306951203    0.7557327177166936    0.4374316611985975 S
   0.3562683016445164    0.2442663636137741   -0.0625704989571026 S
   0.6437292097155802    0.7557333465870795    1.0625699812165252 S
   0.8562759859985277    0.2442659555841307    0.5625721164144547 S
   0.1733325974469132    0.4762647293639012    0.7012225813633342 S
   0.3266410134815573    0.5237362700810769    0.2012209094135591 S
   0.8266579562803253    0.5237352325334127    0.2987781839280315 S
   0.6733177116328417    0.4762657731818276    0.7987766937884904 S
   0.6581383572422452    0.2566956733776107    0.4856766697353710 P
   0.8418355803194285    0.7433110072297183   -0.0143263919149057 P
   0.3418198286470047    0.7433165437934518    0.5143286862758645 P
   0.1581535599465408    0.2566918544899640    1.0143243283245582 P
   0.0214161159706450    0.6019003036982691    0.5827495998012169 P
   0.4786002408992079    0.3980970173323272    0.0827481367122313 P
   0.9785896850396277    0.3981002470825167    0.4172500543678454 P
   0.5214258820381518    0.6018976362136611    0.9172490244883086 P
