Pb8 F12
1.0
   7.6770915985107422    0.0000000000000000    0.0000000000000000
   0.0000000000000000   11.6342601776123047    0.0000000000000000
   0.0000000000000000    0.0000000000000000    4.7793312072753906
F Pb F
8 8 4
direct
   0.5206037759780884    0.5972573161125183    0.2464917898178101 F
   0.9793962240219116    0.9027426838874817    0.2464917898178101 F
   0.4793962240219116    0.0972573757171631    0.7535082101821899 F
   0.0206037759780884    0.4027426838874817    0.7535082101821899 F
   0.4793962240219116    0.4027426838874817    0.7535082101821899 F
   0.0206037759780884    0.0972573757171631    0.7535082101821899 F
   0.5206037759780884    0.9027426838874817    0.2464917898178101 F
   0.9793962240219116    0.5972573161125183    0.2464917898178101 F
   0.5002203583717346    0.3896873295307159    0.2565574347972870 Pb
   0.9997796416282654    0.1103126704692841    0.2565574347972870 Pb
   0.4997796416282654    0.8896872997283936    0.7434425354003906 Pb
   0.0002202987670898    0.6103127002716064    0.7434425354003906 Pb
   0.4997796416282654    0.6103127002716064    0.7434425354003906 Pb
   0.0002202987670898    0.8896872997283936    0.7434425354003906 Pb
   0.5002203583717346    0.1103126704692841    0.2565574347972870 Pb
   0.9997796416282654    0.3896873295307159    0.2565574347972870 Pb
   0.7435131669044495    0.2486196309328079    0.2427889406681061 F
   0.2435131072998047    0.7513803839683533    0.7572110891342163 F
   0.7478820085525513    0.7555902600288391    0.7542738914489746 F
   0.2478820085525513    0.2444097399711609    0.2457261085510254 F
