V2 F8
1.0
   5.1263532638549805    0.0000000000000000    0.0000000000000000
   0.0000000000000000    5.1263532638549805    0.0000000000000000
   0.0000000000000000    0.0000000000000000    5.0596628189086914
F V
8 2
direct
   0.3178586959838867    0.1766470074653625    0.2586966753005981 F
   0.6821413040161133    0.8233529925346375    0.2586966753005981 F
   0.8233529925346375    0.3178586959838867    0.2586966753005981 F
   0.1766470074653625    0.6821413040161133    0.2586966753005981 F
   0.6821413040161133    0.8233529925346375    0.7413033246994019 F
   0.3178586959838867    0.1766470074653625    0.7413033246994019 F
   0.1766470074653625    0.6821413040161133    0.7413033246994019 F
   0.8233529925346375    0.3178586959838867    0.7413033246994019 F
   0.8657881617546082    0.6224957108497620    0.9950330853462219 V
   0.3657882213592529    0.8775042891502380    0.5049669146537781 V
