Ga8 Br8
1.0
   9.6172256469726562    0.0000000000000000    0.0000000000000000
   0.0000000000000000    7.8103370666503906    0.0000000000000000
   0.0000000000000000    0.0000000000000000    7.2662124633789062
Br Ga
8 8
direct
   0.8828746676445007    0.7538589239120483    0.0267107337713242 Br
   0.6171253323554993    0.2461410760879517    0.0267107337713242 Br
   0.1171253323554993    0.7538589239120483    0.4732892513275146 Br
   0.3828747272491455    0.2461410760879517    0.4732892513275146 Br
   0.1171253323554993    0.2461410760879517    0.9732892513275146 Br
   0.3828747272491455    0.7538589239120483    0.9732892513275146 Br
   0.8828746676445007    0.2461410760879517    0.5267107486724854 Br
   0.6171253323554993    0.7538589239120483    0.5267107486724854 Br
   0.6322515606880188    0.8653590083122253    0.9154518842697144 Ga
   0.8677484393119812    0.1346409916877747    0.9154518842697144 Ga
   0.3677484393119812    0.8653590083122253    0.5845481157302856 Ga
   0.1322515010833740    0.1346409916877747    0.5845481157302856 Ga
   0.3677484393119812    0.1346409916877747    0.0845481157302856 Ga
   0.1322515010833740    0.8653590083122253    0.0845481157302856 Ga
   0.6322515606880188    0.1346409916877747    0.4154518842697144 Ga
   0.8677484393119812    0.8653590083122253    0.4154518842697144 Ga
