Hg4 Cl8
1.0
   6.0100569725036621    0.0000000000000000    0.0000000000000000
   0.0000000000000000    6.0100569725036621    0.0000000000000000
   0.0000000000000000    0.0000000000000000   10.8944778442382812
Cl Hg
8 4
direct
   0.4872970283031464    0.0196785852313042    0.8359750509262085 Cl
   0.9803214073181152    0.9872970581054688    0.0859750509262085 Cl
   0.0127029716968536    0.4803214073181152    0.3359750509262085 Cl
   0.5196785926818848    0.5127029418945312    0.5859750509262085 Cl
   0.0066190245561302    0.4922502636909485    0.8400058150291443 Cl
   0.5077497363090515    0.5066190361976624    0.0900058746337891 Cl
   0.4933809638023376    0.0077497363090515    0.3400058746337891 Cl
   0.9922502636909485    0.9933809638023376    0.5900058746337891 Cl
   0.2574609816074371    0.2405924797058105    0.4683491289615631 Hg
   0.7594075202941895    0.7574609518051147    0.7183490991592407 Hg
   0.2425390183925629    0.2594075202941895    0.9683490991592407 Hg
   0.7405924797058105    0.7425390481948853    0.2183490991592407 Hg
