Fe4 Sb2 H1 O9
1.0
   6.6880006790161133    0.0000000000000000    0.0000000000000000
   0.0000000000000000    6.6880006790161133    0.0000000000000000
   0.0000000000000000    0.0000000000000000    5.2437953948974609
O Sb H Fe
9 2 1 4
direct
   0.9965263009071350    0.9853116869926453    0.3328299224376678 O
   0.1644926071166992    0.3569247722625732    0.7459862232208252 O
   0.8355073928833008    0.6430752277374268    0.7459862232208252 O
   0.6430752277374268    0.1644926071166992    0.7459862232208252 O
   0.3569247722625732    0.8355073928833008    0.7459862232208252 O
   0.8355073928833008    0.3569247722625732    0.2540137767791748 O
   0.1644926071166992    0.6430752277374268    0.2540137767791748 O
   0.3569247722625732    0.1644926071166992    0.2540137767791748 O
   0.6430752277374268    0.8355073928833008    0.2540137767791748 O
   0.3552250266075134    0.1220230236649513    0.8586781620979309 Sb
   0.8779769539833069    0.3552250266075134    0.8586781620979309 Sb
   0.0501058697700500    0.9219271540641785    0.4137236177921295 H
   0.1628162115812302    0.3437703549861908    0.3602682352066040 Fe
   0.8371837735176086    0.6562296152114868    0.3602682352066040 Fe
   0.6562296152114868    0.1628162115812302    0.3602682352066040 Fe
   0.3437703549861908    0.8371837735176086    0.3602682352066040 Fe
