 running on   20 total cores
 distrk:  each k-point on   20 cores,    1 groups
 distr:  one band on    4 cores,    5 groups
 vasp.6.3.1 04May22 (build Oct 09 2023 22:45:39) complex                        
  
 POSCAR found type information on POSCAR B P S 
 POSCAR found :  3 types and      16 ions
 scaLAPACK will be used
 LDA part: xc-table for Pade appr. of Perdew
 POSCAR, INCAR and KPOINTS ok, starting setup
 FFT: planning ... GRIDC
 FFT: planning ... GRID_SOFT
 FFT: planning ... GRID
 WAVECAR not read
 entering main loop
       N       E                     dE             d eps       ncg     rms          rms(c)
DAV:   1     0.446443634514E+03    0.44644E+03   -0.33960E+04  5720   0.125E+03
DAV:   2    -0.276934245693E+02   -0.47414E+03   -0.45632E+03  7240   0.220E+02
DAV:   3    -0.709827464955E+02   -0.43289E+02   -0.42091E+02  7040   0.719E+01
DAV:   4    -0.721865499214E+02   -0.12038E+01   -0.11947E+01  7450   0.133E+01
DAV:   5    -0.722247736657E+02   -0.38224E-01   -0.38187E-01  7315   0.234E+00    0.328E+01
DAV:   6    -0.698880867734E+02    0.23367E+01   -0.79644E+00  7070   0.113E+01    0.182E+01
DAV:   7    -0.699859898341E+02   -0.97903E-01   -0.63223E+00  6750   0.855E+00    0.856E+00
DAV:   8    -0.700427007790E+02   -0.56711E-01   -0.80341E-01  6620   0.352E+00    0.391E+00
DAV:   9    -0.700320934420E+02    0.10607E-01   -0.10192E-01  7410   0.128E+00    0.196E+00
DAV:  10    -0.700334408377E+02   -0.13474E-02   -0.40942E-02  6870   0.710E-01    0.818E-01
DAV:  11    -0.700351425456E+02   -0.17017E-02   -0.11386E-02  6600   0.396E-01    0.355E-01
DAV:  12    -0.700353909473E+02   -0.24840E-03   -0.19372E-03  7030   0.190E-01    0.139E-01
DAV:  13    -0.700354559446E+02   -0.64997E-04   -0.30758E-04  7450   0.639E-02    0.852E-02
DAV:  14    -0.700354746938E+02   -0.18749E-04   -0.47727E-05  6820   0.295E-02    0.494E-02
DAV:  15    -0.700354941776E+02   -0.19484E-04   -0.44059E-05  6810   0.247E-02    0.150E-02
DAV:  16    -0.700354956973E+02   -0.15198E-05   -0.51483E-06  6400   0.104E-02    0.681E-03
DAV:  17    -0.700354964884E+02   -0.79111E-06   -0.12703E-06  3650   0.455E-03
   1 F= -.70035496E+02 E0= -.70034402E+02  d E =-.700355E+02  mag=     1.9738
 curvature:   0.00 expect dE= 0.000E+00 dE for cont linesearch  0.000E+00
 trial: gam= 0.00000 g(F)=  0.169E+02 g(S)=  0.197E+01 ort = 0.000E+00 (trialstep = 0.100E+01)
 search vector abs. value=  0.189E+02
 bond charge predicted
       N       E                     dE             d eps       ncg     rms          rms(c)
DAV:   1    -0.695337588896E+02    0.50174E+00   -0.58464E+02  5720   0.908E+01    0.747E+01
DAV:   2    -0.746964384996E+02   -0.51627E+01   -0.65075E+01  6910   0.267E+01    0.331E+01
DAV:   3    -0.741516203047E+02    0.54482E+00   -0.28032E+00  6840   0.676E+00    0.278E+01
DAV:   4    -0.739120639691E+02    0.23956E+00   -0.65258E-01  7210   0.274E+00    0.173E+01
DAV:   5    -0.738527644810E+02    0.59299E-01   -0.17819E-01  7360   0.173E+00    0.760E+00
DAV:   6    -0.738503314995E+02    0.24330E-02   -0.92730E-02  6960   0.106E+00    0.199E+00
DAV:   7    -0.738513102434E+02   -0.97874E-03   -0.19077E-02  7600   0.568E-01    0.697E-01
DAV:   8    -0.738519305758E+02   -0.62033E-03   -0.53335E-03  6550   0.261E-01    0.861E-01
DAV:   9    -0.738513407619E+02    0.58981E-03   -0.24332E-03  6620   0.165E-01    0.340E-01
DAV:  10    -0.738513401652E+02    0.59666E-06   -0.43151E-04  7050   0.762E-02    0.174E-01
DAV:  11    -0.738513398750E+02    0.29022E-06   -0.51582E-05  6890   0.271E-02    0.495E-02
DAV:  12    -0.738513442477E+02   -0.43727E-05   -0.25072E-05  7160   0.176E-02    0.164E-02
DAV:  13    -0.738513485246E+02   -0.42769E-05   -0.64729E-06  6500   0.945E-03    0.967E-03
DAV:  14    -0.738513495360E+02   -0.10114E-05   -0.74889E-07  3700   0.366E-03    0.598E-03
DAV:  15    -0.738513499949E+02   -0.45894E-06   -0.39591E-07  3700   0.275E-03
   2 F= -.73851350E+02 E0= -.73847417E+02  d E =-.381585E+01  mag=     1.9257
 trial-energy change:   -3.815854  1 .order   -8.726851  -18.873705    1.420003
 step:   0.5753(harm=  0.9300)  dis= 0.11442  next Energy=   -74.529232 (dE=-0.449E+01)
 bond charge predicted
       N       E                     dE             d eps       ncg     rms          rms(c)
DAV:   1    -0.738730101037E+02   -0.21661E-01   -0.96045E+01  5720   0.345E+01    0.163E+01
DAV:   2    -0.742570930701E+02   -0.38408E+00   -0.58948E+00  7250   0.935E+00    0.339E+00
DAV:   3    -0.741895500207E+02    0.67543E-01   -0.25034E-01  7260   0.201E+00    0.298E+00
DAV:   4    -0.741626446244E+02    0.26905E-01   -0.65907E-02  7250   0.948E-01    0.176E+00
DAV:   5    -0.741569101092E+02    0.57345E-02   -0.18706E-02  6700   0.497E-01    0.687E-01
DAV:   6    -0.741567357879E+02    0.17432E-03   -0.45975E-03  7670   0.245E-01    0.391E-01
DAV:   7    -0.741567684639E+02   -0.32676E-04   -0.67031E-04  6740   0.994E-02    0.300E-01
DAV:   8    -0.741567854806E+02   -0.17017E-04   -0.44745E-04  6660   0.742E-02    0.124E-01
DAV:   9    -0.741567960194E+02   -0.10539E-04   -0.10150E-04  7210   0.377E-02    0.380E-02
DAV:  10    -0.741567967272E+02   -0.70786E-06   -0.16628E-05  6770   0.153E-02    0.209E-02
DAV:  11    -0.741567994482E+02   -0.27209E-05   -0.35483E-06  5490   0.777E-03    0.931E-03
DAV:  12    -0.741568012275E+02   -0.17793E-05   -0.13458E-06  3940   0.495E-03    0.285E-03
DAV:  13    -0.741568016979E+02   -0.47041E-06   -0.36733E-07  3640   0.253E-03
   3 F= -.74156802E+02 E0= -.74155115E+02  d E =-.412131E+01  mag=     1.9439
 curvature:  11.49 expect dE= 0.337E+02 dE for cont linesearch  0.167E+00
 trial: gam= 0.12752 g(F)=  0.210E+01 g(S)=  0.830E+00 ort = 0.523E+00 (trialstep = 0.915E+00)
 search vector abs. value=  0.337E+01
 bond charge predicted
       N       E                     dE             d eps       ncg     rms          rms(c)
DAV:   1    -0.761594310897E+02   -0.20026E+01   -0.80948E+01  5880   0.312E+01    0.172E+01
DAV:   2    -0.759838245999E+02    0.17561E+00   -0.62461E+00  7300   0.998E+00    0.371E+00
DAV:   3    -0.758942695776E+02    0.89555E-01   -0.56143E-01  6820   0.264E+00    0.230E+00
DAV:   4    -0.758657944858E+02    0.28475E-01   -0.79042E-02  7230   0.104E+00    0.123E+00
DAV:   5    -0.758591521015E+02    0.66424E-02   -0.14639E-02  7120   0.452E-01    0.800E-01
DAV:   6    -0.758572399846E+02    0.19121E-02   -0.34351E-03  6960   0.208E-01    0.494E-01
DAV:   7    -0.758569171312E+02    0.32285E-03   -0.10456E-03  6830   0.122E-01    0.238E-01
DAV:   8    -0.758569632338E+02   -0.46103E-04   -0.74601E-04  7050   0.984E-02    0.766E-02
DAV:   9    -0.758569833595E+02   -0.20126E-04   -0.10297E-04  6800   0.445E-02    0.342E-02
DAV:  10    -0.758569910329E+02   -0.76734E-05   -0.39258E-05  6680   0.200E-02    0.190E-02
DAV:  11    -0.758569925100E+02   -0.14771E-05   -0.41643E-06  6210   0.878E-03    0.129E-02
DAV:  12    -0.758569929761E+02   -0.46609E-06   -0.22691E-06  4530   0.596E-03
   4 F= -.75856993E+02 E0= -.75853691E+02  d E =-.170019E+01  mag=     1.8601
 trial-energy change:   -1.700191  1 .order   -1.596683   -2.741958   -0.451408
 step:   1.0525(harm=  1.0954)  dis= 0.09282  next Energy=   -75.891250 (dE=-0.173E+01)
 bond charge predicted
       N       E                     dE             d eps       ncg     rms          rms(c)
DAV:   1    -0.758960911783E+02   -0.39099E-01   -0.18631E+00  6090   0.484E+00    0.204E+00
DAV:   2    -0.758916594134E+02    0.44318E-02   -0.14653E-01  7350   0.154E+00    0.570E-01
DAV:   3    -0.758891823935E+02    0.24770E-02   -0.13247E-02  6760   0.415E-01    0.364E-01
DAV:   4    -0.758884865833E+02    0.69581E-03   -0.19538E-03  7250   0.168E-01    0.198E-01
DAV:   5    -0.758883403674E+02    0.14622E-03   -0.53445E-04  6900   0.829E-02    0.997E-02
DAV:   6    -0.758883266377E+02    0.13730E-04   -0.79016E-05  7320   0.349E-02    0.519E-02
DAV:   7    -0.758883340433E+02   -0.74055E-05   -0.19323E-05  6710   0.166E-02    0.298E-02
DAV:   8    -0.758883399557E+02   -0.59125E-05   -0.78468E-06  7030   0.111E-02    0.135E-02
DAV:   9    -0.758883438751E+02   -0.39194E-05   -0.23378E-06  4350   0.689E-03    0.531E-03
DAV:  10    -0.758883448691E+02   -0.99394E-06   -0.61524E-07  3640   0.292E-03
   5 F= -.75888345E+02 E0= -.75884505E+02  d E =-.173154E+01  mag=     1.8250
 curvature:  -0.58 expect dE=-0.636E+00 dE for cont linesearch -0.145E-03
 trial: gam= 0.34127 g(F)=  0.721E+00 g(S)=  0.374E+00 ort =-0.290E-01 (trialstep = 0.943E+00)
 search vector abs. value=  0.147E+01
 bond charge predicted
       N       E                     dE             d eps       ncg     rms          rms(c)
DAV:   1    -0.764677238875E+02   -0.57938E+00   -0.36359E+01  6020   0.210E+01    0.770E+00
DAV:   2    -0.764972812732E+02   -0.29557E-01   -0.27846E+00  7240   0.648E+00    0.289E+00
DAV:   3    -0.764510123761E+02    0.46269E-01   -0.14180E-01  6900   0.157E+00    0.224E+00
DAV:   4    -0.764277396342E+02    0.23273E-01   -0.61088E-02  6990   0.891E-01    0.101E+00
DAV:   5    -0.764255176021E+02    0.22220E-02   -0.13706E-02  7180   0.432E-01    0.516E-01
DAV:   6    -0.764255989883E+02   -0.81386E-04   -0.13876E-03  7120   0.144E-01    0.374E-01
DAV:   7    -0.764255641724E+02    0.34816E-04   -0.38118E-04  7010   0.785E-02    0.231E-01
DAV:   8    -0.764255528159E+02    0.11356E-04   -0.40379E-04  6770   0.725E-02    0.792E-02
DAV:   9    -0.764255591409E+02   -0.63250E-05   -0.94528E-05  7060   0.427E-02    0.320E-02
DAV:  10    -0.764255614558E+02   -0.23150E-05   -0.24788E-05  6800   0.168E-02    0.212E-02
DAV:  11    -0.764255625290E+02   -0.10732E-05   -0.25466E-06  4580   0.673E-03    0.124E-02
DAV:  12    -0.764255639226E+02   -0.13936E-05   -0.28474E-06  4840   0.638E-03    0.402E-03
DAV:  13    -0.764255642480E+02   -0.32544E-06   -0.58385E-07  3640   0.316E-03
   6 F= -.76425564E+02 E0= -.76421945E+02  d E =-.537219E+00  mag=     1.7801
 trial-energy change:   -0.537219  1 .order   -0.554421   -1.022386   -0.086457
 step:   1.0417(harm=  1.0296)  dis= 0.05856  next Energy=   -76.430092 (dE=-0.542E+00)
 bond charge predicted
       N       E                     dE             d eps       ncg     rms          rms(c)
DAV:   1    -0.764301683205E+02   -0.46044E-02   -0.40601E-01  5835   0.221E+00    0.766E-01
DAV:   2    -0.764304521481E+02   -0.28383E-03   -0.29916E-02  7250   0.674E-01    0.245E-01
DAV:   3    -0.764299035099E+02    0.54864E-03   -0.15746E-03  6880   0.167E-01    0.170E-01
DAV:   4    -0.764296839548E+02    0.21956E-03   -0.61481E-04  7100   0.900E-02    0.804E-02
DAV:   5    -0.764296612761E+02    0.22679E-04   -0.10702E-04  7190   0.384E-02    0.510E-02
DAV:   6    -0.764296593993E+02    0.18767E-05   -0.11312E-05  7220   0.132E-02    0.349E-02
DAV:   7    -0.764296583118E+02    0.10875E-05   -0.38721E-06  5890   0.786E-03    0.196E-02
DAV:   8    -0.764296576205E+02    0.69127E-06   -0.25377E-06  4420   0.620E-03
   7 F= -.76429658E+02 E0= -.76426042E+02  d E =-.541313E+00  mag=     1.7723
 curvature:  -0.68 expect dE=-0.419E+00 dE for cont linesearch -0.119E-05
 trial: gam= 0.42830 g(F)=  0.495E+00 g(S)=  0.119E+00 ort =-0.160E-02 (trialstep = 0.962E+00)
 search vector abs. value=  0.881E+00
 bond charge predicted
       N       E                     dE             d eps       ncg     rms          rms(c)
DAV:   1    -0.770788598738E+02   -0.64920E+00   -0.21926E+01  5720   0.169E+01    0.463E+00
DAV:   2    -0.769447105072E+02    0.13415E+00   -0.12175E+00  7000   0.416E+00    0.197E+00
DAV:   3    -0.768954626858E+02    0.49248E-01   -0.97562E-02  6800   0.113E+00    0.129E+00
DAV:   4    -0.768774114784E+02    0.18051E-01   -0.36289E-02  6740   0.633E-01    0.607E-01
DAV:   5    -0.768760998332E+02    0.13116E-02   -0.50056E-03  7290   0.258E-01    0.286E-01
DAV:   6    -0.768758962452E+02    0.20359E-03   -0.65788E-04  7510   0.958E-02    0.189E-01
DAV:   7    -0.768758907241E+02    0.55211E-05   -0.24597E-04  7390   0.642E-02    0.942E-02
DAV:   8    -0.768759019041E+02   -0.11180E-04   -0.99111E-05  6280   0.382E-02    0.373E-02
DAV:   9    -0.768759017912E+02    0.11296E-06   -0.18633E-05  7330   0.177E-02    0.250E-02
DAV:  10    -0.768759025900E+02   -0.79879E-06   -0.55822E-06  6330   0.895E-03
   8 F= -.76875903E+02 E0= -.76873872E+02  d E =-.446245E+00  mag=     1.9045
 trial-energy change:   -0.446245  1 .order   -0.446458   -0.589546   -0.303370
 step:   1.9826(harm=  1.9826)  dis= 0.07578  next Energy=   -77.036915 (dE=-0.607E+00)
 bond charge predicted
       N       E                     dE             d eps       ncg     rms          rms(c)
DAV:   1    -0.772598755747E+02   -0.38397E+00   -0.24433E+01  5720   0.178E+01    0.472E+00
DAV:   2    -0.771147658283E+02    0.14511E+00   -0.13543E+00  6880   0.438E+00    0.202E+00
DAV:   3    -0.770609161704E+02    0.53850E-01   -0.10644E-01  6770   0.117E+00    0.133E+00
DAV:   4    -0.770412991172E+02    0.19617E-01   -0.38598E-02  6750   0.651E-01    0.661E-01
DAV:   5    -0.770396696684E+02    0.16294E-02   -0.57467E-03  7280   0.271E-01    0.289E-01
DAV:   6    -0.770394283652E+02    0.24130E-03   -0.71756E-04  7680   0.101E-01    0.195E-01
DAV:   7    -0.770394241781E+02    0.41871E-05   -0.25851E-04  6600   0.653E-02    0.956E-02
DAV:   8    -0.770394412814E+02   -0.17103E-04   -0.11048E-04  6470   0.389E-02    0.399E-02
DAV:   9    -0.770394430967E+02   -0.18153E-05   -0.12624E-05  6920   0.160E-02    0.255E-02
DAV:  10    -0.770394446801E+02   -0.15834E-05   -0.87305E-06  6680   0.105E-02    0.146E-02
DAV:  11    -0.770394460486E+02   -0.13685E-05   -0.18569E-06  4160   0.593E-03    0.559E-03
DAV:  12    -0.770394469673E+02   -0.91865E-06   -0.15239E-06  4120   0.476E-03
   9 F= -.77039447E+02 E0= -.77038243E+02  d E =-.609789E+00  mag=     1.9563
 curvature:  -1.43 expect dE=-0.970E+00 dE for cont linesearch -0.208E-03
 trial: gam= 1.00520 g(F)=  0.517E+00 g(S)=  0.164E+00 ort = 0.113E-01 (trialstep = 0.645E+00)
 search vector abs. value=  0.159E+01
 bond charge predicted
       N       E                     dE             d eps       ncg     rms          rms(c)
DAV:   1    -0.774201213880E+02   -0.38068E+00   -0.19284E+01  5725   0.145E+01    0.445E+00
DAV:   2    -0.774225347536E+02   -0.24134E-02   -0.11823E+00  6690   0.408E+00    0.133E+00
DAV:   3    -0.773954487416E+02    0.27086E-01   -0.55506E-02  6990   0.931E-01    0.827E-01
DAV:   4    -0.773846957992E+02    0.10753E-01   -0.29781E-02  6740   0.582E-01    0.484E-01
DAV:   5    -0.773842667529E+02    0.42905E-03   -0.44673E-03  7170   0.247E-01    0.304E-01
DAV:   6    -0.773841650164E+02    0.10174E-03   -0.58653E-04  7750   0.940E-02    0.200E-01
DAV:   7    -0.773841864376E+02   -0.21421E-04   -0.28135E-04  6850   0.613E-02    0.966E-02
DAV:   8    -0.773842069815E+02   -0.20544E-04   -0.97742E-05  7270   0.378E-02    0.379E-02
DAV:   9    -0.773842130573E+02   -0.60757E-05   -0.16041E-05  6630   0.160E-02    0.225E-02
DAV:  10    -0.773842139929E+02   -0.93558E-06   -0.30224E-06  5270   0.741E-03
  10 F= -.77384214E+02 E0= -.77383606E+02  d E =-.344767E+00  mag=     1.9887
 trial-energy change:   -0.344767  1 .order   -0.341335   -0.446258   -0.236413
 step:   1.2549(harm=  1.3714)  dis= 0.09879  next Energy=   -77.498939 (dE=-0.459E+00)
 bond charge predicted
       N       E                     dE             d eps       ncg     rms          rms(c)
DAV:   1    -0.775230136640E+02   -0.13880E+00   -0.17267E+01  5720   0.138E+01    0.416E+00
DAV:   2    -0.775275607374E+02   -0.45471E-02   -0.10750E+00  6690   0.389E+00    0.124E+00
DAV:   3    -0.775029002289E+02    0.24661E-01   -0.51221E-02  6990   0.890E-01    0.790E-01
DAV:   4    -0.774936137357E+02    0.92865E-02   -0.27126E-02  6750   0.552E-01    0.487E-01
DAV:   5    -0.774933244747E+02    0.28926E-03   -0.38926E-03  7180   0.229E-01    0.301E-01
DAV:   6    -0.774932375506E+02    0.86924E-04   -0.49960E-04  8170   0.900E-02    0.186E-01
DAV:   7    -0.774932599570E+02   -0.22406E-04   -0.29592E-04  6710   0.629E-02    0.829E-02
DAV:   8    -0.774932739233E+02   -0.13966E-04   -0.73137E-05  7075   0.335E-02    0.360E-02
DAV:   9    -0.774932778329E+02   -0.39096E-05   -0.13015E-05  6710   0.138E-02    0.191E-02
DAV:  10    -0.774932787370E+02   -0.90412E-06   -0.27236E-06  4990   0.719E-03
  11 F= -.77493279E+02 E0= -.77493130E+02  d E =-.453832E+00  mag=     1.9988
 curvature:  -1.54 expect dE=-0.100E+01 dE for cont linesearch -0.220E-03
 trial: gam= 0.91154 g(F)=  0.572E+00 g(S)=  0.802E-01 ort =-0.151E-01 (trialstep = 0.627E+00)
 search vector abs. value=  0.195E+01
 bond charge predicted
       N       E                     dE             d eps       ncg     rms          rms(c)
DAV:   1    -0.779591794978E+02   -0.46590E+00   -0.21206E+01  5720   0.151E+01    0.459E+00
DAV:   2    -0.778889464616E+02    0.70233E-01   -0.12841E+00  6600   0.432E+00    0.188E+00
DAV:   3    -0.778503931116E+02    0.38553E-01   -0.74905E-02  7270   0.104E+00    0.130E+00
DAV:   4    -0.778310354539E+02    0.19358E-01   -0.33462E-02  6720   0.622E-01    0.660E-01
DAV:   5    -0.778291338464E+02    0.19016E-02   -0.79310E-03  7100   0.309E-01    0.291E-01
DAV:   6    -0.778289348071E+02    0.19904E-03   -0.73064E-04  8360   0.107E-01    0.187E-01
DAV:   7    -0.778289606698E+02   -0.25863E-04   -0.33753E-04  7090   0.665E-02    0.991E-02
DAV:   8    -0.778289903779E+02   -0.29708E-04   -0.10379E-04  6405   0.431E-02    0.427E-02
DAV:   9    -0.778289987132E+02   -0.83353E-05   -0.32016E-05  6740   0.214E-02    0.236E-02
DAV:  10    -0.778290010077E+02   -0.22945E-05   -0.41196E-06  6020   0.883E-03    0.134E-02
DAV:  11    -0.778290028873E+02   -0.18796E-05   -0.26082E-06  4830   0.624E-03    0.606E-03
DAV:  12    -0.778290040312E+02   -0.11439E-05   -0.12113E-06  3980   0.468E-03    0.252E-03
DAV:  13    -0.778290044165E+02   -0.38534E-06   -0.40074E-07  3555   0.249E-03
  12 F= -.77829004E+02 E0= -.77828980E+02  d E =-.335726E+00  mag=     1.9999
 trial-energy change:   -0.335726  1 .order   -0.336274   -0.400272   -0.272276
 step:   1.9613(harm=  1.9613)  dis= 0.11741  next Energy=   -78.119147 (dE=-0.626E+00)
 bond charge predicted
       N       E                     dE             d eps       ncg     rms          rms(c)
DAV:   1    -0.786403649815E+02   -0.81136E+00   -0.92392E+01  5720   0.315E+01    0.121E+01
DAV:   2    -0.783669936074E+02    0.27337E+00   -0.56298E+00  6740   0.914E+00    0.457E+00
DAV:   3    -0.782055618692E+02    0.16143E+00   -0.33280E-01  7410   0.219E+00    0.348E+00
DAV:   4    -0.781207620596E+02    0.84800E-01   -0.12530E-01  6750   0.120E+00    0.178E+00
DAV:   5    -0.781061295061E+02    0.14633E-01   -0.48014E-02  6850   0.718E-01    0.634E-01
DAV:   6    -0.781051826476E+02    0.94686E-03   -0.37100E-03  8150   0.257E-01    0.365E-01
DAV:   7    -0.781053276480E+02   -0.14500E-03   -0.22093E-03  6980   0.168E-01    0.210E-01
DAV:   8    -0.781055232683E+02   -0.19562E-03   -0.45980E-04  6420   0.947E-02    0.102E-01
DAV:   9    -0.781055810365E+02   -0.57768E-04   -0.15135E-04  6760   0.455E-02    0.564E-02
DAV:  10    -0.781055999873E+02   -0.18951E-04   -0.18713E-05  6690   0.203E-02    0.317E-02
DAV:  11    -0.781056108452E+02   -0.10858E-04   -0.13618E-05  6500   0.144E-02    0.144E-02
DAV:  12    -0.781056155413E+02   -0.46961E-05   -0.64945E-06  6600   0.104E-02    0.651E-03
DAV:  13    -0.781056166539E+02   -0.11126E-05   -0.12940E-06  4080   0.466E-03    0.461E-03
DAV:  14    -0.781056172140E+02   -0.56012E-06   -0.37646E-07  3620   0.256E-03
  13 F= -.78105617E+02 E0= -.78105602E+02  d E =-.612338E+00  mag=     1.9998
 curvature:  -2.99 expect dE=-0.140E+01 dE for cont linesearch -0.419E-03
 trial: gam= 0.71573 g(F)=  0.391E+00 g(S)=  0.781E-01 ort =-0.165E-01 (trialstep = 0.894E+00)
 search vector abs. value=  0.144E+01
 bond charge predicted
       N       E                     dE             d eps       ncg     rms          rms(c)
DAV:   1    -0.785332958508E+02   -0.42768E+00   -0.31705E+01  5720   0.189E+01    0.636E+00
