Cs2 Rb10 Tb8
1.0
   9.7129898071289062    0.0000000000000000    0.0000000000000000
   0.0000000000000000    9.7129898071289062    0.0000000000000000
   0.0000000000000000    0.0000000000000000   11.1680507659912109
Tb Rb Cs Rb
8 8 2 2
direct
   0.8221518993377686    0.4219994246959686    0.7674727439880371 Tb
   0.1778481006622314    0.5780005455017090    0.7674727439880371 Tb
   0.4219994246959686    0.1778481006622314    0.2325272560119629 Tb
   0.5780005455017090    0.8221518993377686    0.2325272560119629 Tb
   0.8221518993377686    0.5780005455017090    0.2674727439880371 Tb
   0.1778481006622314    0.4219994246959686    0.2674727439880371 Tb
   0.4219994246959686    0.8221518993377686    0.7325272560119629 Tb
   0.5780005455017090    0.1778481006622314    0.7325272560119629 Tb
   0.1904884427785873    0.1644993871450424    0.9060922265052795 Rb
   0.8095115423202515    0.8355005979537964    0.9060922265052795 Rb
   0.1644993871450424    0.8095115423202515    0.0939077734947205 Rb
   0.8355005979537964    0.1904884427785873    0.0939077734947205 Rb
   0.1904884427785873    0.8355005979537964    0.4060921669006348 Rb
   0.8095115423202515    0.1644993871450424    0.4060921669006348 Rb
   0.1644993871450424    0.1904884427785873    0.5939077734947205 Rb
   0.8355005979537964    0.8095115423202515    0.5939077734947205 Rb
   0.9988565444946289    0.4934664666652679    0.0062634637579322 Cs
   0.4934664666652679    0.0011434555053711    0.9937365651130676 Cs
   0.4998651444911957    0.4950068295001984    0.5116029381752014 Rb
   0.5001348257064819    0.4950068295001984    0.0116028785705566 Rb
