Ti6 O10
1.0
   6.6768679618835449   -1.7890613079071045    0.0000000000000000
  -1.7890613079071045    6.6768679618835449    0.0000000000000000
   0.0000000000000000    0.0000000000000000    5.1356453895568848
O Ti O
3 6 7
direct
   0.9444575309753418    0.5285965800285339    0.5489475727081299 O
   0.4714034199714661    0.4158609509468079    0.5489475727081299 O
   0.4158609509468079    0.9444575309753418    0.5489475727081299 O
   0.9366064667701721    0.5950196385383606    0.2371966242790222 Ti
   0.4049803614616394    0.3415868282318115    0.2371966242790222 Ti
   0.6584131717681885    0.0633935332298279    0.7628033757209778 Ti
   0.0633935332298279    0.4049803614616394    0.7628033757209778 Ti
   0.5950196385383606    0.6584131717681885    0.7628033757209778 Ti
   0.3415868282318115    0.9366064667701721    0.2371966242790222 Ti
   0.1106734275817871    0.7306154370307922    0.0105766169726849 O
   0.2693845629692078    0.3800579905509949    0.0105766169726849 O
   0.6199420094490051    0.8893265724182129    0.9894233942031860 O
   0.8893265724182129    0.2693845629692078    0.9894233942031860 O
   0.7306154370307922    0.6199420094490051    0.9894233942031860 O
   0.3800579905509949    0.1106734275817871    0.0105766169726849 O
   0.9053332209587097    0.1440180093050003    0.5605574846267700 O
