Al2 Sb4 O14
1.0
   6.2492227554321289    0.0000000000000000    0.0000000000000000
   0.0000000000000000    7.2686910629272461    0.0000000000000000
   0.0000000000000000    0.0000000000000000    7.2902193069458008
Al O Sb O
2 10 4 4
direct
   0.8120331168174744    0.7603878378868103    0.8186630010604858 Al
   0.3120331764221191    0.2603878974914551    0.3186630010604858 Al
   0.9298807978630066    0.9724731445312500    0.7911970615386963 O
   0.4298808574676514    0.4724731445312500    0.2911970615386963 O
   0.2846398055553436    0.2927842140197754    0.5727313756942749 O
   0.7153601646423340    0.7072157859802246    0.5727313756942749 O
   0.2846398055553436    0.7072157859802246    0.5727313756942749 O
   0.7153601646423340    0.2927842140197754    0.5727313756942749 O
   0.7846398353576660    0.7927842140197754    0.0727313756942749 O
   0.2153601944446564    0.2072157859802246    0.0727313756942749 O
   0.7846398353576660    0.2072157859802246    0.0727313756942749 O
   0.2153601944446564    0.7927842140197754    0.0727313756942749 O
   0.5464480519294739    0.7480168938636780    0.2969906330108643 Sb
   0.0464479923248291    0.2480168342590332    0.7969906330108643 Sb
   0.5090347528457642    0.4761950373649597    0.6592052578926086 Sb
   0.0090347528457642    0.9761950373649597    0.1592051982879639 Sb
   0.3052799403667450    0.4151855707168579    0.8432794809341431 O
   0.6947200298309326    0.5848144292831421    0.8432794809341431 O
   0.8052799701690674    0.9151855707168579    0.3432794809341431 O
   0.1947200596332550    0.0848144292831421    0.3432794809341431 O
