N2 Cl8
1.0
   7.8830814361572266   -2.1122651100158691    0.0000000000000000
  -2.1122651100158691    7.8830814361572266    0.0000000000000000
   0.0000000000000000    0.0000000000000000    5.8442392349243164
N Cl
2 8
direct
   0.6005954146385193    0.2645630240440369    0.1260749250650406 N
   0.3360323905944824    0.6005954146385193    0.6260749101638794 N
   0.9093503355979919    0.6156922578811646    0.0407466553151608 Cl
   0.3843077421188354    0.2936580777168274    0.0407466553151608 Cl
   0.7063419222831726    0.0906496644020081    0.0407466553151608 Cl
   0.0906496644020081    0.3843077421188354    0.5407466292381287 Cl
   0.6156922578811646    0.7063419222831726    0.5407466292381287 Cl
   0.2936580777168274    0.9093503355979919    0.5407466292381287 Cl
   0.7341307401657104    0.3863902091979980    0.5200313329696655 Cl
   0.3477405309677124    0.7341307401657104    0.0200313329696655 Cl
