Ga2 Sn2 I6
1.0
   8.2973823547363281   -2.2232770919799805    0.0000000000000000
  -2.2232770919799805    8.2973823547363281    0.0000000000000000
   0.0000000000000000    0.0000000000000000    7.5147657394409180
Ga Sn I
2 2 6
direct
   0.8230073451995850    0.3171216547489166    0.2386516630649567 Ga
   0.5058857202529907    0.8230073451995850    0.7386516332626343 Ga
   0.9165456295013428    0.7577655911445618    0.7065033912658691 Sn
   0.1587800383567810    0.9165456295013428    0.2065033912658691 Sn
   0.0255292914807796    0.3630539178848267    0.5886667966842651 I
   0.6369460821151733    0.6624753475189209    0.5886667966842651 I
   0.3375246226787567    0.9744707345962524    0.5886667966842651 I
   0.9744707345962524    0.6369460821151733    0.0886667966842651 I
   0.3630539178848267    0.3375246226787567    0.0886667966842651 I
   0.6624753475189209    0.0255292914807796    0.0886667966842651 I
