Ge8 S8
1.0
   7.3534183502197266    0.0000000000000000    0.0000000000000000
   0.0000000000000000    9.6859798431396484    0.0000000000000000
   0.0000000000000000    0.0000000000000000    6.0152730941772461
Ge S
8 8
direct
   0.1460499912500381    0.3073706030845642    0.2495372295379639 Ge
   0.8539500236511230    0.1926293969154358    0.7495372295379639 Ge
   0.1460499912500381    0.8073706030845642    0.2504627704620361 Ge
   0.8539500236511230    0.6926293969154358    0.7504627704620361 Ge
   0.6460499763488770    0.8073706030845642    0.2495372295379639 Ge
   0.3539500236511230    0.6926293969154358    0.7495372295379639 Ge
   0.6460499763488770    0.3073706030845642    0.2504627704620361 Ge
   0.3539500236511230    0.1926293969154358    0.7504627704620361 Ge
   0.1231161803007126    0.8257732391357422    0.8571413159370422 S
   0.8768838047981262    0.6742267608642578    0.3571412563323975 S
   0.6231161952018738    0.3257732391357422    0.8571413159370422 S
   0.3768838047981262    0.1742267608642578    0.3571412563323975 S
   0.3777902424335480    0.6755356788635254    0.3522768616676331 S
   0.6222097873687744    0.8244643211364746    0.8522768616676331 S
   0.8777902126312256    0.1755356788635254    0.3522768616676331 S
   0.1222097575664520    0.3244643211364746    0.8522768616676331 S
