Zr4 O8
1.0
   5.1685848236083984    0.0000000000000000    0.0000000000000000
   0.0000000000000000    5.3843336105346680    0.0000000000000000
   0.0000000000000000    0.0000000000000000    5.7388563156127930
Zr O
4 8
direct
   0.4998224675655365    0.0032325135543942    0.9288917779922485 Zr
   0.5001775026321411    0.9967674612998962    0.4314530491828918 Zr
   0.9998224973678589    0.5032325387001038    0.4288917779922485 Zr
   0.0001775324344635    0.4967674911022186    0.9314530491828918 Zr
   0.2503122985363007    0.2489141523838043    0.1808692663908005 O
   0.7496876716613770    0.7510858774185181    0.1808692663908005 O
   0.2503122985363007    0.7510858774185181    0.1808692663908005 O
   0.7496876716613770    0.2489141523838043    0.1808692663908005 O
   0.7503123283386230    0.7489141225814819    0.6808692812919617 O
   0.2496877014636993    0.2510858476161957    0.6808692812919617 O
   0.7503123283386230    0.2510858476161957    0.6808692812919617 O
   0.2496877014636993    0.7489141225814819    0.6808692812919617 O
