H2 O8
1.0
   5.3689908981323242    0.0000000000000000    0.0000000000000000
   0.0000000000000000    5.3689908981323242    0.0000000000000000
   0.0000000000000000    0.0000000000000000    5.5762333869934082
H O
2 8
direct
   0.0168817024677992    0.5071712732315063    0.9907336831092834 H
   0.4928287267684937    0.5168817043304443    0.4907336235046387 H
   0.0041589057072997    0.3647390902042389    0.9096493721008301 O
   0.4958410859107971    0.1352609097957611    0.9096493721008301 O
   0.6352609395980835    0.5041589140892029    0.4096493721008301 O
   0.8647390604019165    0.9958410859107971    0.4096493721008301 O
   0.9958410859107971    0.6352609395980835    0.0903506278991699 O
   0.5041589140892029    0.8647390604019165    0.0903506278991699 O
   0.3647390902042389    0.4958410859107971    0.5903506278991699 O
   0.1352609097957611    0.0041589057072997    0.5903506278991699 O
