H2 C1 Br1
1.0
   4.2325539588928223   -1.1341094970703125    0.0000000000000000
  -1.1341094970703125    4.2325539588928223    0.0000000000000000
   0.0000000000000000    0.0000000000000000    4.4792027473449707
Br H C
1 2 1
direct
   0.8737896084785461    0.0417223200201988    0.3070442974567413 Br
   0.9615543484687805    0.6157884597778320    0.8480364084243774 H
   0.3457658886909485    0.9615543484687805    0.8480364084243774 H
   0.0942833647131920    0.8953843116760254    0.9523281455039978 C
