B2 H2 O8
1.0
   6.5850849151611328    0.0000000000000000    0.0000000000000000
   0.0000000000000000    6.5850849151611328    0.0000000000000000
   0.0000000000000000    0.0000000000000000    3.8340494632720947
H O B
2 8 2
direct
   0.5123273730278015    0.5035083293914795    0.2345705181360245 H
   0.0123274326324463    0.9964916706085205    0.7654294967651367 H
   0.0023692357353866    0.7413615584373474    0.2482851296663284 O
   0.9976307749748230    0.2586384415626526    0.2482851296663284 O
   0.7413615584373474    0.9976307749748230    0.7517148852348328 O
   0.2586384415626526    0.0023692357353866    0.7517148852348328 O
   0.4976307749748230    0.2413616180419922    0.7517148852348328 O
   0.5023692250251770    0.7586384415626526    0.7517148852348328 O
   0.7586384415626526    0.4976307749748230    0.2482851296663284 O
   0.2413616180419922    0.5023692250251770    0.2482851296663284 O
   0.4991680681705475    0.0001235423260368    0.7398098707199097 B
   0.9991680383682251    0.4998764693737030    0.2601901292800903 B
