W4 O12
1.0
   6.1287918090820312    0.0000000000000000    0.0000000000000000
   0.0000000000000000    6.1287918090820312    0.0000000000000000
   0.0000000000000000    0.0000000000000000    8.0985279083251953
O W
12 4
direct
   0.7029885649681091    0.7407591938972473    0.9851756691932678 O
   0.2970114350318909    0.2592408061027527    0.9851756691932678 O
   0.7407591938972473    0.2970114350318909    0.0148243308067322 O
   0.2592408061027527    0.7029885649681091    0.0148243308067322 O
   0.2342388182878494    0.2812008559703827    0.3004024028778076 O
   0.7657611966133118    0.7187991142272949    0.3004024028778076 O
   0.2812008559703827    0.7657611966133118    0.6995975971221924 O
   0.7187991142272949    0.2342388182878494    0.6995975971221924 O
   0.2342388182878494    0.7187991142272949    0.3004024028778076 O
   0.7657611966133118    0.2812008559703827    0.3004024028778076 O
   0.2812008559703827    0.2342388182878494    0.6995975971221924 O
   0.7187991142272949    0.7657611966133118    0.6995975971221924 O
   0.5133247375488281    0.2108082175254822    0.8299843668937683 W
   0.4866752624511719    0.7891917824745178    0.8299843668937683 W
   0.2108082175254822    0.4866752624511719    0.1700156331062317 W
   0.7891917824745178    0.5133247375488281    0.1700156331062317 W
