P6 S10
1.0
   7.6699256896972656    0.0000000000000000    0.0000000000000000
   0.0000000000000000    7.6699256896972656    0.0000000000000000
   0.0000000000000000    0.0000000000000000    7.6699256896972656
P S
6 10
direct
   0.2171854972839355    0.1774507462978363    0.4329536855220795 P
   0.1774507462978363    0.7828145027160645    0.5670462846755981 P
   0.5670462846755981    0.1774507462978363    0.7828145027160645 P
   0.7171854972839355    0.6774507761001587    0.9329537153244019 P
   0.6774507761001587    0.2828145027160645    0.0670463144779205 P
   0.0670463144779205    0.6774507761001587    0.2828145027160645 P
   0.1953487992286682    0.2064069360494614    0.1575048714876175 S
   0.8046512007713318    0.7935930490493774    0.1575048714876175 S
   0.7935930490493774    0.1953487992286682    0.8424951434135437 S
   0.2064069360494614    0.8046512007713318    0.8424951434135437 S
   0.6953487992286682    0.7064069509506226    0.6575048565864563 S
   0.3046512007713318    0.2935930490493774    0.6575048565864563 S
   0.2935930490493774    0.6953487992286682    0.3424951434135437 S
   0.7064069509506226    0.3046512007713318    0.3424951434135437 S
   0.0354051701724529    0.9948220252990723    0.4958067834377289 S
   0.5354051589965820    0.4948220252990723    0.9958068132400513 S
