H8
1.0
   5.0243449211120605    0.0000000000000000    0.0000000000000000
   0.0000000000000000    5.0243449211120605    0.0000000000000000
   0.0000000000000000    0.0000000000000000    4.7945208549499512
H
8
direct
   0.1221056357026100    0.3162828087806702    0.9013406038284302 H
   0.8778943419456482    0.6837171912193298    0.9013406038284302 H
   0.3162828087806702    0.8778943419456482    0.0986593961715698 H
   0.6837171912193298    0.1221056357026100    0.0986593961715698 H
   0.6221056580543518    0.8162828087806702    0.4013406038284302 H
   0.3778943717479706    0.1837171912193298    0.4013406038284302 H
   0.8162828087806702    0.3778943717479706    0.5986593961715698 H
   0.1837171912193298    0.6221056580543518    0.5986593961715698 H
