P4 S5
1.0
   5.2750892639160156    0.0000000000000000    0.0000000000000000
   0.0000000000000000    6.5525503158569336    0.0000000000000000
   0.0000000000000000    0.0000000000000000    7.6947879791259766
S P S
2 4 3
direct
   0.0128762405365705    0.1618926376104355    0.8903095722198486 S
   0.9871237874031067    0.8381073474884033    0.1096904277801514 S
   0.9938453435897827    0.7730020284652710    0.7375525832176208 P
   0.0061546564102173    0.2269979715347290    0.2624474167823792 P
   0.8923076987266541    0.0984405353665352    0.0890048518776894 P
   0.3618306219577789    0.5814731121063232    0.7067611813545227 P
   0.3327278494834900    0.7921505570411682    0.7802555561065674 S
   0.6672721505165100    0.2078494429588318    0.2197444438934326 S
   0.6667025685310364    0.5263872146606445    0.5464899539947510 S
