Ba2 B8 O10
1.0
   7.0841631889343262    0.0000000000000000    0.0000000000000000
   0.0000000000000000    7.0841631889343262    0.0000000000000000
   0.0000000000000000    0.0000000000000000    5.6194057464599609
B O Ba
8 10 2
direct
   0.6532946228981018    0.5310313701629639    0.6046214699745178 B
   0.3467053771018982    0.4689686298370361    0.6046214699745178 B
   0.5310313701629639    0.3467053771018982    0.3953785300254822 B
   0.4689686298370361    0.6532946228981018    0.3953785300254822 B
   0.8467053771018982    0.0310313701629639    0.3953785300254822 B
   0.1532945632934570    0.9689686298370361    0.3953785300254822 B
   0.9689686298370361    0.8467053771018982    0.6046214699745178 B
   0.0310313701629639    0.1532945632934570    0.6046214699745178 B
   0.3532304465770721    0.4468625485897064    0.3500376641750336 O
   0.6467695236206055    0.5531374216079712    0.3500376641750336 O
   0.4468625485897064    0.6467695236206055    0.6499623060226440 O
   0.5531374216079712    0.3532304465770721    0.6499623060226440 O
   0.1467695534229279    0.9468625783920288    0.6499623060226440 O
   0.8532304763793945    0.0531374514102936    0.6499623060226440 O
   0.0531374514102936    0.1467695534229279    0.3500376641750336 O
   0.9468625783920288    0.8532304763793945    0.3500376641750336 O
   0.3837651014328003    0.8428052067756653    0.2284739464521408 O
   0.8837651014328003    0.6571947932243347    0.7715260386466980 O
   0.0157849770039320    0.4958542287349701    0.1187823340296745 Ba
   0.5157849788665771    0.0041457712650299    0.8812176585197449 Ba
