Cl8
1.0
   7.3452644348144531    0.0000000000000000    0.0000000000000000
   0.0000000000000000    5.1698617935180664    0.0000000000000000
   0.0000000000000000    0.0000000000000000    6.1718645095825195
Cl
8
direct
   0.7177500128746033    0.1308965682983398    0.1973154991865158 Cl
   0.2177500724792480    0.6308965682983398    0.6973155140876770 Cl
   0.7177500128746033    0.1308965682983398    0.6973155140876770 Cl
   0.2177500724792480    0.6308965682983398    0.1973154991865158 Cl
   0.7177500128746033    0.6308965682983398    0.1973154991865158 Cl
   0.2177500724792480    0.1308965682983398    0.6973155140876770 Cl
   0.7177500128746033    0.6308965682983398    0.6973155140876770 Cl
   0.2177500724792480    0.1308965682983398    0.1973154991865158 Cl
