Se2 I2 O4
1.0
   5.4771776199340820    0.0000000000000000   -0.2111811488866806
   0.0000000000000000    5.1018605232238770    0.0000000000000000
  -0.2111811488866806    0.0000000000000000    6.8832168579101562
I Se O
2 2 4
direct
   0.7584086656570435    0.1028044223785400    0.4481069445610046 I
   0.2415913343429565    0.6028044223785400    0.5518930554389954 I
   0.2672139704227448    0.4207982122898102    0.0269462931901217 Se
   0.7327860593795776    0.9207981824874878    0.9730536937713623 Se
   0.5550966262817383    0.6289310455322266    0.0841292515397072 O
   0.4449033737182617    0.1289310455322266    0.9158707261085510 O
   0.0411555841565132    0.7405931949615479    0.0561930052936077 O
   0.9588444232940674    0.2405931949615479    0.9438070058822632 O
