Tm4 Co4 O8
1.0
   6.0090942382812500    0.0000000000000000    0.0000000000000000
   0.0000000000000000    7.2200889587402344    0.0000000000000000
   0.0000000000000000    0.0000000000000000    5.3031206130981445
Co Tm O
4 4 8
direct
   0.4967376887798309    0.9311491250991821    0.4073614478111267 Co
   0.5032622814178467    0.0688508749008179    0.9073614478111267 Co
   0.9967377185821533    0.4311491250991821    0.4073614478111267 Co
   0.0032623112201691    0.5688508749008179    0.9073614478111267 Co
   0.9965016245841980    0.8456944823265076    0.3863420188426971 Tm
   0.0034983754158020    0.1543055176734924    0.8863420486450195 Tm
   0.4965016841888428    0.3456945419311523    0.3863420188426971 Tm
   0.5034983754158020    0.6543055176734924    0.8863420486450195 Tm
   0.2349279373884201    0.5781645774841309    0.1817534565925598 O
   0.7650720477104187    0.4218354225158691    0.6817534565925598 O
   0.2349279373884201    0.4218354225158691    0.6817534565925598 O
   0.7650720477104187    0.5781645774841309    0.1817534565925598 O
   0.7349279522895813    0.0781645774841309    0.1817534565925598 O
   0.2650720477104187    0.9218354225158691    0.6817534565925598 O
   0.7349279522895813    0.9218354225158691    0.6817534565925598 O
   0.2650720477104187    0.0781645774841309    0.1817534565925598 O
