Tl2 B2 H4 C2
1.0
   4.0997552871704102    0.0000000000000000   -0.2778739929199219
   0.0000000000000000    5.9450588226318359    0.0000000000000000
  -0.2778740227222443    0.0000000000000000    6.8082599639892578
H Tl B C
4 2 2 2
direct
   0.5971392393112183    0.9346229434013367    0.3131101429462433 H
   0.4028607606887817    0.4346230030059814    0.6868898868560791 H
   0.4028607606887817    0.0653770565986633    0.6868898868560791 H
   0.5971392393112183    0.5653770565986633    0.3131101429462433 H
   0.9256777167320251    0.7600936293601990    0.7553008794784546 Tl
   0.0743222832679749    0.2399063706398010    0.2446991205215454 Tl
   0.4577775597572327    0.2403247654438019    0.7695323824882507 B
   0.5422224402427673    0.7403247356414795    0.2304676175117493 B
   0.5880544781684875    0.4079598784446716    0.9539494514465332 C
   0.4119455218315125    0.5920401215553284    0.0460505485534668 C
