Li2 Cu4 S2 Cl8
1.0
   5.6051054000854492    0.0000000000000000    0.0000000000000000
   0.0000000000000000    5.6051054000854492    0.0000000000000000
   0.0000000000000000    0.0000000000000000   11.8686008453369141
Cl S Li Cu
8 2 2 4
direct
   0.2622911930084229    0.7405102849006653    0.8641145229339600 Cl
   0.7377088069915771    0.2594897150993347    0.8641145229339600 Cl
   0.7405102849006653    0.7377088069915771    0.1358854770660400 Cl
   0.2594897150993347    0.2622911930084229    0.1358854770660400 Cl
   0.2377088069915771    0.2405102252960205    0.6358854770660400 Cl
   0.7622911930084229    0.7594897150993347    0.6358854770660400 Cl
   0.7594897150993347    0.2377088069915771    0.3641145229339600 Cl
   0.2405102252960205    0.7622911930084229    0.3641145229339600 Cl
   0.7139897346496582    0.0008337447070517    0.0001897825859487 S
   0.2139897346496582    0.4991662502288818    0.4998102188110352 S
   0.4959090352058411    0.5110204815864563    0.0061663747765124 Li
   0.9959090352058411    0.9889795184135437    0.4938336312770844 Li
   0.8731834292411804    0.8730536103248596    0.8360369801521301 Cu
   0.8730536103248596    0.1268165707588196    0.1639630198478699 Cu
   0.3731834888458252    0.6269463896751404    0.6639630198478699 Cu
   0.3730535507202148    0.3731834888458252    0.3360369205474854 Cu
