O8
1.0
   5.5829648971557617    0.0000000000000000    0.0000000000000000
   0.0000000000000000    5.5829648971557617    0.0000000000000000
   0.0000000000000000    0.0000000000000000    5.5829648971557617
O
8
direct
   0.9506554007530212    0.5871793031692505    0.5821180343627930 O
   0.5493445992469788    0.4128206968307495    0.0821180343627930 O
   0.0493445992469788    0.0871793031692505    0.9178819656372070 O
   0.4506554603576660    0.9128206968307495    0.4178819656372070 O
   0.0493445992469788    0.4128206968307495    0.4178819656372070 O
   0.4506554603576660    0.5871793031692505    0.9178819656372070 O
   0.9506554007530212    0.9128206968307495    0.0821180343627930 O
   0.5493445992469788    0.0871793031692505    0.5821180343627930 O
