Si1 P2 H10 N3
1.0
   6.7765227382203106   -1.7829476171734462   -0.0441252157905491
  -1.8255420484969080    6.6147156861985827   -0.1380768849907103
  -0.0742041783838218   -0.1407244245994912    5.6990389484671686
Si H N H P
1 4 3 6 2
direct
   0.2754182470371980    0.7229171683856486    0.7477977119214874 Si
   0.8643246849538119    0.3554170012710868    0.5773320664515393 H
   0.4898039276278860    0.2186439919284608    0.3677384834309660 H
   0.1432476824225548    0.4685370718473982    0.3179280759986648 H
   0.4974340458702474    0.8040951472783930    0.6489373058394674 H
   0.1594713620085383    0.8735756965142037    0.6700900969248759 N
   0.2220599113311625    0.3149901386096198    0.7217009460810565 N
   0.9410852413801049    1.0629744741303235    0.4174652879268842 N
   0.4752819146634851    0.2043736620951737    0.2363073830012657 H
   0.7899344359694291    0.3448534724595448    0.0006388552747691 H
   0.6963707674819927    0.6688528702759925    1.0425901698593185 H
  -0.1583427480958878    0.2751752531954396    0.0280081559428380 H
   0.2537664904988425    0.6792237204863990    0.0020283117391608 H
   0.6030313730171601    0.5808561029496330    0.9638045989755357 H
   0.1089606886588051    0.0559446881051102    0.6066087104948530 P
   0.0562102548895896    0.3445716387018779    0.5223258017496872 P
