O8
1.0
   4.6723046302795410    0.0000000000000000    0.0000000000000000
   0.0000000000000000    4.6723046302795410    0.0000000000000000
   0.0000000000000000    0.0000000000000000    4.6723046302795410
O
8
direct
   0.2094555348157883    0.3232985436916351    0.9280573129653931 O
   0.7094555497169495    0.3232985436916351    0.4280573129653931 O
   0.2094555348157883    0.8232985734939575    0.4280573129653931 O
   0.7094555497169495    0.8232985734939575    0.9280573129653931 O
   0.7094555497169495    0.8232985734939575    0.4280573129653931 O
   0.2094555348157883    0.8232985734939575    0.9280573129653931 O
   0.7094555497169495    0.3232985436916351    0.9280573129653931 O
   0.2094555348157883    0.3232985436916351    0.4280573129653931 O
