Au4 Br8
1.0
   5.5792613029479980    0.0000000000000000    0.0000000000000000
   0.0000000000000000    5.2200169563293457    0.0000000000000000
   0.0000000000000000    0.0000000000000000    6.0125722885131836
Au Br
4 8
direct
   0.8684171438217163    0.9247849583625793    0.2338668107986450 Au
   0.8684171438217163    0.4247848987579346    0.7338668107986450 Au
   0.3684171438217163    0.9247849583625793    0.7338668107986450 Au
   0.3684171438217163    0.4247848987579346    0.2338668107986450 Au
   0.7239485383033752    0.1166486293077469    0.9302294850349426 Br
   0.7239485383033752    0.6166486144065857    0.4302294254302979 Br
   0.2239484786987305    0.1166486293077469    0.4302294254302979 Br
   0.2239484786987305    0.6166486144065857    0.9302294850349426 Br
   0.7239485383033752    0.1166486293077469    0.9302294850349426 Br
   0.7239485383033752    0.1166486293077469    0.9302294850349426 Br
   0.7239485383033752    0.1166486293077469    0.9302294850349426 Br
   0.7239485383033752    0.1166486293077469    0.9302294850349426 Br
