Th6 O6
1.0
   4.9431881904602051   -1.3245232105255127    0.0000000000000000
  -1.3245232105255127    4.9431881904602051    0.0000000000000000
   0.0000000000000000    0.0000000000000000   10.4199886322021484
Th O
6 6
direct
   0.8397822976112366    0.1693761944770813    0.0839383378624916 Th
   0.8306238055229187    0.6704061031341553    0.4172716736793518 Th
   0.3295938968658447    0.1602177023887634    0.7506050467491150 Th
   0.8306238055229187    0.1602177023887634    0.5827283263206482 Th
   0.3295938968658447    0.1693761944770813    0.2493950128555298 Th
   0.8397822976112366    0.6704061031341553    0.9160616397857666 Th
   0.8326410055160522    0.6572749018669128    0.1673737466335297 O
   0.3427250981330872    0.1753661036491394    0.5007070899009705 O
   0.8246338963508606    0.1673589944839478    0.8340404033660889 O
   0.8228807449340820    0.6436959505081177    0.6675261855125427 O
   0.3563040494918823    0.1791847944259644    0.0008594989776611 O
   0.8208152055740356    0.1771192550659180    0.3341928720474243 O
