W1 F15
1.0
   8.6678581237792969   -2.3225455284118652    0.0000000000000000
  -2.3225455284118652    8.6678581237792969    0.0000000000000000
   0.0000000000000000    0.0000000000000000    3.8107757568359375
F W
15 1
direct
   0.7322117090225220    0.5582479238510132    0.1709768921136856 F
   0.4417520761489868    0.1739637851715088    0.1709768921136856 F
   0.8260362148284912    0.2677882909774780    0.1709768921136856 F
   0.2677882909774780    0.4417520761489868    0.1709768921136856 F
   0.5582479238510132    0.8260362148284912    0.1709768921136856 F
   0.1739637851715088    0.7322117090225220    0.1709768921136856 F
   0.5880883932113647    0.6241644024848938    0.6710757017135620 F
   0.3758355975151062    0.9639239907264709    0.6710757017135620 F
   0.0360760092735291    0.4119116067886353    0.6710757017135620 F
   0.4119116067886353    0.3758355975151062    0.6710757017135620 F
   0.6241644024848938    0.0360760092735291    0.6710757017135620 F
   0.9639239907264709    0.5880883932113647    0.6710757017135620 F
   0.1640224903821945    0.2829925119876862    0.6613489985466003 F
   0.7170075178146362    0.8810299634933472    0.6613489985466003 F
   0.8810299634933472    0.1640224903821945    0.6613489985466003 F
   0.9611325860023499    0.5064017176628113    0.1053760498762131 W
