Ca6 P2 Se8
1.0
   9.9679012298583984   -2.6708912849426270    0.0000000000000000
  -2.6708912849426270    9.9679012298583984    0.0000000000000000
   0.0000000000000000    0.0000000000000000    4.6962032318115234
Ca Se P Se
6 6 2 2
direct
   0.6261579990386963    0.9788939952850342    0.7530373930931091 Ca
   0.0211060047149658    0.6472640037536621    0.7530373930931091 Ca
   0.3527359962463379    0.3738420009613037    0.7530373930931091 Ca
   0.3738420009613037    0.0211060047149658    0.2469626069068909 Ca
   0.9788939952850342    0.3527359962463379    0.2469626069068909 Ca
   0.6472640037536621    0.6261579990386963    0.2469626069068909 Ca
   0.0442212969064713    0.3184518814086914    0.7497606277465820 Se
   0.6815481185913086    0.7257694005966187    0.7497606277465820 Se
   0.2742305994033813    0.9557787179946899    0.7497606277465820 Se
   0.9557787179946899    0.6815481185913086    0.2502393722534180 Se
   0.3184518814086914    0.2742305994033813    0.2502393722534180 Se
   0.7257694005966187    0.0442212969064713    0.2502393722534180 Se
   0.0771492347121239    0.0809653326869011    0.7600753307342529 P
   0.9228507876396179    0.9190346598625183    0.2399246692657471 P
   0.6744048595428467    0.3330151140689850    0.7541677355766296 Se
   0.3255951404571533    0.6669849157333374    0.2458322644233704 Se
