Cs2 Rb4 Cd2 Ga2
1.0
   7.5445532798767090    0.0000000000000000    0.0000000000000000
   0.0000000000000000    7.1688141822814941    0.0000000000000000
   0.0000000000000000    0.0000000000000000    7.7538785934448242
Cs Rb Ga Cd
2 4 2 2
direct
   0.5853965282440186    0.8608018755912781    0.7794739007949829 Cs
   0.9146034717559814    0.1391981244087219    0.2794739007949829 Cs
   0.2207687795162201    0.6151325106620789    0.1689363569021225 Rb
   0.2792312204837799    0.3848674893379211    0.6689363718032837 Rb
   0.7207688093185425    0.6151325106620789    0.3310636281967163 Rb
   0.7792311906814575    0.3848674893379211    0.8310636281967163 Rb
   0.0752115473151207    0.9566575884819031    0.8876958489418030 Ga
   0.4247884452342987    0.0433424115180969    0.3876957893371582 Ga
   0.3773329257965088    0.1454407721757889    0.0697364956140518 Cd
   0.1226670742034912    0.8545592427253723    0.5697364807128906 Cd
