Y2 Ga2 O6
1.0
   5.2118158340454102    0.0000000000000000    0.0000000000000000
   0.0000000000000000    5.2118158340454102    0.0000000000000000
   0.0000000000000000    0.0000000000000000    5.2660255432128906
O Y Ga O
2 2 2 4
direct
   0.2629609405994415    0.6026898622512817    0.8934563398361206 O
   0.7370390892028809    0.3973101377487183    0.1065436601638794 O
   0.7514857053756714    0.5569879412651062    0.7166375517845154 Y
   0.4430120587348938    0.7514857053756714    0.2166376113891602 Y
   0.9133504629135132    0.0811105668544769    0.2374640405178070 Ga
   0.0866495370864868    0.9188894033432007    0.7625359296798706 Ga
   0.1962375044822693    0.0709334015846252    0.0285546891391277 O
   0.8037624955177307    0.9290665984153748    0.9714453220367432 O
   0.9290665984153748    0.1962375044822693    0.5285546779632568 O
   0.0709334015846252    0.8037624955177307    0.4714453220367432 O
