Hf2 Br12
1.0
  12.1743192672729492   -3.2620987892150879    0.0000000000000000
  -3.2620987892150879   12.1743192672729492    0.0000000000000000
   0.0000000000000000    0.0000000000000000    5.4285087585449219
Br Hf
12 2
direct
   0.8954908847808838    0.5893854498863220    0.1034833043813705 Br
   0.4106145501136780    0.3061054348945618    0.1034833043813705 Br
   0.6938945651054382    0.1045091152191162    0.1034833043813705 Br
   0.1045091152191162    0.4106145501136780    0.6034833192825317 Br
   0.5893854498863220    0.6938945651054382    0.6034833192825317 Br
   0.3061054348945618    0.8954908847808838    0.6034833192825317 Br
   0.4106145501136780    0.1045091152191162    0.1034833043813705 Br
   0.6938945651054382    0.5893854498863220    0.1034833043813705 Br
   0.8954908847808838    0.3061054348945618    0.1034833043813705 Br
   0.5893854498863220    0.8954908847808838    0.6034833192825317 Br
   0.3061054348945618    0.4106145501136780    0.6034833192825317 Br
   0.1045091152191162    0.6938945651054382    0.6034833192825317 Br
   0.3792380690574646    0.8393269181251526    0.5314422249794006 Hf
   0.5399111509323120    0.3792380690574646    0.0314421653747559 Hf
