Cl8
1.0
   6.4341335296630859    0.0000000000000000    0.0000000000000000
   0.0000000000000000    6.4341335296630859    0.0000000000000000
   0.0000000000000000    0.0000000000000000    6.4341335296630859
Cl
8
direct
   0.7525755167007446    0.7238709926605225    0.7041500806808472 Cl
   0.7525755167007446    0.7238709926605225    0.2958499193191528 Cl
   0.7238709926605225    0.2474244832992554    0.2958499193191528 Cl
   0.7238709926605225    0.2474244832992554    0.7041500806808472 Cl
   0.2761290073394775    0.7525755167007446    0.2958499193191528 Cl
   0.2761290073394775    0.7525755167007446    0.7041500806808472 Cl
   0.2474244832992554    0.2761290073394775    0.7041500806808472 Cl
   0.2474244832992554    0.2761290073394775    0.2958499193191528 Cl
