Ca2 Mo4 O14
1.0
   6.0961627960205078    0.0000000000000000   -0.4572307467460632
   0.0000000000000000    5.9214015007019043    0.0000000000000000
  -0.4572307765483856    0.0000000000000000    9.1010093688964844
O Mo O Ca
2 4 12 2
direct
   0.0263960156589746    0.6387091875076294    0.7521597743034363 O
   0.9736039638519287    0.3612908124923706    0.2478402256965637 O
   0.7280277609825134    0.6303220987319946    0.8634556531906128 Mo
   0.2719722390174866    0.6303220987319946    0.6365443468093872 Mo
   0.2719722390174866    0.3696779012680054    0.1365443468093872 Mo
   0.7280277609825134    0.3696779012680054    0.3634556531906128 Mo
   0.2693543732166290    0.3265666365623474    0.6450001597404480 O
   0.7306456565856934    0.3265666365623474    0.8549998402595520 O
   0.7306456565856934    0.6734333634376526    0.3549998402595520 O
   0.2693543732166290    0.6734333634376526    0.1450002193450928 O
   0.4439201951026917    0.5068442821502686    0.4676041603088379 O
   0.5560798048973083    0.5068442821502686    0.0323958396911621 O
   0.5006173253059387    0.8132147789001465    0.7572967410087585 O
   0.4993826746940613    0.1867852210998535    0.2427032589912415 O
   0.1920487284660339    0.8204579949378967    0.5123593807220459 O
   0.8079512715339661    0.8204579949378967    0.9876406192779541 O
   0.8079512715339661    0.1795420050621033    0.4876406192779541 O
   0.1920487284660339    0.1795420050621033    0.0123593807220459 O
   0.4984152019023895    0.9772859811782837    0.0111891459673643 Ca
   0.5015847682952881    0.9772859811782837    0.4888108670711517 Ca
