Si4 P2 H2 O12
1.0
   6.9813790321350098    0.0000000000000000    0.0000000000000000
   0.0000000000000000    9.0230131149291992    0.0000000000000000
   0.0000000000000000    0.0000000000000000    5.0503468513488770
O Si O H P
8 4 4 2 2
direct
   0.3452461361885071    0.6818133592605591    0.7012777924537659 O
   0.6547538638114929    0.3181866407394409    0.7012777924537659 O
   0.3452461361885071    0.3181866407394409    0.7012777924537659 O
   0.6547538638114929    0.6818133592605591    0.7012777924537659 O
   0.3452461361885071    0.1818133592605591    0.2012777328491211 O
   0.6547538638114929    0.8181866407394409    0.2012777328491211 O
   0.3452461361885071    0.8181866407394409    0.2012777328491211 O
   0.6547538638114929    0.1818133592605591    0.2012777328491211 O
   0.4062954783439636    0.7047878503799438    0.9977176189422607 Si
   0.5937045216560364    0.2952121496200562    0.9977176189422607 Si
   0.4062954783439636    0.2047878503799438    0.4977176189422607 Si
   0.5937045216560364    0.7952121496200562    0.4977176189422607 Si
   0.2707690298557281    0.5551639795303345    0.0903253257274628 O
   0.7292309999465942    0.4448360204696655    0.0903253257274628 O
   0.2707690298557281    0.0551639795303345    0.5903253555297852 O
   0.7292309999465942    0.9448360204696655    0.5903253555297852 O
   0.1657257974147797    0.1939474344253540    0.0707636922597885 H
   0.1657257974147797    0.6939474344253540    0.5707637071609497 H
   0.7301445603370667    0.0138402925804257    0.3344715237617493 P
   0.7301445603370667    0.5138403177261353    0.8344715237617493 P
