V3 Ge1 S2 O12
1.0
   8.0245361328125000   -2.1501679420471191    0.0000000000000000
  -2.1501679420471191    8.0245361328125000    0.0000000000000000
   0.0000000000000000    0.0000000000000000    4.7112483978271484
O S Ge V
12 2 1 3
direct
   0.8694978952407837    0.3063932061195374    0.2542234957218170 O
   0.6936067938804626    0.5631046891212463    0.2542234957218170 O
   0.4368953108787537    0.1305021047592163    0.2542234957218170 O
   0.1305021047592163    0.6936067938804626    0.2542234957218170 O
   0.3063932061195374    0.4368953108787537    0.2542234957218170 O
   0.5631046891212463    0.8694978952407837    0.2542234957218170 O
   0.3063932061195374    0.8694978952407837    0.7457765340805054 O
   0.5631046891212463    0.6936067938804626    0.7457765340805054 O
   0.1305021047592163    0.4368953108787537    0.7457765340805054 O
   0.6936067938804626    0.1305021047592163    0.7457765340805054 O
   0.4368953108787537    0.3063932061195374    0.7457765340805054 O
   0.8694978952407837    0.5631046891212463    0.7457765340805054 O
   0.6509075760841370    0.1722530275583267    0.1352232843637466 S
   0.4786545634269714    0.6509075760841370    0.1352232843637466 S
   0.9847133755683899    0.8513779640197754    0.3859702944755554 Ge
   0.4906558692455292    0.0844930633902550    0.6251679062843323 V
   0.9155069589614868    0.4061627984046936    0.6251679062843323 V
   0.4061627984046936    0.4906558692455292    0.6251679062843323 V
