Li2 O10
1.0
   3.4842526912689209    0.0000000000000000    0.0000000000000000
   0.0000000000000000    3.4842526912689209    0.0000000000000000
   0.0000000000000000    0.0000000000000000   11.6099319458007812
O Li
10 2
direct
   0.7507532238960266    0.2470696717500687    0.9485124349594116 O
   0.7529303431510925    0.7507532238960266    0.4485124349594116 O
   0.2490711659193039    0.7518360018730164    0.6751360893249512 O
   0.7509288191795349    0.2481639981269836    0.6751360893249512 O
   0.2481639981269836    0.2490711659193039    0.1751360893249512 O
   0.7518360018730164    0.7509288191795349    0.1751360893249512 O
   0.7509288191795349    0.7518360018730164    0.3248639106750488 O
   0.2490711659193039    0.2481639981269836    0.3248639106750488 O
   0.7518360018730164    0.2490711659193039    0.8248639106750488 O
   0.2481639981269836    0.7509288191795349    0.8248639106750488 O
   0.2550192773342133    0.7375809550285339    0.0308643896132708 Li
   0.2624190449714661    0.2550192773342133    0.5308644175529480 Li
