N3 O9
1.0
   5.7352113723754883   -1.5367450714111328    0.0000000000000000
  -1.5367450714111328    5.7352113723754883    0.0000000000000000
   0.0000000000000000    0.0000000000000000    6.4694766998291016
O N
9 3
direct
   0.3881078660488129    0.1045757159590721    0.0356412269175053 O
   0.8954243063926697    0.2835321426391602    0.3689745664596558 O
   0.7164678573608398    0.6118921041488647    0.7023079395294189 O
   0.6118921041488647    0.8954243063926697    0.0356412269175053 O
   0.1045757159590721    0.7164678573608398    0.3689745664596558 O
   0.2835321426391602    0.3881078660488129    0.7023079395294189 O
   0.0338339582085609    0.5608329772949219    0.0599460750818253 O
   0.4391670227050781    0.4730010032653809    0.3932794332504272 O
   0.4730010032653809    0.0338339582085609    0.7266127467155457 O
   0.5198380947113037    0.4934177398681641    0.6251816749572754 N
   0.5065822601318359    0.0264203548431396    0.9585150480270386 N
   0.0264203548431396    0.5198380947113037    0.2918484210968018 N
