H4 S2 N2 O10
1.0
   5.1824245452880859    0.0000000000000000   -0.6620119810104370
   0.0000000000000000    5.9892988204956055    0.0000000000000000
  -0.6620120406150818    0.0000000000000000    7.6256513595581055
O H O S H N
6 2 4 2 2 2
direct
   0.5289353728294373    0.7085750102996826    0.4421175420284271 O
   0.4710646271705627    0.2085750102996826    0.5578824281692505 O
   0.8866741061210632    0.5206806063652039    0.4468259215354919 O
   0.1133258938789368    0.0206806659698486    0.5531740784645081 O
   0.5322358012199402    0.1276854425668716    0.2084138244390488 O
   0.4677641987800598    0.6276854276657104    0.7915861606597900 O
   0.1280340403318405    0.8668386340141296    0.1235592141747475 H
   0.8719659447669983    0.3668386936187744    0.8764407634735107 H
   0.4202038943767548    0.1094859912991524    0.9276998043060303 O
   0.5797960758209229    0.6094859838485718    0.0723001956939697 O
   0.8490220904350281    0.7760069966316223    0.8983660340309143 O
   0.1509779095649719    0.2760069370269775    0.1016339659690857 O
   0.6074619889259338    0.7059779167175293    0.9197888970375061 S
   0.3925380110740662    0.2059779167175293    0.0802111029624939 S
   0.9920501708984375    0.0834688991308212    0.6039556860923767 H
   0.0079498291015625    0.5834689140319824    0.3960443139076233 H
   0.6968611478805542    0.6206250190734863    0.4570146203041077 N
   0.3031388521194458    0.1206250190734863    0.5429853796958923 N
