O12 F3
1.0
   6.5110039710998535   -1.7446182966232300    0.0000000000000000
  -1.7446182966232300    6.5110039710998535    0.0000000000000000
   0.0000000000000000    0.0000000000000000    5.7844233512878418
O F
12 3
direct
   0.3102928400039673    0.0508858747780323    0.5691646337509155 O
   0.9491141438484192    0.2594069540500641    0.9024980068206787 O
   0.7405930757522583    0.6897071599960327    0.2358312606811523 O
   0.6897071599960327    0.9491141438484192    0.5691646337509155 O
   0.0508858747780323    0.7405930757522583    0.9024980068206787 O
   0.2594069540500641    0.3102928400039673    0.2358312606811523 O
   0.0508858747780323    0.3102928400039673    0.7641687393188477 O
   0.2594069540500641    0.9491141438484192    0.4308353662490845 O
   0.6897071599960327    0.7405930757522583    0.0975020527839661 O
   0.9491141438484192    0.6897071599960327    0.7641687393188477 O
   0.7405930757522583    0.0508858747780323    0.4308353662490845 O
   0.3102928400039673    0.2594069540500641    0.0975020527839661 O
   0.6486683487892151    0.0947785228490829    0.0262308213859797 F
   0.9052214622497559    0.5538898110389709    0.3595641553401947 F
   0.5538898110389709    0.6486683487892151    0.6928974986076355 F
