Ti8 O8
1.0
   5.9169893264770508    0.0000000000000000    0.0000000000000000
   0.0000000000000000    5.9169893264770508    0.0000000000000000
   0.0000000000000000    0.0000000000000000    5.9169893264770508
O Ti O
4 8 4
direct
   0.7894685864448547    0.3797125518321991    0.5684541463851929 O
   0.7105314135551453    0.6202874183654785    0.0684541463851929 O
   0.2105314135551453    0.8797125816345215    0.9315458536148071 O
   0.2894685268402100    0.1202874481678009    0.4315458536148071 O
   0.3639419972896576    0.8575163483619690    0.6199932694435120 Ti
   0.1360580027103424    0.1424836516380310    0.1199932098388672 Ti
   0.6360579729080200    0.3575162887573242    0.8800067305564880 Ti
   0.8639420270919800    0.6424836516380310    0.3800067305564880 Ti
   0.6360579729080200    0.1424836516380310    0.3800067305564880 Ti
   0.8639420270919800    0.8575163483619690    0.8800067305564880 Ti
   0.3639419972896576    0.6424836516380310    0.1199932098388672 Ti
   0.1360580027103424    0.3575162887573242    0.6199932694435120 Ti
   0.2168823927640915    0.6214306354522705    0.4331324696540833 O
   0.2831175923347473    0.3785693645477295    0.9331324696540833 O
   0.7831175923347473    0.1214306354522705    0.0668675303459167 O
   0.7168824076652527    0.8785693645477295    0.5668675303459167 O
