Tc4 N4
1.0
   4.1006283760070801    0.0000000000000000    0.0000000000000000
   0.0000000000000000    4.1006283760070801    0.0000000000000000
   0.0000000000000000    0.0000000000000000    5.2816276550292969
N Tc N
2 4 2
direct
   0.2468638420104980    0.9950857758522034    0.7474815845489502 N
   0.7531361579895020    0.0049142241477966    0.2525184154510498 N
   0.4999416470527649    0.4976581037044525    0.0012858463451266 Tc
   0.0000583529472351    0.0023418962955475    0.9987141489982605 Tc
   0.9976581335067749    0.5000583529472351    0.4987141489982605 Tc
   0.5023418664932251    0.9999416470527649    0.5012858510017395 Tc
   0.7468638420104980    0.4950857162475586    0.7474815845489502 N
   0.2531361579895020    0.5049142241477966    0.2525184154510498 N
