C4 O12
1.0
   5.3324785232543945    0.0000000000000000    0.0000000000000000
   0.0000000000000000    7.8206415176391602    0.0000000000000000
   0.0000000000000000    0.0000000000000000    5.9968972206115723
C O
4 12
direct
   0.7526169419288635    0.2514705657958984    0.5290722846984863 C
   0.2473830580711365    0.7485294342041016    0.5290722846984863 C
   0.7526169419288635    0.7514705657958984    0.0290722846984863 C
   0.2473830580711365    0.2485294342041016    0.0290722846984863 C
   0.6795778274536133    0.3821083903312683    0.4322492778301239 O
   0.3204221725463867    0.6178916096687317    0.4322492778301239 O
   0.6795778274536133    0.1178916096687317    0.4322492778301239 O
   0.3204221725463867    0.8821083903312683    0.4322492778301239 O
   0.6795778274536133    0.8821083903312683    0.9322493076324463 O
   0.3204221725463867    0.1178916096687317    0.9322493076324463 O
   0.6795778274536133    0.6178916096687317    0.9322493076324463 O
   0.3204221725463867    0.3821083903312683    0.9322493076324463 O
   0.1362768411636353    0.2482334077358246    0.1924102306365967 O
   0.8637231588363647    0.7482334375381470    0.1924102306365967 O
   0.1362768411636353    0.7482334375381470    0.6924102306365967 O
   0.8637231588363647    0.2482334077358246    0.6924102306365967 O
