Ba2 S4
1.0
   4.8474030494689941    0.0000000000000000    0.0000000000000000
   0.0000000000000000    4.8474030494689941    0.0000000000000000
   0.0000000000000000    0.0000000000000000    9.9628038406372070
S Ba
4 2
direct
   0.7665701508522034    0.5121968388557434    0.7180804610252380 S
   0.4878031611442566    0.7665701508522034    0.7180804610252380 S
   0.7665701508522034    0.5121968388557434    0.2180805206298828 S
   0.4878031611442566    0.7665701508522034    0.2180805206298828 S
   0.1143209710717201    0.0143508175387979    0.0431137941777706 Ba
   0.1143209710717201    0.0143508175387979    0.5431137681007385 Ba
