C12
1.0
   4.3888683319091797   -1.1759936809539795    0.0000000000000000
  -1.1759936809539795    4.3888683319091797    0.0000000000000000
   0.0000000000000000    0.0000000000000000   15.3814067840576172
C
12
direct
   0.0643274039030075    0.9074225425720215    0.6392610073089600 C
   0.0643274039030075    0.9074225425720215    0.1392610073089600 C
   0.7309941053390503    0.2407559156417847    0.9725943803787231 C
   0.7309941053390503    0.2407559156417847    0.4725942611694336 C
   0.3976607322692871    0.5740892887115479    0.3059277534484863 C
   0.3976607322692871    0.5740892887115479    0.8059276938438416 C
   0.9356725811958313    0.0925774574279785    0.2086411118507385 C
   0.9356725811958313    0.0925774574279785    0.7086410522460938 C
   0.6023392677307129    0.4259108304977417    0.5419756770133972 C
   0.6023392677307129    0.4259108304977417    0.0419756770133972 C
   0.2690059542655945    0.7592441439628601    0.8753118515014648 C
   0.2690059542655945    0.7592441439628601    0.3753085136413574 C
