Ti4 Se16
1.0
   7.0106215476989746    0.0000000000000000    0.0000000000000000
   0.0000000000000000    7.0106215476989746    0.0000000000000000
   0.0000000000000000    0.0000000000000000   10.6945247650146484
Se Ti
16 4
direct
   0.9895917773246765    0.2440275996923447    0.2549687325954437 Se
   0.0104082226753235    0.7559723854064941    0.7549687623977661 Se
   0.7559723854064941    0.9895917773246765    0.0049687623977661 Se
   0.2440275996923447    0.0104082226753235    0.5049687623977661 Se
   0.0104082226753235    0.2440275996923447    0.7450312376022339 Se
   0.9895917773246765    0.7559723854064941    0.2450312674045563 Se
   0.2440275996923447    0.9895917773246765    0.9950312376022339 Se
   0.7559723854064941    0.0104082226753235    0.4950312674045563 Se
   0.5002750158309937    0.7567349076271057    0.7467709183692932 Se
   0.4997249841690063    0.2432650923728943    0.2467708587646484 Se
   0.2432650923728943    0.5002750158309937    0.4967708587646484 Se
   0.7567349076271057    0.4997249841690063    0.9967709183692932 Se
   0.4997249841690063    0.7567349076271057    0.2532290816307068 Se
   0.5002750158309937    0.2432650923728943    0.7532290816307068 Se
   0.7567349076271057    0.5002750158309937    0.5032290816307068 Se
   0.2432650923728943    0.4997249841690063    0.0032290816307068 Se
   0.9913327097892761    0.2624185681343079    0.5175005793571472 Ti
   0.0086672902107239    0.7375814318656921    0.0175006389617920 Ti
   0.7375814318656921    0.9913327097892761    0.2675006389617920 Ti
   0.2624185681343079    0.0086672902107239    0.7675005793571472 Ti
