Mg9 I3
1.0
   5.7070789337158203   -1.5292071104049683    0.0000000000000000
  -1.5292071104049683    5.7070789337158203    0.0000000000000000
   0.0000000000000000    0.0000000000000000   12.1412296295166016
I Mg
3 9
direct
   0.3516710996627808    0.3540841341018677    0.3070709407329559 I
   0.0183377265930176    0.6874175071716309    0.6404042840003967 I
   0.6850044727325439    0.0207507610321045    0.9737375974655151 I
   0.9983132481575012    0.3348766863346100    0.1489712744951248 Mg
   0.6651233434677124    0.6634365320205688    0.1489712744951248 Mg
   0.3365634679794312    0.0016867518424988    0.1489712744951248 Mg
   0.6649799346923828    0.6682100296020508    0.4823046326637268 Mg
   0.3317900002002716    0.9967699050903320    0.4823046326637268 Mg
   0.0032301545143127    0.3350200653076172    0.4823046326637268 Mg
   0.3316465616226196    0.0015434026718140    0.8156379461288452 Mg
   0.9984566569328308    0.3301031589508057    0.8156379461288452 Mg
   0.6698968410491943    0.6683534383773804    0.8156379461288452 Mg
