H16
1.0
   6.2153840065002441    0.0000000000000000    0.0000000000000000
   0.0000000000000000    6.2153840065002441    0.0000000000000000
   0.0000000000000000    0.0000000000000000    4.3132052421569824
H
16
direct
   0.1834722757339478    0.5388025045394897    0.5195258259773254 H
   0.8165277242660522    0.4611974954605103    0.7616831064224243 H
   0.4611974954605103    0.1834722757339478    0.5195258259773254 H
   0.5388025045394897    0.8165277242660522    0.7616831064224243 H
   0.6834722757339478    0.9611974954605103    0.2616839408874512 H
   0.3165277242660522    0.0388025045394897    0.0195257663726807 H
   0.9611974954605103    0.3165277242660522    0.2616839408874512 H
   0.0388025045394897    0.6834722757339478    0.0195257663726807 H
   0.3704853355884552    0.3004088401794434    0.8656961321830750 H
   0.6295146942138672    0.6995911598205566    0.8656961321830750 H
   0.6995911598205566    0.3704853355884552    0.8656961321830750 H
   0.3004088401794434    0.6295146942138672    0.8656961321830750 H
   0.8704853057861328    0.1995911598205566    0.3656961917877197 H
   0.1295146644115448    0.8004088401794434    0.3656961917877197 H
   0.1995911598205566    0.1295146644115448    0.3656961917877197 H
   0.8004088401794434    0.8704853057861328    0.3656961917877197 H
