P12
1.0
   6.6824722290039062    0.0000000000000000    0.0000000000000000
   0.0000000000000000    6.6824722290039062    0.0000000000000000
   0.0000000000000000    0.0000000000000000    5.8106880187988281
P
12
direct
   0.1700432747602463    0.2867872416973114    0.8294270038604736 P
   0.6700432896614075    0.7132127285003662    0.6705729961395264 P
   0.8299567103385925    0.7132127285003662    0.1705729961395264 P
   0.3299567103385925    0.2867872416973114    0.3294270038604736 P
   0.6193269491195679    0.0992129519581795    0.2478315979242325 P
   0.8806730508804321    0.4007870554924011    0.2478315979242325 P
   0.4007870554924011    0.6193269491195679    0.2478315979242325 P
   0.0992129519581795    0.8806730508804321    0.2478315979242325 P
   0.3806730508804321    0.9007870554924011    0.7521684169769287 P
   0.1193269491195679    0.5992129445075989    0.7521684169769287 P
   0.5992129445075989    0.3806730508804321    0.7521684169769287 P
   0.9007870554924011    0.1193269491195679    0.7521684169769287 P
