Cd3 H3 O6
1.0
   4.9134812355041504   -1.3165633678436279    0.0000000000000000
  -1.3165633678436279    4.9134812355041504    0.0000000000000000
   0.0000000000000000    0.0000000000000000    6.4389953613281250
O H Cd
6 3 3
direct
   0.7335851788520813    0.9930334687232971    0.0394369475543499 O
   0.0069665312767029    0.7405517101287842    0.3727702796459198 O
   0.2594482898712158    0.2664148211479187    0.7061036229133606 O
   0.5817844271659851    0.9510803818702698    0.4604564607143402 O
   0.0489196181297302    0.6307040452957153    0.7937898039817810 O
   0.3692959547042847    0.4182155728340149    0.1271231174468994 O
   0.5198548436164856    0.6652408242225647    0.1350592225790024 H
   0.3347591757774353    0.8546140193939209    0.4683925509452820 H
   0.1453859806060791    0.4801451563835144    0.8017259240150452 H
   0.2978931069374084    0.9936661720275879    0.0297770425677299 Cd
   0.0063338279724121    0.3042269349098206    0.3631103932857513 Cd
   0.6957730650901794    0.7021068930625916    0.6964437365531921 Cd
