O8
1.0
   5.0901350975036621    0.0000000000000000    0.0000000000000000
   0.0000000000000000    5.0901350975036621    0.0000000000000000
   0.0000000000000000    0.0000000000000000    4.1670970916748047
O
8
direct
   0.5159150958061218    0.7175676226615906    0.2491539269685745 O
   0.9840849041938782    0.7824323773384094    0.7508460879325867 O
   0.7824323773384094    0.5159150958061218    0.7491539120674133 O
   0.7175676226615906    0.9840849041938782    0.2508460879325867 O
   0.4840849041938782    0.2824323773384094    0.7508460879325867 O
   0.0159151554107666    0.2175676822662354    0.2491539269685745 O
   0.2175676822662354    0.4840849041938782    0.2508460879325867 O
   0.2824323773384094    0.0159151554107666    0.7491539120674133 O
