I2 O16
1.0
   5.4576292037963867    0.0000000000000000    0.0000000000000000
   0.0000000000000000    5.4576292037963867    0.0000000000000000
   0.0000000000000000    0.0000000000000000    9.4436759948730469
O I O
8 2 8
direct
   0.9643266201019287    0.6020742654800415    0.1147035434842110 O
   0.5356733798980713    0.8979257345199585    0.1147035434842110 O
   0.8979257345199585    0.9643266201019287    0.6147035360336304 O
   0.6020742654800415    0.5356733798980713    0.6147035360336304 O
   0.0356733798980713    0.1020742654800415    0.8852964639663696 O
   0.4643266201019287    0.3979257345199585    0.8852964639663696 O
   0.1020742654800415    0.4643266201019287    0.3852964639663696 O
   0.3979257345199585    0.0356733798980713    0.3852964639663696 O
   0.6616671681404114    0.8057774305343628    0.7089456915855408 I
   0.6942225694656372    0.6616671681404114    0.2089457511901855 I
   0.5979456305503845    0.5194079279899597    0.3415711522102356 O
   0.9020543694496155    0.9805920720100403    0.3415711522102356 O
   0.9805920720100403    0.5979456305503845    0.8415711522102356 O
   0.5194079279899597    0.9020543694496155    0.8415711522102356 O
   0.4020543694496155    0.0194079875946045    0.6584288477897644 O
   0.0979456901550293    0.4805920720100403    0.6584288477897644 O
   0.0194079875946045    0.0979456901550293    0.1584288477897644 O
   0.4805920720100403    0.4020543694496155    0.1584288477897644 O
