H16 C4
1.0
   6.5922670364379883    0.0000000000000000    0.0000000000000000
   0.0000000000000000    6.9994797706604004    0.0000000000000000
   0.0000000000000000    0.0000000000000000    6.5570793151855469
C H
4 16
direct
   0.4928708076477051    0.5116699337959290    0.6708710789680481 C
   0.0071291923522949    0.0116698741912842    0.6708710789680481 C
   0.4928708076477051    0.0116698741912842    0.1708710193634033 C
   0.0071291923522949    0.5116699337959290    0.1708710193634033 C
   0.6143189668655396    0.8757149577140808    0.2803165018558502 H
   0.3856810331344604    0.1242850422859192    0.2803165018558502 H
   0.1143189668655396    0.6242850422859192    0.2803165018558502 H
   0.8856810331344604    0.3757150173187256    0.2803165018558502 H
   0.6143189668655396    0.3757150173187256    0.7803164720535278 H
   0.3856810331344604    0.6242850422859192    0.7803164720535278 H
   0.1143189668655396    0.1242850422859192    0.7803164720535278 H
   0.8856810331344604    0.8757149577140808    0.7803164720535278 H
   0.6180510520935059    0.5961838364601135    0.5643053054809570 H
   0.3819489479064941    0.4038161635398865    0.5643053054809570 H
   0.1180510520935059    0.9038161635398865    0.5643053054809570 H
   0.8819489479064941    0.0961837768554688    0.5643053054809570 H
   0.6180510520935059    0.0961837768554688    0.0643053054809570 H
   0.3819489479064941    0.9038161635398865    0.0643053054809570 H
   0.1180510520935059    0.4038161635398865    0.0643053054809570 H
   0.8819489479064941    0.5961838364601135    0.0643053054809570 H
