F8
1.0
   5.1636838912963867    0.0000000000000000    0.0000000000000000
   0.0000000000000000    5.1636838912963867    0.0000000000000000
   0.0000000000000000    0.0000000000000000    5.9801149368286133
F
8
direct
   0.0650019049644470    0.9556452631950378    0.7784641981124878 F
   0.5650019049644470    0.9556452631950378    0.0284641981124878 F
   0.2943547368049622    0.3150019049644470    0.2784641981124878 F
   0.0650019049644470    0.4556453227996826    0.5284641981124878 F
   0.7943547368049622    0.3150019049644470    0.0284641981124878 F
   0.0650019049644470    0.9556452631950378    0.2784641981124878 F
   0.2943547368049622    0.8150019049644470    0.5284641981124878 F
   0.2943547368049622    0.3150019049644470    0.7784641981124878 F
