Li2 S4 F14
1.0
   5.4575142860412598    0.0000000000000000    0.0000000000000000
   0.0000000000000000    7.5253973007202148    0.0000000000000000
   0.0000000000000000    0.0000000000000000    8.2623157501220703
S F Li F
4 8 2 6
direct
   0.5897742509841919    0.1323199570178986    0.7318081855773926 S
   0.4102257490158081    0.8676800727844238    0.7318081855773926 S
   0.9102257490158081    0.6323199272155762    0.2681918144226074 S
   0.0897742509841919    0.3676800429821014    0.2681918144226074 S
   0.8512396812438965    0.3477871417999268    0.4033493101596832 F
   0.1487603187561035    0.6522128582000732    0.4033493101596832 F
   0.6487603187561035    0.8477871417999268    0.5966507196426392 F
   0.3512396812438965    0.1522128582000732    0.5966507196426392 F
   0.4511721730232239    0.3237338066101074    0.8620997667312622 F
   0.5488278269767761    0.6762661933898926    0.8620997667312622 F
   0.0488278269767761    0.8237338066101074    0.1379002332687378 F
   0.9511721730232239    0.1762661933898926    0.1379002332687378 F
   0.3478469848632812    0.7481998205184937    0.0653041675686836 Li
   0.8478469848632812    0.7518001794815063    0.9346958398818970 Li
   0.5196949839591980    0.9834579825401306    0.9237658381462097 F
   0.0196950435638428    0.5165420174598694    0.0762341618537903 F
   0.1701865792274475    0.7680808901786804    0.7407188415527344 F
   0.8298134207725525    0.2319191098213196    0.7407188415527344 F
   0.3298134207725525    0.2680809497833252    0.2592811584472656 F
   0.6701865792274475    0.7319191098213196    0.2592811584472656 F
