Ba1 Tb1 Mo4 O14
1.0
   6.2915201187133789    0.0000000000000000    0.0000000000000000
   0.0000000000000000    6.2915201187133789    0.0000000000000000
   0.0000000000000000    0.0000000000000000    8.2262115478515625
Tb O Ba O Mo O
1 4 1 4 4 6
direct
   0.4748255014419556    0.5213149785995483    0.8910804986953735 Tb
   0.9038419127464294    0.8503996133804321    0.2828083634376526 O
   0.0961580872535706    0.1496003866195679    0.2828083634376526 O
   0.8503996133804321    0.0961580872535706    0.7171916365623474 O
   0.1496003866195679    0.9038419127464294    0.7171916365623474 O
   0.5122537016868591    0.0267045982182026    0.5125269889831543 Ba
   0.3139604926109314    0.2567456960678101    0.9299505352973938 O
   0.6860395073890686    0.7432543039321899    0.9299505352973938 O
   0.2567456960678101    0.6860395073890686    0.0700494647026062 O
   0.7432543039321899    0.3139604926109314    0.0700494647026062 O
   0.2007049769163132    0.8435010313987732    0.2359891235828400 Mo
   0.7992950081825256    0.1564989686012268    0.2359891235828400 Mo
   0.8435010313987732    0.7992950081825256    0.7640109062194824 Mo
   0.1564989686012268    0.2007049769163132    0.7640109062194824 Mo
   0.5104833841323853    0.0055444980971515    0.2287672013044357 O
   0.0055444980971515    0.4895166158676147    0.7712327837944031 O
   0.3328899443149567    0.3068183660507202    0.6282666325569153 O
   0.6671100854873657    0.6931816339492798    0.6282666325569153 O
   0.3068183660507202    0.6671100854873657    0.3717333674430847 O
   0.6931816339492798    0.3328899443149567    0.3717333674430847 O
