Mo6 O14
1.0
   8.7536544799804688   -2.3455348014831543    0.0000000000000000
  -2.3455348014831543    8.7536544799804688    0.0000000000000000
   0.0000000000000000    0.0000000000000000    5.3748264312744141
O Mo O
12 6 2
direct
   0.3037655651569366    0.3082325756549835    0.7622967958450317 O
   0.6917674541473389    0.9955329895019531    0.7622967958450317 O
   0.0044670104980469    0.6962344646453857    0.7622967958450317 O
   0.6962344646453857    0.6917674541473389    0.2622967958450317 O
   0.3082325756549835    0.0044670104980469    0.2622967958450317 O
   0.9955329895019531    0.3037655651569366    0.2622967958450317 O
   0.6917674541473389    0.6962344646453857    0.7622967958450317 O
   0.0044670104980469    0.3082325756549835    0.7622967958450317 O
   0.3037655651569366    0.9955329895019531    0.7622967958450317 O
   0.3082325756549835    0.3037655651569366    0.2622967958450317 O
   0.9955329895019531    0.6917674541473389    0.2622967958450317 O
   0.6962344646453857    0.0044670104980469    0.2622967958450317 O
   0.8470937013626099    0.1329574286937714    0.0099177118390799 Mo
   0.8670425415039062    0.7141362428665161    0.0099177118390799 Mo
   0.2858637571334839    0.1529062986373901    0.0099177118390799 Mo
   0.1529062986373901    0.8670425415039062    0.5099177360534668 Mo
   0.1329574286937714    0.2858637571334839    0.5099177360534668 Mo
   0.7141362428665161    0.8470937013626099    0.5099177360534668 Mo
   0.9988374114036560    0.9904640913009644    0.5683945417404175 O
   0.0083733201026917    0.9988374114036560    0.0683945417404175 O
