P4 O16
1.0
   6.5121707916259766    0.0000000000000000    0.0000000000000000
   0.0000000000000000    6.5121707916259766    0.0000000000000000
   0.0000000000000000    0.0000000000000000    7.6240396499633789
P O
4 16
direct
   0.4992758035659790    0.9920029640197754    0.7427681088447571 P
   0.0007241964340210    0.5079970359802246    0.7427681088447571 P
   0.5079970359802246    0.4992758035659790    0.2427680492401123 P
   0.9920029640197754    0.0007241964340210    0.2427680492401123 P
   0.2499538362026215    0.9711669683456421    0.3383132815361023 O
   0.2500461637973785    0.5288330316543579    0.3383132815361023 O
   0.5288330316543579    0.2499538362026215    0.8383132815361023 O
   0.9711669683456421    0.2500461637973785    0.8383132815361023 O
   0.7500461339950562    0.4711669683456421    0.1616867184638977 O
   0.7499538660049438    0.0288330316543579    0.1616867184638977 O
   0.4711669683456421    0.7499538660049438    0.6616867184638977 O
   0.0288330316543579    0.7500461339950562    0.6616867184638977 O
   0.7500461339950562    0.0288330316543579    0.6616867184638977 O
   0.7499538660049438    0.4711669683456421    0.6616867184638977 O
   0.4711669683456421    0.7500461339950562    0.1616867184638977 O
   0.0288330316543579    0.7499538660049438    0.1616867184638977 O
   0.2499538362026215    0.5288330316543579    0.8383132815361023 O
   0.2500461637973785    0.9711669683456421    0.8383132815361023 O
   0.5288330316543579    0.2500461637973785    0.3383132815361023 O
   0.9711669683456421    0.2499538362026215    0.3383132815361023 O
