Al2 S5 I1
1.0
   6.3805208206176758    0.0000000000000000    0.0000000000000000
   0.0000000000000000    6.3805208206176758    0.0000000000000000
   0.0000000000000000    0.0000000000000000    6.1207046508789062
I S Al S
1 4 2 1
direct
   0.3797030746936798    0.0644545555114746    0.9919688701629639 I
   0.2462284862995148    0.2532752454280853    0.5011805295944214 S
   0.7537715435028076    0.7467247247695923    0.4988194704055786 S
   0.7467247247695923    0.2462284862995148    0.5011805295944214 S
   0.2532752454280853    0.7537715435028076    0.4988194704055786 S
   0.0042213043197989    0.5046254992485046    0.6084868311882019 Al
   0.4953745007514954    0.0042213043197989    0.6084868311882019 Al
   0.8833542466163635    0.5120275616645813    0.9026436209678650 S
