La2 W2 O8
1.0
   5.6596336364746094    0.0000000000000000    0.0000000000000000
   0.0000000000000000    5.6596336364746094    0.0000000000000000
   0.0000000000000000    0.0000000000000000    5.7325787544250488
O La O W
2 2 6 2
direct
   0.8240233063697815    0.1825876086950302    0.0876507461071014 O
   0.3174123764038086    0.3240232467651367    0.0876507461071014 O
   0.9582421779632568    0.5314421057701111    0.9998279809951782 La
   0.4582421779632568    0.9685578942298889    0.0001720190048218 La
   0.1210253611207008    0.8786653876304626    0.2608730792999268 O
   0.6213346123695374    0.6210253834724426    0.2608730792999268 O
   0.6210253834724426    0.6213346123695374    0.7391269207000732 O
   0.1213346123695374    0.8789746165275574    0.7391269207000732 O
   0.1095732897520065    0.3833898901939392    0.4655692279338837 O
   0.6095733046531677    0.1166101098060608    0.5344307422637939 O
   0.9248819947242737    0.0558797717094421    0.4263745546340942 W
   0.4441202282905579    0.4248819351196289    0.4263745546340942 W
