V2 H8 O8
1.0
   5.2604880332946777    0.0000000000000000    0.0000000000000000
   0.0000000000000000    5.2604880332946777    0.0000000000000000
   0.0000000000000000    0.0000000000000000    7.3812022209167480
H O V
8 8 2
direct
   0.1088455244898796    0.2044147551059723    0.6428294181823730 H
   0.8911544680595398    0.7955852746963501    0.6428294181823730 H
   0.2955852448940277    0.6088455319404602    0.1428294181823730 H
   0.7044147253036499    0.3911544680595398    0.1428294181823730 H
   0.2955852448940277    0.6088455319404602    0.8571705818176270 H
   0.7044147253036499    0.3911544680595398    0.8571705818176270 H
   0.1088455244898796    0.2044147551059723    0.3571705818176270 H
   0.8911544680595398    0.7955852746963501    0.3571705818176270 H
   0.5272771716117859    0.4167451560497284    0.6999696493148804 O
   0.0832548439502716    0.0272772312164307    0.1999696493148804 O
   0.0272772312164307    0.0832548439502716    0.8000303506851196 O
   0.5832548141479492    0.4727228283882141    0.3000303506851196 O
   0.7809967994689941    0.4005978405475616    0.0019861583132297 O
   0.2190032005310059    0.5994021892547607    0.9980138540267944 O
   0.0994021594524384    0.2809967994689941    0.5019861459732056 O
   0.9005978107452393    0.7190032005310059    0.4980138540267944 O
   0.7619981765747070    0.4521079957485199    0.5075044035911560 V
   0.0478920042514801    0.2619981765747070    0.0075044631958008 V
