Ba1 Pr1 Nd1 Si1 Sn2 S1 O9
1.0
   6.0189514160156250   -0.1870335936546326   -0.1220437809824944
  -0.1870335787534714    6.5638656616210938    0.4055987298488617
  -0.1220437884330750    0.4055987000465393    7.0588817596435547
Nd Ba Pr O Sn O Sn O Si S O
1 1 1 3 1 1 1 4 1 1 1
direct
   0.1902487277984619    0.4435023367404938    0.3045128285884857 Nd
   0.7354629039764404    0.8717197775840759    0.2094236463308334 Ba
   0.6912623643875122    0.3136888146400452    0.5433422327041626 Pr
   0.1218739748001099    0.5063740611076355    0.9441820979118347 O
   0.9257580041885376    0.2866052091121674    0.2194155156612396 O
   0.9073466062545776    0.5866520404815674    0.5191437602043152 O
   0.2900915741920471    0.2106501907110214    0.9041751623153687 Sn
   0.5380744338035583    0.2875133156776428    0.2035861313343048 O
   0.2985010445117950    0.8607410192489624    0.6013395786285400 Sn
   0.3226341903209686    0.9209116697311401    0.8890172839164734 O
   0.3062648475170135    0.2518017888069153    0.5822590589523315 O
   0.7296803593635559    0.5801969766616821    0.9182887077331543 O
   0.8275526762008667    0.1975241899490356    0.8510812520980835 O
   0.7435312867164612    0.3406886160373688    0.0474850535392761 Si
   0.9423906803131104    0.5728808641433716    0.7970658540725708 S
   0.4402197301387787    0.7181794047355652    0.4044711887836456 O
