Li2 Ca1 Cu2 B1 P1 O7
1.0
   4.9319634437561035   -0.1530319601297379   -0.7634701132774353
  -0.1530319899320602    5.5650811195373535   -0.4788932204246521
  -0.7634701728820801   -0.4788931608200073    6.4939684867858887
Ca Cu B Cu O Li O Li P O
1 1 1 1 1 1 1 1 1 5
direct
   0.0342636592686176    0.3935046494007111    0.2859682440757751 Ca
   0.4034016728401184    0.6857905983924866    0.7386220097541809 Cu
   0.4627788960933685    0.1550695747137070    0.8920320868492126 B
   0.9194167852401733    0.8829212784767151    0.9923375248908997 Cu
   0.3423797786235809    0.9965877532958984    0.0202747769653797 O
   0.0362029410898685    0.9476394653320312    0.5490514636039734 Li
   0.3274592757225037    0.2680827081203461    0.6964173316955566 O
   0.7303562164306641    0.3658058643341064    0.6523486971855164 Li
   0.5147732496261597    0.8737363815307617    0.2595809996128082 P
   0.8262782692909241    0.7033131122589111    0.7220758199691772 O
   0.7667450904846191    0.0776797533035278    0.3866231441497803 O
   0.3226929605007172    0.7675886750221252    0.4121790528297424 O
   0.6524420976638794    0.6532422304153442    0.1727184504270554 O
   0.7601841092109680    0.2108657509088516    0.9206801652908325 O
