Nb4 S8
1.0
   9.1019477844238281    0.0000000000000000    0.0000000000000000
   0.0000000000000000    9.1019477844238281    0.0000000000000000
   0.0000000000000000    0.0000000000000000    3.1367435455322266
S Nb S
4 4 4
direct
   0.5580172538757324    0.8117679953575134    0.0098282983526587 S
   0.4419827461242676    0.1882320046424866    0.0098282983526587 S
   0.1882320046424866    0.5580172538757324    0.0098282983526587 S
   0.8117679953575134    0.4419827461242676    0.0098282983526587 S
   0.1087814569473267    0.7953544855117798    0.0219475887715816 Nb
   0.8912185430526733    0.2046455144882202    0.0219475887715816 Nb
   0.2046455144882202    0.1087814569473267    0.0219475887715816 Nb
   0.7953544855117798    0.8912185430526733    0.0219475887715816 Nb
   0.9108605980873108    0.7228517532348633    0.5100341439247131 S
   0.0891394019126892    0.2771482467651367    0.5100341439247131 S
   0.2771482467651367    0.9108605980873108    0.5100341439247131 S
   0.7228517532348633    0.0891394019126892    0.5100341439247131 S
