Sn4 F16
1.0
   8.7828102111816406    0.0000000000000000    0.0000000000000000
   0.0000000000000000   10.6157121658325195    0.0000000000000000
   0.0000000000000000    0.0000000000000000    4.1920347213745117
F Sn
16 4
direct
   0.3449618518352509    0.6610921621322632    0.8119314312934875 F
   0.6550381183624268    0.3389078378677368    0.8119314312934875 F
   0.3449618518352509    0.3389078378677368    0.8119314312934875 F
   0.6550381183624268    0.6610921621322632    0.8119314312934875 F
   0.8449618816375732    0.1610921621322632    0.8119314312934875 F
   0.1550381481647491    0.8389078378677368    0.8119314312934875 F
   0.8449618816375732    0.8389078378677368    0.8119314312934875 F
   0.1550381481647491    0.1610921621322632    0.8119314312934875 F
   0.3784089088439941    0.4984256029129028    0.3194846808910370 F
   0.8784089088439941    0.9984256029129028    0.3194846808910370 F
   0.0115617886185646    0.3343864679336548    0.3135097324848175 F
   0.9884381890296936    0.6656135320663452    0.3135097324848175 F
   0.5115618109703064    0.8343864679336548    0.3135097324848175 F
   0.4884382188320160    0.1656135320663452    0.3135097324848175 F
   0.5004598498344421    0.0218295417726040    0.8261865377426147 F
   0.0004599094390869    0.5218295454978943    0.8261865377426147 F
   0.4817199707031250    0.8060958385467529    0.7620616555213928 Sn
   0.9817199707031250    0.3060958385467529    0.7620616555213928 Sn
   0.9678895473480225    0.7077318429946899    0.8597725033760071 Sn
   0.4678895473480225    0.2077318429946899    0.8597725033760071 Sn
