H8
1.0
   4.3071460723876953    0.0000000000000000    0.0000000000000000
   0.0000000000000000    4.3071460723876953    0.0000000000000000
   0.0000000000000000    0.0000000000000000    4.3071460723876953
H
8
direct
   0.2302855104207993    0.3272582888603210    0.6651522517204285 H
   0.7697144746780396    0.6727417111396790    0.6651522517204285 H
   0.6727417111396790    0.2302855104207993    0.3348477482795715 H
   0.3272582888603210    0.7697144746780396    0.3348477482795715 H
   0.7697144746780396    0.6727417111396790    0.3348477482795715 H
   0.2302855104207993    0.3272582888603210    0.3348477482795715 H
   0.3272582888603210    0.7697144746780396    0.6651522517204285 H
   0.6727417111396790    0.2302855104207993    0.6651522517204285 H
