H8
1.0
   5.3053750991821289    0.0000000000000000    0.0000000000000000
   0.0000000000000000    5.3053750991821289    0.0000000000000000
   0.0000000000000000    0.0000000000000000    5.8151121139526367
H
8
direct
   0.5957694649696350    0.1627200096845627    0.1935258656740189 H
   0.4042305350303650    0.8372799754142761    0.6935258507728577 H
   0.8372799754142761    0.5957694649696350    0.4435258507728577 H
   0.1627200096845627    0.4042305350303650    0.9435258507728577 H
   0.1007503122091293    0.5944464206695557    0.0494496598839760 H
   0.8992496728897095    0.4055535793304443    0.5494496822357178 H
   0.4055535793304443    0.1007503122091293    0.2994496524333954 H
   0.5944464206695557    0.8992496728897095    0.7994496822357178 H
