La12 O2
1.0
   7.9988007545471191    0.0000000000000000    0.0000000000000000
   0.0000000000000000    7.9988007545471191    0.0000000000000000
   0.0000000000000000    0.0000000000000000    7.9988007545471191
La O
12 2
direct
   0.8698605895042419    0.0596050731837749    0.6901049017906189 La
   0.6301394104957581    0.4403949379920959    0.8098950982093811 La
   0.6901049017906189    0.8698605895042419    0.0596050731837749 La
   0.8098950982093811    0.6301394104957581    0.4403949379920959 La
   0.0596050731837749    0.6901049017906189    0.8698605895042419 La
   0.4403949379920959    0.8098950982093811    0.6301394104957581 La
   0.1301394104957581    0.9403949379920959    0.3098950982093811 La
   0.3698606491088867    0.5596050620079041    0.1901049613952637 La
   0.3098950982093811    0.1301394104957581    0.9403949379920959 La
   0.1901049613952637    0.3698606491088867    0.5596050620079041 La
   0.9403949379920959    0.3098950982093811    0.1301394104957581 La
   0.5596050620079041    0.1901049613952637    0.3698606491088867 La
   0.8289423584938049    0.3282901346683502    0.5603209137916565 O
   0.3289422988891602    0.8282901048660278    0.0603208541870117 O
