Li9 Mn1 O10
1.0
   6.1045579910278320    0.0000000000000000    0.0000000000000000
   0.0000000000000000    6.1045579910278320    0.0000000000000000
   0.0000000000000000    0.0000000000000000    5.9190392494201660
Li O Li O Mn
1 8 8 2 1
direct
   0.1324336528778076    0.4338538646697998    0.4464056491851807 Li
   0.1557208895683289    0.3117418289184570    0.9986225962638855 O
   0.8442791104316711    0.6882581710815430    0.9986225962638855 O
   0.3117418289184570    0.8442791104316711    0.0013774037361145 O
   0.6882581710815430    0.1557208895683289    0.0013774037361145 O
   0.0848334208130836    0.7339432239532471    0.4822262823581696 O
   0.9151665568351746    0.2660567760467529    0.4822262823581696 O
   0.7339432239532471    0.9151665568351746    0.5177737474441528 O
   0.2660567760467529    0.0848334208130836    0.5177737474441528 O
   0.2592735290527344    0.7271656394004822    0.2500320672988892 Li
   0.7407264709472656    0.2728343605995178    0.2500320672988892 Li
   0.7271656394004822    0.7407264709472656    0.7499679327011108 Li
   0.2728343605995178    0.2592735290527344    0.7499679327011108 Li
   0.2592735290527344    0.2728343605995178    0.2500320672988892 Li
   0.7407264709472656    0.7271656394004822    0.2500320672988892 Li
   0.7271656394004822    0.2592735290527344    0.7499679327011108 Li
   0.2728343605995178    0.7407264709472656    0.7499679327011108 Li
   0.5072480440139771    0.4824907183647156    0.2927263677120209 O
   0.4824907183647156    0.4927519559860229    0.7072736024856567 O
   0.9866874217987061    0.9909043312072754    0.4840526878833771 Mn
