V8 F4
1.0
   3.9977240562438965    0.0000000000000000    0.0000000000000000
   0.0000000000000000    3.9977240562438965    0.0000000000000000
   0.0000000000000000    0.0000000000000000    9.5735139846801758
V F
8 4
direct
   0.2427380234003067    0.7458654642105103    0.4598678350448608 V
   0.7572619915008545    0.2541345357894897    0.1673642992973328 V
   0.2541345357894897    0.2427380234003067    0.9598678350448608 V
   0.7458654642105103    0.7572619915008545    0.6673616170883179 V
   0.2427380234003067    0.2541345357894897    0.6673616170883179 V
   0.7572619915008545    0.7458654642105103    0.9598678350448608 V
   0.2541345357894897    0.7572619915008545    0.1673642992973328 V
   0.7458654642105103    0.2427380234003067    0.4598678350448608 V
   0.7501550912857056    0.2505078315734863    0.8224377632141113 F
   0.2498449087142944    0.7494921684265137    0.8224377632141113 F
   0.7494921684265137    0.7501550912857056    0.3224377632141113 F
   0.2505078315734863    0.2498449087142944    0.3224377632141113 F
