Na8 O8
1.0
   6.2838115692138672    0.0000000000000000    0.0000000000000000
   0.0000000000000000    6.2838115692138672    0.0000000000000000
   0.0000000000000000    0.0000000000000000    6.2838115692138672
O Na O
6 8 2
direct
   0.2519120872020721    0.9980998039245605    0.4937052428722382 O
   0.7480878829956055    0.0019001960754395    0.4937052428722382 O
   0.4980998039245605    0.2480879127979279    0.0062947571277618 O
   0.5019001960754395    0.7519121170043945    0.0062947571277618 O
   0.0062947571277618    0.4980998039245605    0.2480879127979279 O
   0.0062947571277618    0.5019001960754395    0.7519121170043945 O
   0.2502661049365997    0.2546501159667969    0.7441719174385071 Na
   0.7497339248657227    0.7453498840332031    0.7441719174385071 Na
   0.7497339248657227    0.2546501159667969    0.2558280825614929 Na
   0.2502661049365997    0.7453498840332031    0.2558280825614929 Na
   0.7546501159667969    0.7502660751342773    0.2441718578338623 Na
   0.2453498840332031    0.2497338950634003    0.2441718578338623 Na
   0.7546501159667969    0.2497338950634003    0.7558280825614929 Na
   0.2453498840332031    0.7502660751342773    0.7558280825614929 Na
   0.4879238903522491    0.5024521946907043    0.5075270533561707 O
   0.0024521350860596    0.0120761096477509    0.9924729466438293 O
