Fe6 O6
1.0
   5.9071292877197266    0.0000000000000000    0.0000000000000000
   0.0000000000000000    5.0789818763732910    0.0000000000000000
   0.0000000000000000    0.0000000000000000    5.0607910156250000
Fe O Fe O
2 4 4 2
direct
   0.4998293519020081    0.1543849557638168    0.0386397875845432 Fe
   0.0001706480979919    0.8456150293350220    0.5386397838592529 Fe
   0.7606947422027588    0.9925669431686401    0.2736550569534302 O
   0.7393052577972412    0.0074330568313599    0.7736550569534302 O
   0.2606947422027588    0.0074330568313599    0.7736550569534302 O
   0.2393052577972412    0.9925669431686401    0.2736550569534302 O
   0.7498543858528137    0.7106205821037292    0.0312557443976402 Fe
   0.7501456141471863    0.2893794178962708    0.5312557220458984 Fe
   0.2498543262481689    0.2893794178962708    0.5312557220458984 Fe
   0.2501456141471863    0.7106205821037292    0.0312557443976402 Fe
   0.4949853718280792    0.4751718342304230    0.2583596706390381 O
   0.0050146281719208    0.5248281955718994    0.7583596706390381 O
