Al2 H14
1.0
   5.1442680358886719    0.0000000000000000    0.0000000000000000
   0.0000000000000000    5.1442680358886719    0.0000000000000000
   0.0000000000000000    0.0000000000000000    5.4562091827392578
H Al
14 2
direct
   0.0640571713447571    0.9781903028488159    0.5448163747787476 H
   0.9781903028488159    0.9359428286552429    0.4551836252212524 H
   0.4359428286552429    0.4781903028488159    0.5448163747787476 H
   0.5218096971511841    0.4359428286552429    0.4551836252212524 H
   0.2114695161581039    0.6319974064826965    0.1650252938270569 H
   0.7885304689407349    0.3680025935173035    0.1650252938270569 H
   0.6319974064826965    0.7885304689407349    0.8349747061729431 H
   0.3680025935173035    0.2114695161581039    0.8349747061729431 H
   0.7114695310592651    0.8680025935173035    0.1650252938270569 H
   0.2885304689407349    0.1319973468780518    0.1650252938270569 H
   0.1319973468780518    0.7114695310592651    0.8349747061729431 H
   0.8680025935173035    0.2885304689407349    0.8349747061729431 H
   0.5758505463600159    0.1492515504360199    0.4595300555229187 H
   0.9241494536399841    0.6492515802383423    0.4595300555229187 H
   0.4083078205585480    0.8935598731040955    0.0021810003090650 Al
   0.8935598731040955    0.5916922092437744    0.9978190064430237 Al
