Fe2 Re2 O12
1.0
   4.3986558914184570    0.0000000000000000    0.0000000000000000
   0.0000000000000000    4.3986558914184570    0.0000000000000000
   0.0000000000000000    0.0000000000000000    5.9041166305541992
O Re Fe
12 2 2
direct
   0.2639447152614594    0.3243114054203033    0.3798061013221741 O
   0.2639447152614594    0.3243114054203033    0.3798061013221741 O
   0.2639447152614594    0.3243114054203033    0.3798061013221741 O
   0.7360552549362183    0.3243114054203033    0.6201938986778259 O
   0.7639447450637817    0.8243113756179810    0.8798061013221741 O
   0.2639447152614594    0.3243114054203033    0.3798061013221741 O
   0.2639447152614594    0.3243114054203033    0.3798061013221741 O
   0.2360552847385406    0.8243113756179810    0.1201938986778259 O
   0.7596328258514404    0.8232757449150085    0.3765927255153656 O
   0.7596328258514404    0.8232757449150085    0.3765927255153656 O
   0.2596328258514404    0.3232758045196533    0.8765927553176880 O
   0.7596328258514404    0.8232757449150085    0.3765927255153656 O
   0.0158207230269909    0.5420305132865906    0.0070420275442302 Re
   0.5158207416534424    0.0420305728912354    0.5070420503616333 Re
   0.4975922703742981    0.0275580957531929    0.0076539274305105 Fe
   0.9975922703742981    0.5275580883026123    0.5076539516448975 Fe
