Li2 Fe2 S4
1.0
   4.8636655807495117    0.0000000000000000    0.0000000000000000
   0.0000000000000000    4.8636655807495117    0.0000000000000000
   0.0000000000000000    0.0000000000000000    6.2357587814331055
Fe S Li
2 4 2
direct
   0.5513783097267151    0.8558531999588013    0.0226912125945091 Fe
   0.4486216902732849    0.1441468000411987    0.4773087799549103 Fe
   0.7362457513809204    0.6997247934341431    0.7473827600479126 S
   0.3002752065658569    0.7362457513809204    0.2473827600479126 S
   0.2381220459938049    0.1597095131874084    0.8395619392395020 S
   0.8402904868125916    0.2381220459938049    0.3395619392395020 S
   0.1567496955394745    0.6836186051368713    0.6000451445579529 Li
   0.8432502746582031    0.3163813948631287    0.8999548554420471 Li
