Cl16
1.0
  10.4819793701171875    0.0000000000000000    0.0000000000000000
   0.0000000000000000   10.4819793701171875    0.0000000000000000
   0.0000000000000000    0.0000000000000000    6.2810940742492676
Cl
16
direct
   0.1731870770454407    0.7350848317146301    0.9235323667526245 Cl
   0.8268129229545593    0.2649151682853699    0.9235323667526245 Cl
   0.4231870770454407    0.5467356443405151    0.1417172551155090 Cl
   0.0768129229545593    0.9532697200775146    0.1417172551155090 Cl
   0.1731870770454407    0.2032687664031982    0.3917163014411926 Cl
   0.8268129229545593    0.7649151682853699    0.4235323667526245 Cl
   0.4231870770454407    0.0467302799224854    0.6417118906974792 Cl
   0.0768129229545593    0.4850847721099854    0.6735323667526245 Cl
   0.6731870770454407    0.7032687664031982    0.3917163014411926 Cl
   0.3268129229545593    0.2649151682853699    0.4235323667526245 Cl
   0.9231870770454407    0.5467356443405151    0.6417118906974792 Cl
   0.5768129229545593    0.9532697200775146    0.6417118906974792 Cl
   0.6731870770454407    0.2350847721099854    0.9235323667526245 Cl
   0.3268129229545593    0.7649151682853699    0.9235323667526245 Cl
   0.9231870770454407    0.0467302799224854    0.1417172551155090 Cl
   0.5768129229545593    0.4850847721099854    0.1735323667526245 Cl
