Ga2 Ag4 F12
1.0
   7.7728584950479531   -2.3273325800224498    0.9101689018520532
  -2.2593374674565561    7.8927722093083679   -0.1181840465068217
   0.5098836111092242    0.0588190465781898    5.4411878404647913
F Ga F Ag
6 2 6 4
direct
   0.3053818545311224    0.5692147493025473    0.1435225894324723 F
   0.5638115090010298    0.8808386252943021    0.5494988683661468 F
   0.1024544287254544    0.5984481278579481    0.7980590942778517 F
   0.6946180916188089    0.4307851927409818    0.8564773835267649 F
   0.4361884607650849    0.1191614093587583    0.4505011269208287 F
   0.8975455076357205    0.4015518486875575    0.2019406313430848 F
   1.1004122107503003    0.3821804946591490   -0.0388225366067453 Ga
  -0.1004121086671320    0.6178194328507042    1.0388234811305408 Ga
   0.6836165282862185    0.5705369508540012    0.2980947443189164 F
   0.0782766084952328    0.1866769553802685    0.1567553229975166 F
   0.9048088355757424    0.2014198956597694    0.7897835127933519 F
   0.3163835092284127    0.4294630013378793    0.7019052433194140 F
   0.9217233210810440    0.8133230908295818    0.8432445001870367 F
   0.0951910796349603    0.7985799939207259    0.2102162739400825 F
   0.6381865274025088    0.6843042066039566    0.7124255671448754 Ag
   0.6761828590079120    0.1868482849046536    0.6336207355072085 Ag
   0.3618134347809462    0.3156958226620493    0.2875743146221847 Ag
   0.3238170554033035    0.8131516592257918    0.3663791119117604 Ag
