H8
1.0
   3.9924230575561523    0.0000000000000000    0.0000000000000000
   0.0000000000000000    3.9924230575561523    0.0000000000000000
   0.0000000000000000    0.0000000000000000    3.9924230575561523
H
8
direct
   0.3079598248004913    0.1437587738037109    0.2974773645401001 H
   0.6920402050018311    0.8562412261962891    0.2974773645401001 H
   0.8562412261962891    0.3079598248004913    0.7025226354598999 H
   0.1437587738037109    0.6920402050018311    0.7025226354598999 H
   0.6920402050018311    0.8562412261962891    0.7025226354598999 H
   0.3079598248004913    0.1437587738037109    0.7025226354598999 H
   0.1437587738037109    0.6920402050018311    0.2974773645401001 H
   0.8562412261962891    0.3079598248004913    0.2974773645401001 H
