Nb4 S8
1.0
   9.8804305458895030    0.0000006625690629   -0.0000000362579345
   0.0000006625690393    9.8804299024697713    0.0000000228836416
  -0.0000000128578063    0.0000000071543447    3.2924747275307946
S Nb S
4 4 4
direct
   0.5936437155358265    0.7786073512204307    0.0139828140580462 S
   0.4063562048704058    0.2213925937090351    0.0139828105439484 S
   0.2213923196025404    0.5936442843990914    0.0139828182272931 S
   0.7786076639944044    0.4063557099533688    0.0139828184835376 S
   0.1164354429536529    0.7854326894852411    0.0139144287904508 Nb
   0.8835645444370357    0.2145673380164308    0.0139144889030574 Nb
   0.2145667860519999    0.1164351519408415    0.0139144965896929 Nb
   0.7854333173886495    0.8835648906803267    0.0139144478377188 Nb
   0.9251342759404970    0.7471588213688228    0.5139127779750172 S
   0.0748657422450868    0.2528411812767076    0.5139127488472808 S
   0.2528412007033248    0.9251343235576327    0.5139127345099406 S
   0.7471587870490959    0.0748656824965943    0.5139127842325797 S
