Li2 Nb3 Si2 N1 O6
1.0
   7.1061401367187500   -1.9040844440460205    0.0000000000000000
  -1.9040844440460205    7.1061401367187500    0.0000000000000000
   0.0000000000000000    0.0000000000000000    4.5652551651000977
N Si O Nb Li
1 2 6 3 2
direct
   0.6358638405799866    0.1774787604808807    0.0402870252728462 N
   0.6322898268699646    0.2873849570751190    0.3734625577926636 Si
   0.2873849570751190    0.6322898268699646    0.3734625577926636 Si
   0.7702885270118713    0.5911942720413208    0.5545476078987122 O
   0.4088057279586792    0.1790942549705505    0.5545476078987122 O
   0.8209057450294495    0.2297114729881287    0.5545476078987122 O
   0.5911942720413208    0.7702885270118713    0.5545476078987122 O
   0.1790942549705505    0.4088057279586792    0.5545476078987122 O
   0.2297114729881287    0.8209057450294495    0.5545476078987122 O
   0.9643819928169250    0.7508783340454102    0.8029821515083313 Nb
   0.2491216659545898    0.2135036587715149    0.8029821515083313 Nb
   0.7864963412284851    0.0356180071830750    0.8029821515083313 Nb
   0.4327469468116760    0.7857997417449951    0.8237113952636719 Li
   0.7857997417449951    0.4327469468116760    0.8237113952636719 Li
