Al4 Br2 N4 O2
1.0
   5.0597681999206543    0.0000000000000000    0.0000000000000000
   0.0000000000000000    5.2606945037841797    0.0000000000000000
   0.0000000000000000    0.0000000000000000    9.4716958999633789
N O N Br Al
2 2 2 2 4
direct
   0.8945800662040710    0.4974913299083710    0.0717813223600388 N
   0.1054199337959290    0.5025086402893066    0.5717813372612000 N
   0.4233743548393250    0.5157595276832581    0.3765738010406494 O
   0.5766256451606750    0.4842404723167419    0.8765738010406494 O
   0.5739288926124573    0.0176934842020273    0.0368594676256180 N
   0.4260711073875427    0.9823065400123596    0.5368594527244568 N
   0.0222625862807035    0.0042410832829773    0.3054116964340210 Br
   0.9777374267578125    0.9957588911056519    0.8054116964340210 Br
   0.7265530824661255    0.2638850808143616    0.9985830187797546 Al
   0.2734469175338745    0.7361149191856384    0.4985830783843994 Al
   0.2734469175338745    0.2638850808143616    0.5014169812202454 Al
   0.7265530824661255    0.7361149191856384    0.0014169812202454 Al
