H12 O8
1.0
   6.8636384010314941    0.0000000000000000    0.0000000000000000
   0.0000000000000000    6.8636384010314941    0.0000000000000000
   0.0000000000000000    0.0000000000000000    4.9692597389221191
O H
8 12
direct
   0.2473191320896149    0.5252935290336609    0.1179462894797325 O
   0.9747064709663391    0.2473191320896149    0.6179462671279907 O
   0.2526808679103851    0.9747064709663391    0.8820537328720093 O
   0.5252935290336609    0.2526808679103851    0.3820537030696869 O
   0.7526808977127075    0.4747064709663391    0.8820537328720093 O
   0.0252935886383057    0.7526808977127075    0.3820537030696869 O
   0.7473191022872925    0.0252935886383057    0.1179462894797325 O
   0.4747064709663391    0.7473191022872925    0.6179462671279907 O
   0.8771211504936218    0.2384980916976929    0.2021476179361343 H
   0.6228788495063782    0.2615019083023071    0.7978523969650269 H
   0.7615019083023071    0.3771212100982666    0.7021476030349731 H
   0.7384980916976929    0.1228788495063782    0.2978523969650269 H
   0.7076381444931030    0.5606765747070312    0.9985141754150391 H
   0.7923618555068970    0.9393234252929688    0.0014858538052067 H
   0.9393234252929688    0.7076381444931030    0.4985141456127167 H
   0.5606765747070312    0.7923618555068970    0.5014858245849609 H
   0.2923618555068970    0.4393234252929688    0.0014858538052067 H
   0.2076381444931030    0.0606765747070312    0.9985141754150391 H
   0.0606765747070312    0.2923618555068970    0.5014858245849609 H
   0.4393234252929688    0.2076381444931030    0.4985141456127167 H
