Bi8
1.0
   3.0635750293731689    0.0000000000000000    0.0000000000000000
   0.0000000000000000    3.2189881801605225    0.0000000000000000
   0.0000000000000000    0.0000000000000000    3.6435568332672119
Bi
8
direct
   0.3910209536552429    0.1717181205749512    0.5383740663528442 Bi
   0.3910209536552429    0.1717181205749512    0.5383740663528442 Bi
   0.3910209536552429    0.1717181205749512    0.5383740663528442 Bi
   0.1089790463447571    0.6717181205749512    0.0383740663528442 Bi
   0.3910209536552429    0.1717181205749512    0.5383740663528442 Bi
   0.3910209536552429    0.1717181205749512    0.5383740663528442 Bi
   0.3910209536552429    0.1717181205749512    0.5383740663528442 Bi
   0.3910209536552429    0.1717181205749512    0.5383740663528442 Bi
