B12 O4
1.0
   5.2121977806091309    0.0000000000000000    0.0000000000000000
   0.0000000000000000    5.2121977806091309    0.0000000000000000
   0.0000000000000000    0.0000000000000000    5.2121977806091309
O B O
1 12 3
direct
   0.0757262408733368    0.7322803139686584    0.8310485482215881 O
   0.3921827375888824    0.1442619413137436    0.2997365295886993 B
   0.6078172922134399    0.8557380437850952    0.7002635002136230 B
   0.2997365295886993    0.3921827375888824    0.1442619413137436 B
   0.7002635002136230    0.6078172922134399    0.8557380437850952 B
   0.1442619413137436    0.2997365295886993    0.3921827375888824 B
   0.8557380437850952    0.7002635002136230    0.6078172922134399 B
   0.8557380437850952    0.3921827375888824    0.2997365295886993 B
   0.1442619413137436    0.6078172922134399    0.7002635002136230 B
   0.3921827375888824    0.2997365295886993    0.8557380437850952 B
   0.6078172922134399    0.7002635002136230    0.1442619413137436 B
   0.2997365295886993    0.8557380437850952    0.3921827375888824 B
   0.7002635002136230    0.1442619413137436    0.6078172922134399 B
   0.5458034276962280    0.8727152943611145    0.4065861105918884 O
   0.1272847056388855    0.5458034276962280    0.4065861105918884 O
   0.4065861105918884    0.1272847056388855    0.5458034276962280 O
