W4 O16
1.0
   6.6809940338134766   -1.7901666164398193    0.0000000000000000
  -1.7901666164398193    6.6809940338134766    0.0000000000000000
   0.0000000000000000    0.0000000000000000    8.3958072662353516
O W O
12 4 4
direct
   0.6462894082069397    0.5128253102302551    0.6257944107055664 O
   0.4871746897697449    0.1334640979766846    0.6257944107055664 O
   0.8665359020233154    0.3537105917930603    0.3742055892944336 O
   0.3537105917930603    0.4871746897697449    0.3742055892944336 O
   0.5128253102302551    0.8665359020233154    0.3742055892944336 O
   0.1334640979766846    0.6462894082069397    0.6257944107055664 O
   0.5128253102302551    0.6462894082069397    0.1257944107055664 O
   0.1334640979766846    0.4871746897697449    0.1257944107055664 O
   0.3537105917930603    0.8665359020233154    0.8742055892944336 O
   0.4871746897697449    0.3537105917930603    0.8742055892944336 O
   0.8665359020233154    0.5128253102302551    0.8742055892944336 O
   0.6462894082069397    0.1334640979766846    0.1257944107055664 O
   0.4023749828338623    0.8180688619613647    0.1922241002321243 W
   0.5843061208724976    0.4023749828338623    0.1922241002321243 W
   0.5976250171661377    0.1819311380386353    0.8077759146690369 W
   0.4156938791275024    0.5976250171661377    0.8077759146690369 W
   0.1457230001688004    0.8984036445617676    0.2059813886880875 O
   0.8542770147323608    0.1015963554382324    0.7940186262130737 O
   0.7517467141151428    0.8618385791778564    0.9529166817665100 O
   0.1381614208221436    0.2482532858848572    0.5470833182334900 O
