Ho2 Zr2 Cl12
1.0
   8.9531431198120117    0.0000000000000000    0.0000000000000000
   0.0000000000000000    8.9531431198120117    0.0000000000000000
   0.0000000000000000    0.0000000000000000    6.4153614044189453
Cl Ho Zr Cl
8 2 2 4
direct
   0.2746272981166840    0.0289733689278364    0.6783540248870850 Cl
   0.7253726720809937    0.9710266590118408    0.6783540248870850 Cl
   0.9710266590118408    0.2746272981166840    0.6783540248870850 Cl
   0.0289733689278364    0.7253726720809937    0.6783540248870850 Cl
   0.7746273279190063    0.4710266292095184    0.1783540248870850 Cl
   0.2253727018833160    0.5289733409881592    0.1783540248870850 Cl
   0.4710266292095184    0.2253727018833160    0.1783540248870850 Cl
   0.5289733409881592    0.7746273279190063    0.1783540248870850 Cl
   0.4609945714473724    0.9357475042343140    0.3924520909786224 Ho
   0.0390054285526276    0.4357475042343140    0.8924521207809448 Ho
   0.0267020557075739    0.0277665164321661    0.8372698426246643 Zr
   0.4732979536056519    0.5277665257453918    0.3372697830200195 Zr
   0.4294838607311249    0.6829084157943726    0.6228481531143188 Cl
   0.3170915842056274    0.4294838607311249    0.6228481531143188 Cl
   0.0705161392688751    0.1829084157943726    0.1228481531143188 Cl
   0.1829084157943726    0.9294838905334473    0.1228481531143188 Cl
