Pm4 Te2
1.0
   4.9945073127746582    0.0000000000000000    0.0000000000000000
   0.0000000000000000    4.9945073127746582    0.0000000000000000
   0.0000000000000000    0.0000000000000000    8.2587203979492188
Te Pm
2 4
direct
   0.5002867579460144    0.4984346926212311    0.7442247271537781 Te
   0.4997132420539856    0.5015653371810913    0.2557752728462219 Te
   0.0145868174731731    0.4867875277996063    0.0226937700062990 Pm
   0.5132124423980713    0.0145868174731731    0.0226937700062990 Pm
   0.0145868174731731    0.4867875277996063    0.5226937532424927 Pm
   0.5132124423980713    0.0145868174731731    0.5226937532424927 Pm
