K2 Cd8 Br8
1.0
   8.7443742752075195    0.0000000000000000    0.0000000000000000
   0.0000000000000000    8.7443742752075195    0.0000000000000000
   0.0000000000000000    0.0000000000000000    9.5033349990844727
Br Cd K
8 8 2
direct
   0.1485233306884766    0.6965121030807495    0.2401860058307648 Br
   0.8514766693115234    0.3034878969192505    0.2401860058307648 Br
   0.3034878969192505    0.1485233306884766    0.7401859760284424 Br
   0.6965121030807495    0.8514766693115234    0.7401859760284424 Br
   0.1485233306884766    0.6965121030807495    0.7598140239715576 Br
   0.8514766693115234    0.3034878969192505    0.7598140239715576 Br
   0.6965121030807495    0.8514766693115234    0.2598139941692352 Br
   0.3034878969192505    0.1485233306884766    0.2598139941692352 Br
   0.6048447489738464    0.1782484948635101    0.2221638709306717 Cd
   0.3951552510261536    0.8217514753341675    0.2221638709306717 Cd
   0.8217514753341675    0.6048447489738464    0.7221638560295105 Cd
   0.1782484948635101    0.3951552510261536    0.7221638560295105 Cd
   0.3951552510261536    0.8217514753341675    0.7778361439704895 Cd
   0.6048447489738464    0.1782484948635101    0.7778361439704895 Cd
   0.1782484948635101    0.3951552510261536    0.2778361439704895 Cd
   0.8217514753341675    0.6048447489738464    0.2778361439704895 Cd
   0.9934952259063721    0.9650424122810364    0.9936044812202454 K
   0.0349575877189636    0.9934952259063721    0.4936044216156006 K
