Hg2 S8
1.0
   8.4322290420532227    0.0000000000000000   -1.1053771972656250
   0.0000000000000000    5.7946057319641113    0.0000000000000000
  -1.1053771972656250    0.0000000000000000    5.9358615875244141
S Hg
8 2
direct
   0.1574248671531677    0.7998701930046082    0.6097252368927002 S
   0.8425751328468323    0.7998701930046082    0.3902747631072998 S
   0.6574248671531677    0.2998702526092529    0.6097252368927002 S
   0.3425751328468323    0.2998702526092529    0.3902747631072998 S
   0.1545441597700119    0.1566616296768188    0.2711397111415863 S
   0.8454558253288269    0.1566616296768188    0.7288602590560913 S
   0.6545441746711731    0.6566616296768188    0.2711397111415863 S
   0.3454558253288269    0.6566616296768188    0.7288602590560913 S
   0.3683737516403198    0.0987977087497711    0.9540858268737793 Hg
   0.8683737516403198    0.5987976789474487    0.9540858268737793 Hg
