Cl16
1.0
   8.8972301483154297    0.0000000000000000    0.0000000000000000
   0.0000000000000000    8.8972301483154297    0.0000000000000000
   0.0000000000000000    0.0000000000000000    8.8972301483154297
Cl
16
direct
   0.7447369694709778    0.1851896643638611    0.6491781473159790 Cl
   0.1851896643638611    0.2552630305290222    0.3508218526840210 Cl
   0.8148103356361389    0.7447369694709778    0.3508218526840210 Cl
   0.2552630305290222    0.8148103356361389    0.6491781473159790 Cl
   0.2552630305290222    0.8148103356361389    0.3508218526840210 Cl
   0.8148103356361389    0.7447369694709778    0.6491781473159790 Cl
   0.1851896643638611    0.2552630305290222    0.6491781473159790 Cl
   0.7447369694709778    0.1851896643638611    0.3508218526840210 Cl
   0.0648103356361389    0.4947369098663330    0.6008218526840210 Cl
   0.5052630305290222    0.5648103356361389    0.8991781473159790 Cl
   0.9947369694709778    0.9351896643638611    0.8991781473159790 Cl
   0.4351896643638611    0.0052630305290222    0.6008218526840210 Cl
   0.4351896643638611    0.0052630305290222    0.8991781473159790 Cl
   0.9947369694709778    0.9351896643638611    0.6008218526840210 Cl
   0.5052630305290222    0.5648103356361389    0.6008218526840210 Cl
   0.0648103356361389    0.4947369098663330    0.8991781473159790 Cl
