O8
1.0
   4.9264435768127441    0.0000000000000000    0.0000000000000000
   0.0000000000000000    4.9264435768127441    0.0000000000000000
   0.0000000000000000    0.0000000000000000    4.9264435768127441
O
8
direct
   0.3813979029655457    0.4497571885585785    0.6043840050697327 O
   0.6186020970344543    0.0502428114414215    0.8956159949302673 O
   0.6186020970344543    0.5502427816390991    0.3956159949302673 O
   0.3813979029655457    0.9497572183609009    0.1043839454650879 O
   0.8813979029655457    0.9497572183609009    0.1043839454650879 O
   0.1186020970344543    0.5502427816390991    0.3956159949302673 O
   0.1186020970344543    0.0502428114414215    0.8956159949302673 O
   0.8813979029655457    0.4497571885585785    0.6043840050697327 O
