Zr2 Fe2 F14
1.0
  11.0018091201782227    0.0000000000000000    0.0000000000000000
   0.0000000000000000    6.8518981933593750    0.0000000000000000
   0.0000000000000000    0.0000000000000000    4.3333024978637695
F Fe F Zr
12 2 2 2
direct
   0.8806118965148926    0.2206976711750031    0.7593065500259399 F
   0.1193881034851074    0.7793023586273193    0.7593065500259399 F
   0.8806118965148926    0.7793023586273193    0.7593065500259399 F
   0.1193881034851074    0.2206976711750031    0.7593065500259399 F
   0.3806118965148926    0.7206976413726807    0.7593065500259399 F
   0.6193881034851074    0.2793023288249969    0.7593065500259399 F
   0.3806118965148926    0.2793023288249969    0.7593065500259399 F
   0.6193881034851074    0.7206976413726807    0.7593065500259399 F
   0.3378517031669617    0.9809521436691284    0.2142982780933380 F
   0.6621482968330383    0.0190478563308716    0.2142982780933380 F
   0.8378517031669617    0.4809521436691284    0.2142982780933380 F
   0.1621482968330383    0.5190478563308716    0.2142982780933380 F
   0.4843308031558990    0.8111491799354553    0.1125572696328163 Fe
   0.9843307733535767    0.3111491203308105    0.1125572696328163 Fe
   0.0213102642446756    0.0124878976494074    0.2385690063238144 F
   0.5213102698326111    0.5124878883361816    0.2385690063238144 F
   0.6421869397163391    0.3278909325599670    0.1211521923542023 Zr
   0.1421868801116943    0.8278909325599670    0.1211521923542023 Zr
