Nb4 O10
1.0
   4.9555025100708008   -1.3278229236602783    0.0000000000000000
  -1.3278229236602783    4.9555025100708008    0.0000000000000000
   0.0000000000000000    0.0000000000000000    9.6255092620849609
Nb O
4 10
direct
   0.2693979442119598    0.6918181777000427    0.6137990951538086 Nb
   0.2693979442119598    0.6918181777000427    0.1137990951538086 Nb
   0.7306020259857178    0.3081818222999573    0.8862009048461914 Nb
   0.7306020259857178    0.3081818222999573    0.3862009048461914 Nb
   0.0044839619658887    0.5009785294532776    0.2540714740753174 O
   0.9955160617828369    0.4990214705467224    0.7459285259246826 O
   0.5035054683685303    0.0044839619658887    0.2540714740753174 O
   0.4964945614337921    0.9955160617828369    0.7459285259246826 O
   0.4636618196964264    0.4891689121723175    0.9991539716720581 O
   0.5108311176300049    0.9744929075241089    0.9991539716720581 O
   0.9744929075241089    0.4636618196964264    0.9991539716720581 O
   0.4636618196964264    0.4891689121723175    0.4991539716720581 O
   0.5108311176300049    0.9744929075241089    0.4991539716720581 O
   0.9744929075241089    0.4636618196964264    0.4991539716720581 O
