       N       E                     dE             d eps       ncg     rms          rms(c)
DAV:   1     0.908293406359E+03    0.90829E+03   -0.55497E+04  5320   0.148E+03
DAV:   2    -0.275770772205E+02   -0.93587E+03   -0.91010E+03  6390   0.377E+02
DAV:   3    -0.106013007354E+03   -0.78436E+02   -0.76587E+02  7490   0.104E+02
DAV:   4    -0.109737825069E+03   -0.37248E+01   -0.36830E+01  8580   0.189E+01
DAV:   5    -0.109881056007E+03   -0.14323E+00   -0.14298E+00  7390   0.298E+00    0.242E+01
DAV:   6    -0.102248706190E+03    0.76323E+01   -0.57262E+01  6730   0.232E+01    0.114E+01
DAV:   7    -0.102270814846E+03   -0.22109E-01   -0.50809E+00  7180   0.748E+00    0.608E+00
DAV:   8    -0.102321624784E+03   -0.50810E-01   -0.69441E-01  7250   0.338E+00    0.208E+00
DAV:   9    -0.102353284384E+03   -0.31660E-01   -0.20058E-01  7210   0.161E+00    0.816E-01
DAV:  10    -0.102357513615E+03   -0.42292E-02   -0.54154E-02  7350   0.729E-01    0.492E-01
DAV:  11    -0.102364994948E+03   -0.74813E-02   -0.14933E-02  6800   0.385E-01    0.350E-01
DAV:  12    -0.102372372498E+03   -0.73776E-02   -0.10612E-02  6900   0.315E-01    0.241E-01
DAV:  13    -0.102375871518E+03   -0.34990E-02   -0.77577E-03  7210   0.257E-01    0.159E-01
DAV:  14    -0.102377142892E+03   -0.12714E-02   -0.39696E-03  7050   0.188E-01    0.813E-02
DAV:  15    -0.102377613715E+03   -0.47082E-03   -0.17472E-03  7280   0.122E-01    0.444E-02
DAV:  16    -0.102377710566E+03   -0.96851E-04   -0.34870E-04  7440   0.529E-02    0.319E-02
DAV:  17    -0.102377746125E+03   -0.35559E-04   -0.12896E-04  7300   0.311E-02    0.230E-02
DAV:  18    -0.102377790793E+03   -0.44668E-04   -0.26184E-04  7290   0.378E-02    0.140E-02
DAV:  19    -0.102377806329E+03   -0.15535E-04   -0.10031E-04  7510   0.210E-02    0.933E-03
DAV:  20    -0.102377814520E+03   -0.81916E-05   -0.79748E-05  7290   0.172E-02    0.483E-03
DAV:  21    -0.102377817464E+03   -0.29434E-05   -0.30828E-05  7130   0.104E-02    0.298E-03
DAV:  22    -0.102377818520E+03   -0.10564E-05   -0.13248E-05  6800   0.694E-03    0.144E-03
DAV:  23    -0.102377818843E+03   -0.32335E-06   -0.24726E-06  4420   0.330E-03
   1 F= -.10237782E+03 E0= -.10237146E+03  d E =-.102378E+03  mag=     0.4367
       N       E                     dE             d eps       ncg     rms          rms(c)
DAV:   1    -0.100843560256E+03    0.15343E+01   -0.16618E+03  5370   0.169E+02    0.124E+01
DAV:   2    -0.108992699089E+03   -0.81491E+01   -0.11002E+02  7080   0.370E+01    0.123E+01
DAV:   3    -0.107652459399E+03    0.13402E+01   -0.55536E+00  7760   0.844E+00    0.787E+00
DAV:   4    -0.106918370002E+03    0.73409E+00   -0.24327E+00  7640   0.557E+00    0.268E+00
DAV:   5    -0.106939599806E+03   -0.21230E-01   -0.78691E-01  9080   0.259E+00    0.179E+00
DAV:   6    -0.106929896334E+03    0.97035E-02   -0.39449E-01  7930   0.134E+00    0.116E+00
DAV:   7    -0.106940523583E+03   -0.10627E-01   -0.55404E-02  7590   0.744E-01    0.602E-01
DAV:   8    -0.106946417095E+03   -0.58935E-02   -0.21149E-02  7410   0.556E-01    0.189E-01
DAV:   9    -0.106946455971E+03   -0.38876E-04   -0.79882E-03  7640   0.254E-01    0.113E-01
DAV:  10    -0.106946395424E+03    0.60547E-04   -0.21230E-03  7000   0.134E-01    0.395E-02
DAV:  11    -0.106946443084E+03   -0.47660E-04   -0.20501E-04  6670   0.546E-02    0.252E-02
DAV:  12    -0.106946487698E+03   -0.44613E-04   -0.76242E-05  7280   0.279E-02    0.193E-02
DAV:  13    -0.106946519049E+03   -0.31352E-04   -0.70321E-05  7110   0.226E-02    0.125E-02
DAV:  14    -0.106946529973E+03   -0.10923E-04   -0.29511E-05  6850   0.140E-02    0.104E-02
DAV:  15    -0.106946537796E+03   -0.78230E-05   -0.23202E-05  6500   0.119E-02    0.808E-03
DAV:  16    -0.106946542863E+03   -0.50669E-05   -0.18306E-05  6560   0.101E-02    0.687E-03
DAV:  17    -0.106946548604E+03   -0.57414E-05   -0.44499E-05  6620   0.140E-02    0.514E-03
DAV:  18    -0.106946552591E+03   -0.39868E-05   -0.35561E-05  6690   0.120E-02    0.431E-03
DAV:  19    -0.106946555723E+03   -0.31315E-05   -0.48264E-05  6590   0.132E-02    0.308E-03
DAV:  20    -0.106946557600E+03   -0.18772E-05   -0.28335E-05  6750   0.981E-03    0.238E-03
DAV:  21    -0.106946558584E+03   -0.98380E-06   -0.12601E-05  5960   0.639E-03    0.172E-03
DAV:  22    -0.106946559073E+03   -0.48914E-06   -0.73204E-06  4710   0.471E-03
   2 F= -.10694656E+03 E0= -.10694194E+03  d E =-.456874E+01  mag=     0.0013
       N       E                     dE             d eps       ncg     rms          rms(c)
DAV:   1    -0.107593441729E+03   -0.64688E+00   -0.76194E+01  5320   0.354E+01    0.365E+00
DAV:   2    -0.107622651861E+03   -0.29210E-01   -0.37570E+00  6780   0.707E+00    0.240E+00
DAV:   3    -0.107543723923E+03    0.78928E-01   -0.49889E-01  7080   0.250E+00    0.103E+00
DAV:   4    -0.107524008094E+03    0.19716E-01   -0.10375E-01  7120   0.122E+00    0.269E-01
DAV:   5    -0.107525404884E+03   -0.13968E-02   -0.18331E-02  8750   0.426E-01    0.211E-01
DAV:   6    -0.107525829581E+03   -0.42470E-03   -0.21931E-03  7640   0.145E-01    0.165E-01
DAV:   7    -0.107526220179E+03   -0.39060E-03   -0.99965E-04  8410   0.883E-02    0.112E-01
DAV:   8    -0.107526466724E+03   -0.24655E-03   -0.98266E-04  7200   0.112E-01    0.434E-02
DAV:   9    -0.107526443661E+03    0.23063E-04   -0.28423E-04  8570   0.552E-02    0.167E-02
DAV:  10    -0.107526445610E+03   -0.19482E-05   -0.26121E-05  6270   0.200E-02    0.681E-03
DAV:  11    -0.107526446633E+03   -0.10230E-05   -0.58322E-06  4810   0.783E-03    0.420E-03
DAV:  12    -0.107526447402E+03   -0.76943E-06   -0.27024E-06  4100   0.508E-03
   3 F= -.10752645E+03 E0= -.10752272E+03  d E =-.514863E+01  mag=    -0.0001
       N       E                     dE             d eps       ncg     rms          rms(c)
DAV:   1    -0.108495804399E+03   -0.96936E+00   -0.29734E+02  5320   0.694E+01    0.630E+00
DAV:   2    -0.108681291685E+03   -0.18549E+00   -0.12888E+01  6820   0.127E+01    0.458E+00
DAV:   3    -0.108424879642E+03    0.25641E+00   -0.20798E+00  7240   0.434E+00    0.234E+00
DAV:   4    -0.108323197858E+03    0.10168E+00   -0.46287E-01  6900   0.241E+00    0.711E-01
DAV:   5    -0.108325184786E+03   -0.19869E-02   -0.11745E-01  9200   0.110E+00    0.533E-01
DAV:   6    -0.108324811820E+03    0.37297E-03   -0.22906E-02  7520   0.432E-01    0.365E-01
DAV:   7    -0.108326116908E+03   -0.13051E-02   -0.37246E-03  7240   0.184E-01    0.273E-01
DAV:   8    -0.108327639480E+03   -0.15226E-02   -0.43393E-03  7560   0.221E-01    0.148E-01
DAV:   9    -0.108327794112E+03   -0.15463E-03   -0.36213E-03  8110   0.170E-01    0.940E-02
DAV:  10    -0.108327695252E+03    0.98860E-04   -0.13425E-03  7800   0.852E-02    0.411E-02
DAV:  11    -0.108327682174E+03    0.13078E-04   -0.15596E-04  6710   0.413E-02    0.131E-02
DAV:  12    -0.108327684601E+03   -0.24270E-05   -0.18587E-05  6800   0.163E-02    0.697E-03
DAV:  13    -0.108327685885E+03   -0.12837E-05   -0.30148E-06  4600   0.713E-03    0.394E-03
DAV:  14    -0.108327686735E+03   -0.85020E-06   -0.14571E-06  3800   0.416E-03
   4 F= -.10832769E+03 E0= -.10832299E+03  d E =-.594987E+01  mag=    -0.0000
       N       E                     dE             d eps       ncg     rms          rms(c)
DAV:   1    -0.112623571160E+03   -0.42959E+01   -0.90038E+02  5320   0.127E+02    0.156E+01
DAV:   2    -0.113027615951E+03   -0.40404E+00   -0.46270E+01  6520   0.276E+01    0.600E+00
DAV:   3    -0.112418336859E+03    0.60928E+00   -0.26339E+00  7820   0.699E+00    0.326E+00
DAV:   4    -0.112317591871E+03    0.10074E+00   -0.12109E+00  7580   0.387E+00    0.151E+00
DAV:   5    -0.112312899711E+03    0.46922E-02   -0.39216E-01  8430   0.180E+00    0.905E-01
DAV:   6    -0.112320479341E+03   -0.75796E-02   -0.53240E-02  7260   0.699E-01    0.680E-01
DAV:   7    -0.112329939518E+03   -0.94602E-02   -0.20463E-02  7640   0.519E-01    0.299E-01
DAV:   8    -0.112331647256E+03   -0.17077E-02   -0.12439E-02  9540   0.398E-01    0.128E-01
DAV:   9    -0.112331676555E+03   -0.29299E-04   -0.29058E-03  7540   0.158E-01    0.776E-02
DAV:  10    -0.112331625347E+03    0.51209E-04   -0.91036E-04  6820   0.796E-02    0.385E-02
DAV:  11    -0.112331622782E+03    0.25648E-05   -0.20009E-04  6800   0.470E-02    0.254E-02
DAV:  12    -0.112331632802E+03   -0.10020E-04   -0.13140E-04  7510   0.246E-02    0.205E-02
DAV:  13    -0.112331649330E+03   -0.16528E-04   -0.79128E-05  6420   0.140E-02    0.234E-02
DAV:  14    -0.112331643214E+03    0.61165E-05   -0.10657E-05  4680   0.637E-03    0.228E-02
DAV:  15    -0.112331598629E+03    0.44585E-04   -0.77057E-04  6640   0.345E-02    0.116E-02
DAV:  16    -0.112331591339E+03    0.72901E-05   -0.35863E-04  6510   0.262E-02    0.604E-03
DAV:  17    -0.112331594842E+03   -0.35038E-05   -0.14650E-05  5690   0.110E-02    0.308E-03
DAV:  18    -0.112331594480E+03    0.36265E-06   -0.84374E-06  4940   0.518E-03
   5 F= -.11233159E+03 E0= -.11232677E+03  d E =-.400391E+01  mag=    -0.0001
       N       E                     dE             d eps       ncg     rms          rms(c)
DAV:   1    -0.112363999580E+03   -0.32405E-01   -0.41042E+00  5320   0.870E+00    0.899E-01
DAV:   2    -0.112364137158E+03   -0.13758E-03   -0.13576E-01  6700   0.148E+00    0.443E-01
DAV:   3    -0.112361527356E+03    0.26098E-02   -0.79221E-03  7400   0.371E-01    0.208E-01
DAV:   4    -0.112361273325E+03    0.25403E-03   -0.48348E-03  9140   0.227E-01    0.906E-02
DAV:   5    -0.112361229615E+03    0.43710E-04   -0.97629E-04  7400   0.829E-02    0.605E-02
DAV:   6    -0.112361243363E+03   -0.13748E-04   -0.80546E-05  6860   0.353E-02    0.415E-02
DAV:   7    -0.112361259921E+03   -0.16558E-04   -0.63576E-05  7420   0.329E-02    0.166E-02
DAV:   8    -0.112361256553E+03    0.33677E-05   -0.60758E-05  8650   0.193E-02    0.102E-02
DAV:   9    -0.112361254505E+03    0.20480E-05   -0.16356E-05  5950   0.102E-02    0.369E-03
DAV:  10    -0.112361254493E+03    0.12420E-07   -0.19520E-06  3750   0.455E-03
   6 F= -.11236125E+03 E0= -.11235658E+03  d E =-.403357E+01  mag=    -0.0000
       N       E                     dE             d eps       ncg     rms          rms(c)
DAV:   1    -0.113643430542E+03   -0.12822E+01   -0.41960E+02  5320   0.871E+01    0.890E+00
DAV:   2    -0.114356768474E+03   -0.71334E+00   -0.18564E+01  6800   0.170E+01    0.395E+00
DAV:   3    -0.114218766962E+03    0.13800E+00   -0.96786E-01  7820   0.392E+00    0.204E+00
DAV:   4    -0.114199122600E+03    0.19644E-01   -0.21292E-01  6740   0.168E+00    0.966E-01
DAV:   5    -0.114200718533E+03   -0.15959E-02   -0.50847E-02  7840   0.816E-01    0.451E-01
DAV:   6    -0.114202431588E+03   -0.17131E-02   -0.85417E-03  7480   0.313E-01    0.257E-01
DAV:   7    -0.114203336004E+03   -0.90442E-03   -0.14049E-02  9070   0.235E-01    0.239E-01
DAV:   8    -0.114202792340E+03    0.54366E-03   -0.67076E-03  7140   0.173E-01    0.358E-02
DAV:   9    -0.114202813407E+03   -0.21068E-04   -0.30165E-04  6370   0.649E-02    0.243E-02
DAV:  10    -0.114202826634E+03   -0.13227E-04   -0.14396E-04  7220   0.257E-02    0.228E-02
DAV:  11    -0.114202837059E+03   -0.10424E-04   -0.46841E-05  6190   0.123E-02    0.246E-02
DAV:  12    -0.114202839027E+03   -0.19686E-05   -0.18629E-06  3940   0.396E-03    0.251E-02
DAV:  13    -0.114202821548E+03    0.17479E-04   -0.85469E-05  6150   0.130E-02    0.228E-02
DAV:  14    -0.114202790652E+03    0.30896E-04   -0.72894E-04  6540   0.317E-02    0.129E-02
DAV:  15    -0.114202791797E+03   -0.11441E-05   -0.74060E-05  6410   0.149E-02    0.726E-03
DAV:  16    -0.114202792300E+03   -0.50379E-06   -0.60175E-06  4930   0.682E-03
   7 F= -.11420279E+03 E0= -.11420063E+03  d E =-.184154E+01  mag=    -0.0000
       N       E                     dE             d eps       ncg     rms          rms(c)
DAV:   1    -0.114215264421E+03   -0.12473E-01   -0.42212E+00  5320   0.879E+00    0.922E-01
DAV:   2    -0.114219768630E+03   -0.45042E-02   -0.14583E-01  6640   0.153E+00    0.410E-01
DAV:   3    -0.114218493035E+03    0.12756E-02   -0.80650E-03  7480   0.337E-01    0.172E-01
DAV:   4    -0.114218475826E+03    0.17209E-04   -0.12555E-03  7180   0.130E-01    0.673E-02
DAV:   5    -0.114218507332E+03   -0.31506E-04   -0.34642E-04  8490   0.547E-02    0.410E-02
DAV:   6    -0.114218514045E+03   -0.67134E-05   -0.21928E-04  7850   0.329E-02    0.286E-02
DAV:   7    -0.114218515670E+03   -0.16246E-05   -0.87144E-05  7350   0.225E-02    0.154E-02
DAV:   8    -0.114218522227E+03   -0.65569E-05   -0.33770E-05  6320   0.149E-02    0.665E-03
DAV:   9    -0.114218523975E+03   -0.17485E-05   -0.12166E-05  4800   0.636E-03    0.765E-03
DAV:  10    -0.114218525397E+03   -0.14215E-05   -0.69701E-06  4000   0.427E-03    0.788E-03
DAV:  11    -0.114218523477E+03    0.19196E-05   -0.84680E-06  3740   0.387E-03    0.738E-03
DAV:  12    -0.114218517992E+03    0.54849E-05   -0.13740E-04  6560   0.141E-02    0.384E-03
DAV:  13    -0.114218518189E+03   -0.19673E-06   -0.22078E-05  5190   0.746E-03    0.280E-03
DAV:  14    -0.114218518780E+03   -0.59091E-06   -0.29479E-06  3330   0.328E-03
   8 F= -.11421852E+03 E0= -.11421648E+03  d E =-.185726E+01  mag=    -0.0000
       N       E                     dE             d eps       ncg     rms          rms(c)
DAV:   1    -0.115470036712E+03   -0.12515E+01   -0.61502E+01  5320   0.354E+01    0.540E+00
DAV:   2    -0.115193408075E+03    0.27663E+00   -0.32641E+00  7220   0.717E+00    0.235E+00
DAV:   3    -0.115089131342E+03    0.10428E+00   -0.32096E-01  7640   0.240E+00    0.110E+00
DAV:   4    -0.115074953952E+03    0.14177E-01   -0.16914E-01  8660   0.130E+00    0.442E-01
DAV:   5    -0.115077232872E+03   -0.22789E-02   -0.23530E-02  7790   0.471E-01    0.350E-01
DAV:   6    -0.115078600108E+03   -0.13672E-02   -0.26921E-03  7630   0.161E-01    0.279E-01
DAV:   7    -0.115080087521E+03   -0.14874E-02   -0.36169E-03  8450   0.152E-01    0.189E-01
DAV:   8    -0.115080750945E+03   -0.66342E-03   -0.39410E-03  7810   0.192E-01    0.622E-02
DAV:   9    -0.115080788680E+03   -0.37736E-04   -0.59584E-04  7590   0.711E-02    0.351E-02
DAV:  10    -0.115080802051E+03   -0.13371E-04   -0.10454E-04  6900   0.235E-02    0.313E-02
DAV:  11    -0.115080811672E+03   -0.96206E-05   -0.18588E-05  5720   0.842E-03    0.323E-02
DAV:  12    -0.115080797433E+03    0.14238E-04   -0.28868E-05  5400   0.761E-03    0.311E-02
DAV:  13    -0.115080734255E+03    0.63178E-04   -0.87927E-04  6560   0.357E-02    0.214E-02
DAV:  14    -0.115080714851E+03    0.19404E-04   -0.62364E-04  6490   0.330E-02    0.116E-02
DAV:  15    -0.115080721547E+03   -0.66959E-05   -0.98122E-05  6810   0.150E-02    0.940E-03
DAV:  16    -0.115080725134E+03   -0.35872E-05   -0.10573E-05  4950   0.586E-03    0.991E-03
DAV:  17    -0.115080717199E+03    0.79352E-05   -0.11330E-04  6210   0.133E-02    0.843E-03
DAV:  18    -0.115080713694E+03    0.35053E-05   -0.10601E-04  6120   0.128E-02    0.505E-03
DAV:  19    -0.115080714102E+03   -0.40819E-06   -0.12572E-05  5130   0.642E-03    0.274E-03
DAV:  20    -0.115080714161E+03   -0.59164E-07   -0.14587E-05  4800   0.474E-03    0.123E-03
DAV:  21    -0.115080714263E+03   -0.10130E-06   -0.23871E-06  3570   0.277E-03
   9 F= -.11508071E+03 E0= -.11507857E+03  d E =-.862195E+00  mag=    -0.0000
       N       E                     dE             d eps       ncg     rms          rms(c)
DAV:   1    -0.115549217728E+03   -0.46850E+00   -0.38257E+01  5320   0.278E+01    0.421E+00
