Pb4 Br8
1.0
   8.1361484527587891    0.0000000000000000    0.0000000000000000
   0.0000000000000000    8.5618152618408203    0.0000000000000000
   0.0000000000000000    0.0000000000000000    7.7993421554565430
Pb Br
4 8
direct
   0.5003329515457153    0.2514440715312958    0.7538241744041443 Pb
   0.4996670484542847    0.7485558986663818    0.2461758255958557 Pb
   0.0003329515457153    0.7514441013336182    0.2538242340087891 Pb
   0.9996670484542847    0.2485559284687042    0.7461758255958557 Pb
   0.7466190457344055    0.5004919767379761    0.7536374330520630 Br
   0.2533809542655945    0.4995080232620239    0.7536374330520630 Br
   0.7466190457344055    0.5004919767379761    0.2463625669479370 Br
   0.2533809542655945    0.4995080232620239    0.2463625669479370 Br
   0.2466189861297607    0.0004919767379761    0.2536374330520630 Br
   0.7533809542655945    0.9995080232620239    0.2536374330520630 Br
   0.2466189861297607    0.0004919767379761    0.7463625669479370 Br
   0.7533809542655945    0.9995080232620239    0.7463625669479370 Br
