H2 O6
1.0
   5.1650886535644531   -1.3839814662933350    0.0000000000000000
  -1.3839814662933350    5.1650886535644531    0.0000000000000000
   0.0000000000000000    0.0000000000000000    4.3263711929321289
O H
6 2
direct
   0.3823939859867096    0.3249998688697815    0.7489796876907349 O
   0.6750001311302185    0.0573941171169281    0.7489796876907349 O
   0.9426058530807495    0.6176060438156128    0.7489796876907349 O
   0.3249998688697815    0.9426058530807495    0.2510203123092651 O
   0.6176060438156128    0.6750001311302185    0.2510203123092651 O
   0.0573941171169281    0.3823939859867096    0.2510203123092651 O
   0.4876812696456909    0.1549252122640610    0.6801136136054993 H
   0.5123187303543091    0.8450747728347778    0.3198863863945007 H
