S9
1.0
   6.7949876785278320    0.0000000000000000    0.0000000000000000
   0.0000000000000000    6.7949876785278320    0.0000000000000000
   0.0000000000000000    0.0000000000000000    6.7949876785278320
S
9
direct
   0.1933625042438507    0.6576237678527832    0.6501991748809814 S
   0.8066375255584717    0.3423762321472168    0.6501991748809814 S
   0.3423762321472168    0.1933625042438507    0.3498008251190186 S
   0.6576237678527832    0.8066375255584717    0.3498008251190186 S
   0.1933625042438507    0.6576237678527832    0.3498008251190186 S
   0.8066375255584717    0.3423762321472168    0.3498008251190186 S
   0.6576237678527832    0.8066375255584717    0.6501991748809814 S
   0.3423762321472168    0.1933625042438507    0.6501991748809814 S
   0.6515221595764160    0.1538056135177612    0.8010050058364868 S
