O16
1.0
   6.2372369766235352    0.0000000000000000    0.0000000000000000
   0.0000000000000000    6.2372369766235352    0.0000000000000000
   0.0000000000000000    0.0000000000000000    6.2372369766235352
O
16
direct
   0.8826178312301636    0.0410932414233685    0.1941262930631638 O
   0.6173821687698364    0.4589067697525024    0.1941262930631638 O
   0.1941262930631638    0.8826178312301636    0.0410932414233685 O
   0.1941262930631638    0.6173821687698364    0.4589067697525024 O
   0.0410932414233685    0.1941262930631638    0.8826178312301636 O
   0.4589067697525024    0.1941262930631638    0.6173821687698364 O
   0.1173821687698364    0.9589067697525024    0.8058736920356750 O
   0.3826178312301636    0.5410932302474976    0.8058736920356750 O
   0.8058736920356750    0.1173821687698364    0.9589067697525024 O
   0.8058736920356750    0.3826178312301636    0.5410932302474976 O
   0.9589067697525024    0.8058736920356750    0.1173821687698364 O
   0.5410932302474976    0.8058736920356750    0.3826178312301636 O
   0.5485221743583679    0.5717359185218811    0.6233522891998291 O
   0.9514778256416321    0.9282640814781189    0.6233522891998291 O
   0.9514778256416321    0.5717359185218811    0.8766477108001709 O
   0.5485221743583679    0.9282640814781189    0.8766477108001709 O
