Fe2 O2 F4
1.0
   4.9066500663757324    0.0000000000000000    0.0000000000000000
   0.0000000000000000    5.3765358924865723    0.0000000000000000
   0.0000000000000000    0.0000000000000000    4.9666042327880859
Fe O F
2 2 4
direct
   0.2499924153089523    0.0037692328915000    0.7688901424407959 Fe
   0.7500075697898865    0.9962307810783386    0.2311098575592041 Fe
   0.4813753366470337    0.9902822971343994    0.0788269564509392 O
   0.0186246633529663    0.0097177028656006    0.0788269564509392 O
   0.7893834114074707    0.4945837557315826    0.1362671852111816 F
   0.2106165885925293    0.5054162740707397    0.8637328147888184 F
   0.5912086963653564    0.1731003075838089    0.5512641072273254 F
   0.9087913036346436    0.8268997073173523    0.5512641072273254 F
