Ag1 B1 H2 C2 O3
1.0
   4.2847881317138672    0.0000000000000000    0.0000000000000000
   0.0000000000000000    4.2847881317138672    0.0000000000000000
   0.0000000000000000    0.0000000000000000    5.4309048652648926
H Ag O C B
2 1 3 2 1
direct
   0.1862507760524750    0.5034667849540710    0.9360773563385010 H
   0.4965332150459290    0.1862507760524750    0.9360773563385010 H
   0.4453196823596954    0.6115682721138000    0.4522325396537781 Ag
   0.9386172294616699    0.3843567669391632    0.4130993783473969 O
   0.1592229008674622    0.9981851577758789    0.3091790676116943 O
   0.8407770991325378    0.0018148422241211    0.6908209323883057 O
   0.5976818799972534    0.0046510151587427    0.8301934599876404 C
   0.9953489899635315    0.5976818799972534    0.8301934599876404 C
   0.9667434692382812    0.1061504036188126    0.4503179192543030 B
