Ni16
1.0
   5.8432989120483398    0.0000000000000000    0.0000000000000000
   0.0000000000000000    5.8432989120483398    0.0000000000000000
   0.0000000000000000    0.0000000000000000    5.8432989120483398
Ni
16
direct
   0.0493086352944374    0.6549990177154541    0.2548177242279053 Ni
   0.9506913423538208    0.3450009822845459    0.7451822757720947 Ni
   0.2548177242279053    0.0493086352944374    0.6549990177154541 Ni
   0.7451822757720947    0.9506913423538208    0.3450009822845459 Ni
   0.6549990177154541    0.2548177242279053    0.0493086352944374 Ni
   0.3450009822845459    0.7451822757720947    0.9506913423538208 Ni
   0.3450009822845459    0.0493086352944374    0.2548177242279053 Ni
   0.6549990177154541    0.9506913423538208    0.7451822757720947 Ni
   0.0493086352944374    0.2548177242279053    0.3450009822845459 Ni
   0.9506913423538208    0.7451822757720947    0.6549990177154541 Ni
   0.2548177242279053    0.3450009822845459    0.0493086352944374 Ni
   0.7451822757720947    0.6549990177154541    0.9506913423538208 Ni
   0.2614565193653107    0.4659272730350494    0.5494544506072998 Ni
   0.5340727567672729    0.2614565193653107    0.5494544506072998 Ni
   0.5494544506072998    0.5340727567672729    0.2614565193653107 Ni
   0.9741971492767334    0.0273209959268570    0.0123300012201071 Ni
