Sr4 I8
1.0
   7.0085926055908203    0.0000000000000000    0.0000000000000000
   0.0000000000000000   13.3719902038574219    0.0000000000000000
   0.0000000000000000    0.0000000000000000    6.4924163818359375
I Sr
8 4
direct
   0.2642839848995209    0.8722917437553406    0.9861163496971130 I
   0.2357160151004791    0.6277082562446594    0.4861164093017578 I
   0.7357159852981567    0.8722917437553406    0.5138836503028870 I
   0.7642840147018433    0.6277082562446594    0.0138836503028870 I
   0.7357159852981567    0.1277082562446594    0.0138836503028870 I
   0.7642840147018433    0.3722918033599854    0.5138836503028870 I
   0.2642839848995209    0.1277082562446594    0.4861164093017578 I
   0.2357160151004791    0.3722918033599854    0.9861163496971130 I
   0.2324767261743546    0.8922167420387268    0.4779627919197083 Sr
   0.2675232887268066    0.6077832579612732    0.9779627919197083 Sr
   0.7675232887268066    0.8922167420387268    0.0220372080802917 Sr
   0.7324767112731934    0.6077832579612732    0.5220372080802917 Sr
