H8
1.0
   4.8532543182373047    0.0000000000000000    0.0000000000000000
   0.0000000000000000    4.8532543182373047    0.0000000000000000
   0.0000000000000000    0.0000000000000000    5.6736431121826172
H
8
direct
   0.9283523559570312    0.6617624163627625    0.5826140046119690 H
   0.3382375836372375    0.0716476440429688    0.4173859953880310 H
   0.5716476440429688    0.6617624163627625    0.1673859953880310 H
   0.1617624759674072    0.0716476440429688    0.3326139450073242 H
   0.5716476440429688    0.8382375836372375    0.0826139450073242 H
   0.1617624759674072    0.4283523559570312    0.9173859953880310 H
   0.9283523559570312    0.8382375836372375    0.6673859953880310 H
   0.3382375836372375    0.4283523559570312    0.8326140046119690 H
