V6 B10 N2
1.0
   5.4270544052124023    0.0000000000000000    0.0000000000000000
   0.0000000000000000    5.8425569534301758    0.0000000000000000
   0.0000000000000000    0.0000000000000000    4.8648238182067871
B V N V B
8 2 2 4 2
direct
   0.8462060093879700    0.9161320924758911    0.5377228260040283 B
   0.1537939906120300    0.0838679075241089    0.5377228260040283 B
   0.3462059497833252    0.5838679075241089    0.5377228260040283 B
   0.6537939906120300    0.4161320924758911    0.5377228260040283 B
   0.5887306332588196    0.6526793837547302    0.1261495947837830 B
   0.4112693667411804    0.3473206162452698    0.1261495947837830 B
   0.0887305736541748    0.8473206162452698    0.1261495947837830 B
   0.9112693667411804    0.1526794433593750    0.1261495947837830 B
   0.9898125529289246    0.5090299248695374    0.2987029850482941 V
   0.4898126125335693    0.9909700751304626    0.2987029850482941 V
   0.4948864877223969    0.5010734200477600    0.3250587582588196 N
   0.9948865175247192    0.9989265799522400    0.3250587582588196 N
   0.6568567156791687    0.1637377440929413    0.7964140772819519 V
   0.3431432843208313    0.8362622261047363    0.7964140772819519 V
   0.1568567752838135    0.3362622559070587    0.7964140772819519 V
   0.8431432843208313    0.6637377738952637    0.7964140772819519 V
   0.5051528215408325    0.4960241913795471    0.8398711681365967 B
   0.0051528215408325    0.0039758086204529    0.8398711681365967 B
