Gd4 Mo4 S8
1.0
   8.0163879394531250    0.0000000000000000    0.0000000000000000
   0.0000000000000000    8.0163879394531250    0.0000000000000000
   0.0000000000000000    0.0000000000000000    6.4677238464355469
Mo S Gd
4 8 4
direct
   0.1349799036979675    0.6304132342338562    0.8714196681976318 Mo
   0.3695867657661438    0.1349799036979675    0.8714196681976318 Mo
   0.6304132342338562    0.1349799036979675    0.3714196681976318 Mo
   0.8650200963020325    0.6304132342338562    0.3714196681976318 Mo
   0.8432497382164001    0.6567317247390747    0.7422088384628296 S
   0.1567502617835999    0.3432682752609253    0.7422088384628296 S
   0.3432682752609253    0.8432497382164001    0.7422088384628296 S
   0.6567317247390747    0.1567502617835999    0.7422088384628296 S
   0.6567317247390747    0.8432497382164001    0.2422088384628296 S
   0.3432682752609253    0.1567502617835999    0.2422088384628296 S
   0.1567502617835999    0.6567317247390747    0.2422088384628296 S
   0.8432497382164001    0.3432682752609253    0.2422088384628296 S
   0.8750304579734802    0.3307670354843140    0.8559720516204834 Gd
   0.1249695420265198    0.3307670354843140    0.3559720516204834 Gd
   0.3750305175781250    0.8307670354843140    0.3559720516204834 Gd
   0.6249695420265198    0.8307670354843140    0.8559720516204834 Gd
