F10
1.0
   4.7035970687866211   -1.2603249549865723    0.0000000000000000
  -1.2603249549865723    4.7035970687866211    0.0000000000000000
   0.0000000000000000    0.0000000000000000    7.2779273986816406
F
10
direct
   0.9116734266281128    0.5515365600585938    0.9397904276847839 F
   0.4484634399414062    0.0883265733718872    0.0602095723152161 F
   0.0415066778659821    0.6672475337982178    0.6401943564414978 F
   0.3327524662017822    0.3742591142654419    0.6401943564414978 F
   0.6257408857345581    0.9584933519363403    0.8598056435585022 F
   0.3327524662017822    0.9584933519363403    0.3598056435585022 F
   0.6257408857345581    0.6672475337982178    0.3598056435585022 F
   0.0415066778659821    0.3742591142654419    0.1401944160461426 F
   0.7867061495780945    0.0747253745794296    0.6692541837692261 F
   0.9252746105194092    0.2132938504219055    0.3307458162307739 F
