Pr2 Br8 Cl2
1.0
   7.1006851196289062    0.0000000000000000    0.0000000000000000
   0.0000000000000000    8.0047693252563477    0.0000000000000000
   0.0000000000000000    0.0000000000000000    8.1728477478027344
Br Pr Br Cl
4 2 4 2
direct
   0.1151221022009850    0.0596500299870968    0.1919274181127548 Br
   0.8848779201507568    0.9403499960899353    0.6919274330139160 Br
   0.2829525768756866    0.4397175014019012    0.0224249027669430 Br
   0.7170474529266357    0.5602824687957764    0.5224248766899109 Br
   0.0576604306697845    0.6275878548622131    0.7742993831634521 Pr
   0.9423395395278931    0.3724121451377869    0.2742993831634521 Pr
   0.7955763339996338    0.6773628592491150    0.0867663323879242 Br
   0.2044236660003662    0.3226371407508850    0.5867663621902466 Br
   0.2044236660003662    0.6773628592491150    0.4132336676120758 Br
   0.7955763339996338    0.3226371407508850    0.9132336378097534 Br
   0.6300148963928223    0.1292572617530823    0.3325572311878204 Cl
   0.3699851036071777    0.8707427382469177    0.8325572013854980 Cl
