I8
1.0
   7.3496732711791992    0.0000000000000000    0.0000000000000000
   0.0000000000000000    7.3496732711791992    0.0000000000000000
   0.0000000000000000    0.0000000000000000    7.3496732711791992
I
8
direct
   0.7516000866889954    0.2453680187463760    0.6348268389701843 I
   0.2483999133110046    0.7546319961547852    0.6348268389701843 I
   0.7546319961547852    0.7516000866889954    0.3651731610298157 I
   0.2453680187463760    0.2483999133110046    0.3651731610298157 I
   0.2516000270843506    0.7453680038452148    0.1348268985748291 I
   0.7483999133110046    0.2546319961547852    0.1348268985748291 I
   0.2546319961547852    0.2516000270843506    0.8651731610298157 I
   0.7453680038452148    0.7483999133110046    0.8651731610298157 I
