Br12 Cl8
1.0
  11.0152540206909180    0.0000000000000000    0.0000000000000000
   0.0000000000000000   10.4057102203369141    0.0000000000000000
   0.0000000000000000    0.0000000000000000    8.5293884277343750
Br Cl
12 8
direct
   0.6121619939804077    0.9621404409408569    0.8409702777862549 Br
   0.3878380060195923    0.0378595590591431    0.8409702777862549 Br
   0.8878380060195923    0.4621404409408569    0.6590297222137451 Br
   0.1121619939804077    0.5378595590591431    0.6590297222137451 Br
   0.3878380060195923    0.0378595590591431    0.1590297222137451 Br
   0.6121619939804077    0.9621404409408569    0.1590297222137451 Br
   0.1121619939804077    0.5378595590591431    0.3409702777862549 Br
   0.8878380060195923    0.4621404409408569    0.3409702777862549 Br
   0.6727142930030823    0.3933372199535370    0.9561388492584229 Br
   0.8272857069969177    0.8933372497558594    0.5438611507415771 Br
   0.3272857069969177    0.6066627502441406    0.0438611507415771 Br
   0.1727142333984375    0.1066627800464630    0.4561388492584229 Br
   0.5424509048461914    0.6584416031837463    0.6196261048316956 Cl
   0.4575490951538086    0.3415583968162537    0.6196261048316956 Cl
   0.9575490951538086    0.1584415435791016    0.8803738951683044 Cl
   0.0424509048461914    0.8415583968162537    0.8803738951683044 Cl
   0.4575490951538086    0.3415583968162537    0.3803738951683044 Cl
   0.5424509048461914    0.6584416031837463    0.3803738951683044 Cl
   0.0424509048461914    0.8415583968162537    0.1196260452270508 Cl
   0.9575490951538086    0.1584415435791016    0.1196260452270508 Cl
