Li8
1.0
   6.3394942283630371   -1.6986624002456665    0.0000000000000000
  -1.6986624002456665    6.3394942283630371    0.0000000000000000
   0.0000000000000000    0.0000000000000000    3.6938204765319824
Li
8
direct
   0.3534455895423889    0.9077078700065613    0.7468599081039429 Li
   0.0922921299934387    0.4457377195358276    0.7468599081039429 Li
   0.4457377195358276    0.3534455895423889    0.7468599081039429 Li
   0.6465544104576111    0.0922921299934387    0.2531400918960571 Li
   0.9077078700065613    0.5542622804641724    0.2531400918960571 Li
   0.5542622804641724    0.6465544104576111    0.2531400918960571 Li
   0.8534455895423889    0.9077078700065613    0.7468599081039429 Li
   0.1465544104576111    0.0922921299934387    0.2531400918960571 Li
