H8 Pb2 O8
1.0
   6.5122222900390625    0.0000000000000000    0.0000000000000000
   0.0000000000000000    6.5122222900390625    0.0000000000000000
   0.0000000000000000    0.0000000000000000    5.1313099861145020
O H Pb
8 8 2
direct
   0.6990005373954773    0.1340226083993912    0.6111209988594055 O
   0.3009994626045227    0.8659774065017700    0.6111209988594055 O
   0.8659774065017700    0.6990005373954773    0.6111209988594055 O
   0.1340226083993912    0.3009994626045227    0.6111209988594055 O
   0.1990005970001221    0.6340225934982300    0.1111209392547607 O
   0.8009994626045227    0.3659774065017700    0.1111209392547607 O
   0.3659774065017700    0.1990005970001221    0.1111209392547607 O
   0.6340225934982300    0.8009994626045227    0.1111209392547607 O
   0.6798418164253235    0.0061258329078555    0.7221977710723877 H
   0.3201581835746765    0.9938741922378540    0.7221977710723877 H
   0.9938741922378540    0.6798418164253235    0.7221977710723877 H
   0.0061258329078555    0.3201581835746765    0.7221977710723877 H
   0.1798417568206787    0.5061258077621460    0.2221977710723877 H
   0.8201581835746765    0.4938741624355316    0.2221977710723877 H
   0.4938741624355316    0.1798417568206787    0.2221977710723877 H
   0.5061258077621460    0.8201581835746765    0.2221977710723877 H
   0.4728515744209290    0.5077680945396423    0.7644101381301880 Pb
   0.9728515744209290    0.0077681541442871    0.2644101381301880 Pb
