C3 O1 F8
1.0
   5.6127667427062988    0.0000000000000000    0.0000000000000000
   0.0000000000000000    5.6127667427062988    0.0000000000000000
   0.0000000000000000    0.0000000000000000    5.6127667427062988
C F O F
3 7 1 1
direct
   0.8935638070106506    0.2646178603172302    0.2431658208370209 C
   0.2646178603172302    0.1064361929893494    0.7568341493606567 C
   0.7568341493606567    0.2646178603172302    0.1064361929893494 C
   0.5623598694801331    0.0980705097317696    0.1469230055809021 F
   0.0980705097317696    0.4376401305198669    0.8530769944190979 F
   0.8530769944190979    0.0980705097317696    0.4376401305198669 F
   0.2288740724325180    0.3999550044536591    0.3333516418933868 F
   0.7711259126663208    0.6000449657440186    0.3333516418933868 F
   0.6000449657440186    0.2288740724325180    0.6666483879089355 F
   0.3999550044536591    0.7711259126663208    0.6666483879089355 F
   0.0469489246606827    0.0000584125518799    0.2184865325689316 O
   0.3600293695926666    0.9085993766784668    0.8916701078414917 F
