Se3 S9
1.0
   7.6728348731994629   -2.0559296607971191    0.0000000000000000
  -2.0559296607971191    7.6728348731994629    0.0000000000000000
   0.0000000000000000    0.0000000000000000    7.2215380668640137
S Se S
6 3 3
direct
   0.5903039574623108    0.7323374748229980    0.0531363524496555 S
   0.2676625251770020    0.8579664826393127    0.7198030352592468 S
   0.1420335173606873    0.4096960425376892    0.3864696919918060 S
   0.4096960425376892    0.2676625251770020    0.0531363524496555 S
   0.7323374748229980    0.1420335173606873    0.7198030352592468 S
   0.8579664826393127    0.5903039574623108    0.3864696919918060 S
   0.1950390934944153    0.2027027457952499    0.5938712358474731 Se
   0.7972972393035889    0.9923363327980042    0.2605378627777100 Se
   0.9923363327980042    0.1950390934944153    0.9272046089172363 Se
   0.0198176875710487    0.5868852734565735    0.5884903073310852 S
   0.4131147265434265    0.4329324364662170    0.2551569938659668 S
   0.4329324364662170    0.0198176875710487    0.9218236207962036 S
