Cs1 K1 Rh1 C5 S2
1.0
   5.3122158050537109   -1.4234038591384888    0.0000000000000000
  -1.4234038591384888    5.3122158050537109    0.0000000000000000
   0.0000000000000000    0.0000000000000000    8.7656154632568359
C S Cs Rh K C
2 2 1 1 1 3
direct
   0.8053860068321228    0.4415860772132874    0.5456467866897583 C
   0.6362000703811646    0.1946139931678772    0.4543532133102417 C
   0.7192528247833252    0.7180542945861816    0.6125957369804382 S
   0.9988014698028564    0.2807471752166748    0.3874042630195618 S
   0.6187621951103210    0.8841096162796021    0.0087081845849752 Cs
   0.1765753030776978    0.8913675546646118    0.5230071544647217 Rh
   0.1844763904809952    0.3940192759037018    0.8869761824607849 K
   0.5313388705253601    0.2092997282743454    0.2814463973045349 C
   0.7907002568244934    0.3220391273498535    0.2814463973045349 C
   0.6779608726501465    0.4686611294746399    0.7185536026954651 C
