Rb2 Y1 H1 Pb4 O8
1.0
   7.2160711288452148    0.0000000000000000    0.0000000000000000
   0.0000000000000000    7.2160711288452148    0.0000000000000000
   0.0000000000000000    0.0000000000000000    6.5261955261230469
O Pb O Y Rb H
4 4 4 1 2 1
direct
   0.4243556857109070    0.2878768444061279    0.2415261566638947 O
   0.5756443142890930    0.7121231555938721    0.2415261566638947 O
   0.2878768444061279    0.5756443142890930    0.7584738731384277 O
   0.7121231555938721    0.4243556857109070    0.7584738731384277 O
   0.3091342151165009    0.7851227521896362    0.0186379458755255 Pb
   0.6908657550811768    0.2148772478103638    0.0186379458755255 Pb
   0.7851227521896362    0.6908657550811768    0.9813620448112488 Pb
   0.2148772478103638    0.3091342151165009    0.9813620448112488 Pb
   0.0676373615860939    0.7309139966964722    0.1451911479234695 O
   0.9323626160621643    0.2690860033035278    0.1451911479234695 O
   0.7309139966964722    0.9323626160621643    0.8548088669776917 O
   0.2690860033035278    0.0676373615860939    0.8548088669776917 O
   0.4536067843437195    0.5656754970550537    0.4801107943058014 Y
   0.9077839851379395    0.6262983679771423    0.4922873973846436 Rb
   0.6262983679771423    0.0922160148620605    0.5077126026153564 Rb
   0.1433255374431610    0.4052605032920837    0.2784970402717590 H
