Y4 Se2
1.0
   6.0634012222290039    0.0000000000000000    0.0000000000000000
   0.0000000000000000    6.0634012222290039    0.0000000000000000
   0.0000000000000000    0.0000000000000000    5.3575596809387207
Y Se
4 2
direct
   0.2945947647094727    0.6901587843894958    0.4892546236515045 Y
   0.7054052352905273    0.3098412156105042    0.5107454061508179 Y
   0.8098412156105042    0.7945947647094727    0.9892545938491821 Y
   0.1901588439941406    0.2054052352905273    0.0107453763484955 Y
   0.5027190446853638    0.4920379221439362    0.9677437543869019 Se
   0.0079620778560638    0.0027190446853638    0.4677437543869019 Se
