Li12 O4
1.0
   5.3260798454284668    0.0000000000000000    0.0000000000000000
   0.0000000000000000    5.3260798454284668    0.0000000000000000
   0.0000000000000000    0.0000000000000000    5.7457103729248047
Li O Li O
8 2 4 2
direct
   0.1018089801073074    0.8968703746795654    0.4952715039253235 Li
   0.3981910347938538    0.6031296253204346    0.4952715039253235 Li
   0.6031296253204346    0.1018089801073074    0.9952715039253235 Li
   0.8968703746795654    0.3981910347938538    0.9952715039253235 Li
   0.8968703746795654    0.3981910347938538    0.4952715039253235 Li
   0.6031296253204346    0.1018089801073074    0.4952715039253235 Li
   0.3981910347938538    0.6031296253204346    0.9952715039253235 Li
   0.1018089801073074    0.8968703746795654    0.9952715039253235 Li
   0.8767284750938416    0.1207466721534729    0.7468691468238831 O
   0.3767285346984863    0.8792533278465271    0.2531308531761169 O
   0.2115088701248169    0.2353000938892365    0.2495114207267761 Li
   0.2115088701248169    0.2353000938892365    0.7495114207267761 Li
   0.7115088701248169    0.7646999359130859    0.7504885792732239 Li
   0.7115088701248169    0.7646999359130859    0.2504885792732239 Li
   0.8792533278465271    0.1232715249061584    0.2531308531761169 O
   0.3792533278465271    0.8767284750938416    0.7468691468238831 O
