Mn4 F8
1.0
   5.2156634330749512    0.0000000000000000    0.0000000000000000
   0.0000000000000000    6.0244617462158203    0.0000000000000000
   0.0000000000000000    0.0000000000000000    5.3242497444152832
Mn F
4 8
direct
   0.8463734984397888    0.1511560380458832    0.0448656529188156 Mn
   0.1536265015602112    0.8488439321517944    0.0448656529188156 Mn
   0.8463734984397888    0.6511560678482056    0.5448656678199768 Mn
   0.1536265015602112    0.3488439619541168    0.5448656678199768 Mn
   0.2222261279821396    0.6244019865989685    0.3183901906013489 F
   0.7777738571166992    0.3755980134010315    0.3183901906013489 F
   0.2222261279821396    0.1244020462036133    0.8183901906013489 F
   0.7777738571166992    0.8755980134010315    0.8183901906013489 F
   0.2090239673852921    0.6322966217994690    0.7915753722190857 F
   0.7909760475158691    0.3677033782005310    0.7915753722190857 F
   0.2090239673852921    0.1322965621948242    0.2915754318237305 F
   0.7909760475158691    0.8677033782005310    0.2915754318237305 F
