C8 Cl4 O4
1.0
   6.5373497009277344    0.0000000000000000    0.0000000000000000
   0.0000000000000000    6.5373497009277344    0.0000000000000000
   0.0000000000000000    0.0000000000000000    8.4047117233276367
O C Cl
4 8 4
direct
   0.4962959289550781    0.6108934283256531    0.8245801329612732 O
   0.6108934283256531    0.5037040710449219    0.1754198670387268 O
   0.9302881956100464    0.0217953920364380    0.8342656493186951 O
   0.0217953920364380    0.0697118043899536    0.1657343506813049 O
   0.0858441814780235    0.0485436171293259    0.7298591732978821 C
   0.9141558408737183    0.9514563679695129    0.7298591732978821 C
   0.0485436171293259    0.9141558408737183    0.2701408267021179 C
   0.9514563679695129    0.0858441814780235    0.2701408267021179 C
   0.5858441591262817    0.4514563679695129    0.7298591732978821 C
   0.4141558110713959    0.5485436320304871    0.7298591732978821 C
   0.5485436320304871    0.5858441591262817    0.2701408267021179 C
   0.4514563679695129    0.4141558110713959    0.2701408267021179 C
   0.2608745992183685    0.7813907861709595    0.3518965542316437 Cl
   0.7391253709793091    0.2186092138290405    0.3518965542316437 Cl
   0.7813907861709595    0.7391253709793091    0.6481034755706787 Cl
   0.2186092138290405    0.2608745992183685    0.6481034755706787 Cl
