Cs4 Cd4 Br4 O4
1.0
   7.1898298263549805    0.0000000000000000   -0.6866514682769775
   0.0000000000000000   12.7153682708740234    0.0000000000000000
  -0.6866514086723328    0.0000000000000000    6.0713043212890625
Cd Cs O Br
4 4 4 4
direct
   0.5112432241439819    0.6545322537422180    0.0855917260050774 Cd
   0.5112432241439819    0.3454677462577820    0.0855917260050774 Cd
   0.0112432241439819    0.1545321941375732    0.0855917260050774 Cd
   0.0112432241439819    0.8454677462577820    0.0855917260050774 Cd
   0.5179426670074463    0.1728622913360596    0.6381800770759583 Cs
   0.5179426670074463    0.8271377086639404    0.6381800770759583 Cs
   0.0179426670074463    0.6728622913360596    0.6381800770759583 Cs
   0.0179426670074463    0.3271377086639404    0.6381800770759583 Cs
   0.7803515195846558    0.2822471261024475    0.9755707383155823 O
   0.7803515195846558    0.7177528738975525    0.9755707383155823 O
   0.2803515195846558    0.7822471261024475    0.9755707383155823 O
   0.2803515195846558    0.2177528738975525    0.9755707383155823 O
   0.7067261338233948    0.4810036420822144    0.3924751281738281 Br
   0.2067260742187500    0.9810036420822144    0.3924751281738281 Br
   0.4095478951931000    0.4895926117897034    0.7501672506332397 Br
   0.9095479249954224    0.9895926117897034    0.7501672506332397 Br
