Fe4 O8
1.0
   4.9736690521240234    0.0000000000000000    0.0000000000000000
   0.0000000000000000    5.0365638732910156    0.0000000000000000
   0.0000000000000000    0.0000000000000000    4.8015475273132324
O Fe
8 4
direct
   0.6573330760002136    0.6547849178314209    0.1491664946079254 O
   0.8426669239997864    0.3452150821685791    0.6491664648056030 O
   0.3426669239997864    0.1547849178314209    0.3508335053920746 O
   0.1573331356048584    0.8452150821685791    0.8508335351943970 O
   0.3426669239997864    0.3452150821685791    0.8508335351943970 O
   0.1573331356048584    0.6547849178314209    0.3508335053920746 O
   0.6573330760002136    0.8452150821685791    0.6491664648056030 O
   0.8426669239997864    0.1547849178314209    0.1491664946079254 O
   0.0002882999833673    0.0023239287547767    0.4962933659553528 Fe
   0.5002883076667786    0.0023239287547767    0.9962933659553528 Fe
   0.9997116923332214    0.5023239254951477    0.0037066340446472 Fe
   0.4997116923332214    0.5023239254951477    0.5037066340446472 Fe
