Li2 Ca2 B4 C2 O10
1.0
   4.8317499160766602    0.0000000000000000   -0.5213189125061035
   0.0000000000000000    9.4541091918945312    0.0000000000000000
  -0.5213187932968140    0.0000000000000000    5.2966809272766113
B C O Ca O Li
4 2 1 2 9 2
direct
   0.4205339550971985    0.2121469378471375    0.0981812700629234 B
   0.5794660449028015    0.2121469378471375    0.9018187522888184 B
   0.5794660449028015    0.7878530621528625    0.9018187522888184 B
   0.4205339550971985    0.7878530621528625    0.0981812700629234 B
   0.1896855086088181    0.0162910260260105    0.6761029958724976 C
   0.8103144764900208    0.9837089776992798    0.3238970041275024 C
   0.6248735189437866    0.3417360782623291    0.1433774083852768 O
   0.1786622554063797    0.4302974641323090    0.7624012231826782 Ca
   0.8213377594947815    0.5697025060653687    0.2375987768173218 Ca
   0.6716281771659851    0.8566953539848328    0.1829102933406830 O
   0.3283718228340149    0.8566953539848328    0.8170896768569946 O
   0.3283718228340149    0.1433046460151672    0.8170896768569946 O
   0.6716281771659851    0.1433046460151672    0.1829102933406830 O
   0.9506856203079224    0.9752737879753113    0.5076258778572083 O
   0.7222686409950256    0.3214901685714722    0.8063334226608276 O
   0.2777313590049744    0.3214901685714722    0.1936665773391724 O
   0.2777313590049744    0.6785098314285278    0.1936665773391724 O
   0.7222686409950256    0.6785098314285278    0.8063334226608276 O
   0.0324914008378983    0.7839270830154419    0.7417343854904175 Li
   0.9675086140632629    0.2160729169845581    0.2582656145095825 Li
