S2 O6
1.0
   5.5637121200561523   -1.4907921552658081    0.0000000000000000
  -1.4907921552658081    5.5637121200561523    0.0000000000000000
   0.0000000000000000    0.0000000000000000    5.0681853294372559
S O
2 6
direct
   0.6705408692359924    0.2212396860122681    0.3566267192363739 S
   0.3294591307640076    0.7787603139877319    0.6433732509613037 S
   0.9191244244575500    0.3708486855030060    0.2660792768001556 O
   0.6291513442993164    0.5482757091522217    0.2660792768001556 O
   0.4517242908477783    0.0808755755424500    0.7339206933975220 O
   0.0808755755424500    0.6291513442993164    0.7339206933975220 O
   0.3708486855030060    0.4517242908477783    0.7339206933975220 O
   0.5482757091522217    0.9191244244575500    0.2660792768001556 O
