I4 Br4
1.0
   6.9508352279663086    0.0000000000000000    0.0000000000000000
   0.0000000000000000    6.9508352279663086    0.0000000000000000
   0.0000000000000000    0.0000000000000000    9.4086046218872070
Br I
4 4
direct
   0.3044585883617401    0.6306066513061523    0.4318713545799255 Br
   0.6955413818359375    0.3693933486938477    0.5681286454200745 Br
   0.3693933486938477    0.3044585883617401    0.9318713545799255 Br
   0.6306066513061523    0.6955413818359375    0.0681286454200745 Br
   0.9156560897827148    0.8299896121025085    0.3307222723960876 I
   0.0843439102172852    0.1700103878974915    0.6692777276039124 I
   0.4664124548435211    0.1879764348268509    0.2510840892791748 I
   0.5335875749588013    0.8120235800743103    0.7489159107208252 I
