Nd4 C4 O8                               
   1.00000000000000     
     7.0963182449340820    0.0000000000000000   -1.1631813049316406
     0.0000000000000000    5.0737628936767578    0.0000000000000000
    -1.1631813049316406    0.0000000000000000    6.8066191673278809
   Nd   C    O 
     4     4     8
Direct
  0.2529098391532898  0.2482857257127762  0.0121845658868551
  0.7470901608467102  0.2482857257127762  0.4878154397010803
  0.7470901608467102  0.7517142891883850  0.9878154397010803
  0.2529098391532898  0.7517142891883850  0.5121845602989197
  0.7543703317642212  0.7429735064506531  0.5118249058723450
  0.2456296682357788  0.7429735064506531  0.9881750941276550
  0.2543703317642212  0.2429735660552979  0.5118249058723450
  0.7456296682357788  0.2429735660552979  0.9881750941276550
  0.6413605809211731  0.7472399473190308  0.6082456111907959
  0.3586394190788269  0.7472399473190308  0.8917543888092041
  0.3586394190788269  0.2527600526809692  0.3917543888092041
  0.6413605809211731  0.2527600526809692  0.1082456111907959
  0.1413605213165283  0.2472399473190308  0.6082456111907959
  0.8586394190788269  0.2472399473190308  0.8917543888092041
  0.8586394190788269  0.7527600526809692  0.3917543888092041
  0.1413605213165283  0.7527600526809692  0.1082456111907959
 
  0.00000000E+00  0.00000000E+00  0.00000000E+00
  0.00000000E+00  0.00000000E+00  0.00000000E+00
  0.00000000E+00  0.00000000E+00  0.00000000E+00
  0.00000000E+00  0.00000000E+00  0.00000000E+00
  0.00000000E+00  0.00000000E+00  0.00000000E+00
  0.00000000E+00  0.00000000E+00  0.00000000E+00
  0.00000000E+00  0.00000000E+00  0.00000000E+00
  0.00000000E+00  0.00000000E+00  0.00000000E+00
  0.00000000E+00  0.00000000E+00  0.00000000E+00
  0.00000000E+00  0.00000000E+00  0.00000000E+00
  0.00000000E+00  0.00000000E+00  0.00000000E+00
  0.00000000E+00  0.00000000E+00  0.00000000E+00
  0.00000000E+00  0.00000000E+00  0.00000000E+00
  0.00000000E+00  0.00000000E+00  0.00000000E+00
  0.00000000E+00  0.00000000E+00  0.00000000E+00
  0.00000000E+00  0.00000000E+00  0.00000000E+00
