   16   16    1    2
  0.1488799E+02  0.7191017E-09  0.5073763E-09  0.6905292E-09  0.3000000E-15
  1.000000000000000E-004
  CAR 
 unknown system                          
    108     88     70
 
  0.0000000E+00  0.0000000E+00  0.0000000E+00  0.5714286E-02
      1        -33.853005      -33.853054   1.000000   1.000000
      2        -33.825998      -33.826062   1.000000   1.000000
      3        -33.821841      -33.821880   1.000000   1.000000
      4        -33.818352      -33.818375   1.000000   1.000000
      5        -20.300331      -20.300430   1.000000   1.000000
      6        -20.290813      -20.290911   1.000000   1.000000
      7        -20.160691      -20.160927   1.000000   1.000000
      8        -20.148485      -20.148724   1.000000   1.000000
      9        -18.905652      -18.905786   1.000000   1.000000
     10        -18.883462      -18.883614   1.000000   1.000000
     11        -18.729713      -18.729802   1.000000   1.000000
     12        -18.589701      -18.589807   1.000000   1.000000
     13        -15.298487      -15.298572   1.000000   1.000000
     14        -15.192368      -15.192462   1.000000   1.000000
     15        -15.157152      -15.157225   1.000000   1.000000
     16        -15.102581      -15.102664   1.000000   1.000000
     17        -15.054499      -15.054556   1.000000   1.000000
     18        -15.033558      -15.033640   1.000000   1.000000
     19        -15.022229      -15.022322   1.000000   1.000000
     20        -14.979990      -14.980025   1.000000   1.000000
     21        -14.938144      -14.938188   1.000000   1.000000
     22        -14.924313      -14.924394   1.000000   1.000000
     23        -14.911366      -14.911399   1.000000   1.000000
     24        -14.728178      -14.728215   1.000000   1.000000
     25         -7.002503       -7.002673   1.000000   1.000000
     26         -6.934856       -6.935113   1.000000   1.000000
     27         -6.713801       -6.713919   1.000000   1.000000
     28         -6.666902       -6.667238   1.000000   1.000000
     29         -4.838462       -4.838570   1.000000   1.000000
     30         -4.785305       -4.785400   1.000000   1.000000
     31         -4.717451       -4.717571   1.000000   1.000000
     32         -4.654527       -4.654610   1.000000   1.000000
     33         -3.950086       -3.950244   1.000000   1.000000
     34         -3.897226       -3.897856   1.000000   1.000000
     35         -3.838499       -3.838814   1.000000   1.000000
     36         -3.764196       -3.764358   1.000000   1.000000
     37         -3.640744       -3.641241   1.000000   1.000000
     38         -3.587834       -3.587998   1.000000   1.000000
     39         -3.486042       -3.486214   1.000000   1.000000
     40         -3.366460       -3.366636   1.000000   1.000000
     41         -2.285701       -2.285781   1.000000   1.000000
     42         -2.077431       -2.077620   1.000000   1.000000
     43         -1.863442       -1.863493   1.000000   1.000000
     44         -1.766260       -1.766382   1.000000   1.000000
     45         -1.674961       -1.675255   1.000000   1.000000
     46         -1.615196       -1.615245   1.000000   1.000000
     47         -1.333758       -1.333942   1.000000   1.000000
     48         -0.885440       -0.885537   1.000000   1.000000
     49          3.685285        3.685065   1.000000   1.000000
     50          4.629391        4.629252   1.000000   1.000000
     51          5.336334        5.336142   0.999996   0.999996
     52          5.466644        5.466239   0.780225   0.783604
     53          5.562065        5.561801   0.027056   0.027526
     54          5.718222        5.718055   0.000000   0.000000
     55          5.768863        5.768639   0.000000   0.000000
     56          6.018608        6.018560   0.000000   0.000000
     57          6.036338        6.036158   0.000000   0.000000
     58          6.160574        6.159963   0.000000   0.000000
     59          6.259276        6.258915   0.000000   0.000000
     60          6.318752        6.318598   0.000000   0.000000
     61          6.526486        6.526208   0.000000   0.000000
     62          6.532096        6.531762   0.000000   0.000000
     63          6.638528        6.638099   0.000000   0.000000
     64          6.853565        6.853391   0.000000   0.000000
     65          6.971196        6.970172   0.000000   0.000000
     66          7.472847        7.472882   0.000000   0.000000
     67          7.530047        7.530073   0.000000   0.000000
     68          7.674075        7.673916   0.000000   0.000000
     69          7.981209        7.981097   0.000000   0.000000
     70          8.244199        8.244270   0.000000   0.000000
 
  0.2000000E+00  0.0000000E+00  0.1896739E-14  0.1142857E-01
      1        -33.850496      -33.850545   1.000000   1.000000
      2        -33.828367      -33.828427   1.000000   1.000000
      3        -33.822339      -33.822375   1.000000   1.000000
      4        -33.817996      -33.818026   1.000000   1.000000
      5        -20.303634      -20.303733   1.000000   1.000000
      6        -20.294859      -20.294958   1.000000   1.000000
      7        -20.164666      -20.164902   1.000000   1.000000
      8        -20.153936      -20.154176   1.000000   1.000000
      9        -18.894119      -18.894254   1.000000   1.000000
     10        -18.871714      -18.871862   1.000000   1.000000
     11        -18.712029      -18.712121   1.000000   1.000000
     12        -18.595740      -18.595844   1.000000   1.000000
     13        -15.288512      -15.288597   1.000000   1.000000
     14        -15.202552      -15.202642   1.000000   1.000000
     15        -15.152175      -15.152251   1.000000   1.000000
     16        -15.107871      -15.107953   1.000000   1.000000
     17        -15.071467      -15.071523   1.000000   1.000000
     18        -15.035241      -15.035335   1.000000   1.000000
     19        -15.018105      -15.018196   1.000000   1.000000
     20        -14.977967      -14.978001   1.000000   1.000000
     21        -14.939576      -14.939639   1.000000   1.000000
     22        -14.924478      -14.924528   1.000000   1.000000
     23        -14.913302      -14.913339   1.000000   1.000000
     24        -14.749984      -14.750023   1.000000   1.000000
     25         -6.924656       -6.924823   1.000000   1.000000
     26         -6.859500       -6.859760   1.000000   1.000000
     27         -6.678758       -6.678858   1.000000   1.000000
     28         -6.636769       -6.637121   1.000000   1.000000
     29         -4.910771       -4.910883   1.000000   1.000000
     30         -4.847965       -4.848056   1.000000   1.000000
     31         -4.794791       -4.794921   1.000000   1.000000
     32         -4.747714       -4.747791   1.000000   1.000000
     33         -3.981445       -3.981694   1.000000   1.000000
     34         -3.905445       -3.905977   1.000000   1.000000
     35         -3.883448       -3.883762   1.000000   1.000000
     36         -3.753889       -3.754050   1.000000   1.000000
     37         -3.715149       -3.715641   1.000000   1.000000
     38         -3.608883       -3.609046   1.000000   1.000000
     39         -3.492214       -3.492385   1.000000   1.000000
     40         -3.391665       -3.391839   1.000000   1.000000
     41         -2.227367       -2.227448   1.000000   1.000000
     42         -1.938019       -1.938208   1.000000   1.000000
     43         -1.877627       -1.877695   1.000000   1.000000
     44         -1.675407       -1.675515   1.000000   1.000000
     45         -1.616248       -1.616485   1.000000   1.000000
     46         -1.516585       -1.516695   1.000000   1.000000
     47         -1.277957       -1.278139   1.000000   1.000000
     48         -0.956531       -0.956627   1.000000   1.000000
     49          3.903795        3.903567   1.000000   1.000000
     50          4.747767        4.747580   1.000000   1.000000
     51          5.241412        5.241108   1.000000   1.000000
     52          5.411649        5.411400   0.990056   0.990242
     53          5.436619        5.436329   0.947619   0.948493
     54          5.558319        5.558079   0.034381   0.034900
     55          5.597523        5.597348   0.001701   0.001728
     56          5.766551        5.766325   0.000000   0.000000
     57          6.105353        6.105184   0.000000   0.000000
     58          6.239056        6.238678   0.000000   0.000000
     59          6.312012        6.311677   0.000000   0.000000
     60          6.389640        6.389365   0.000000   0.000000
     61          6.593932        6.593520   0.000000   0.000000
     62          6.612492        6.612128   0.000000   0.000000
     63          6.726068        6.725603   0.000000   0.000000
     64          6.843653        6.843339   0.000000   0.000000
     65          6.889273        6.888829   0.000000   0.000000
     66          7.232266        7.232216   0.000000   0.000000
     67          7.389184        7.389214   0.000000   0.000000
     68          7.609879        7.609699   0.000000   0.000000
     69          8.039037        8.038910   0.000000   0.000000
     70          8.225545        8.225489   0.000000   0.000000
 
  0.4000000E+00  0.0000000E+00 -0.1903305E-14  0.1142857E-01
      1        -33.844243      -33.844295   1.000000   1.000000
      2        -33.834468      -33.834522   1.000000   1.000000
      3        -33.823065      -33.823101   1.000000   1.000000
      4        -33.817449      -33.817484   1.000000   1.000000
      5        -20.309078      -20.309176   1.000000   1.000000
      6        -20.301215      -20.301314   1.000000   1.000000
      7        -20.170826      -20.171062   1.000000   1.000000
      8        -20.162752      -20.162991   1.000000   1.000000
      9        -18.872221      -18.872360   1.000000   1.000000
     10        -18.857496      -18.857636   1.000000   1.000000
     11        -18.669042      -18.669140   1.000000   1.000000
     12        -18.618485      -18.618586   1.000000   1.000000
     13        -15.262371      -15.262456   1.000000   1.000000
     14        -15.229091      -15.229178   1.000000   1.000000
     15        -15.139382      -15.139462   1.000000   1.000000
     16        -15.120860      -15.120942   1.000000   1.000000
     17        -15.093966      -15.094020   1.000000   1.000000
     18        -15.039851      -15.039949   1.000000   1.000000
     19        -15.017616      -15.017720   1.000000   1.000000
     20        -14.966185      -14.966221   1.000000   1.000000
     21        -14.960158      -14.960213   1.000000   1.000000
     22        -14.939359      -14.939400   1.000000   1.000000
     23        -14.871360      -14.871397   1.000000   1.000000
     24        -14.803044      -14.803086   1.000000   1.000000
     25         -6.757021       -6.757178   1.000000   1.000000
     26         -6.709914       -6.710190   1.000000   1.000000
     27         -6.650548       -6.650665   1.000000   1.000000
     28         -6.594277       -6.594606   1.000000   1.000000
     29         -5.014871       -5.014991   1.000000   1.000000
     30         -4.962504       -4.962602   1.000000   1.000000
     31         -4.947759       -4.947916   1.000000   1.000000
     32         -4.917930       -4.917983   1.000000   1.000000
     33         -4.007800       -4.008098   1.000000   1.000000
     34         -3.967110       -3.967442   1.000000   1.000000
     35         -3.890186       -3.890627   1.000000   1.000000
     36         -3.821658       -3.822144   1.000000   1.000000
     37         -3.720621       -3.720783   1.000000   1.000000
     38         -3.665101       -3.665263   1.000000   1.000000
     39         -3.485985       -3.486155   1.000000   1.000000
     40         -3.438360       -3.438533   1.000000   1.000000
     41         -2.094427       -2.094506   1.000000   1.000000
     42         -1.957656       -1.957735   1.000000   1.000000
     43         -1.702591       -1.702780   1.000000   1.000000
     44         -1.580663       -1.580859   1.000000   1.000000
     45         -1.429517       -1.429617   1.000000   1.000000
     46         -1.314841       -1.315001   1.000000   1.000000
     47         -1.221270       -1.221444   1.000000   1.000000
     48         -1.155629       -1.155727   1.000000   1.000000
     49          4.427259        4.426987   1.000000   1.000000
     50          4.830638        4.830236   1.000000   1.000000
     51          5.084002        5.083899   1.000000   1.000000
     52          5.301307        5.301093   1.000000   1.000000
     53          5.323805        5.323520   0.999999   0.999999
     54          5.363135        5.362924   0.999892   0.999895
     55          5.584636        5.584397   0.005168   0.005270
     56          5.678547        5.678251   0.000000   0.000000
     57          5.998134        5.997936   0.000000   0.000000
     58          6.112899        6.112562   0.000000   0.000000
     59          6.251575        6.251297   0.000000   0.000000
     60          6.363363        6.362568   0.000000   0.000000
     61          6.547286        6.547255   0.000000   0.000000
     62          6.554673        6.554164   0.000000   0.000000
     63          6.778035        6.777915   0.000000   0.000000
     64          6.854915        6.854658   0.000000   0.000000
     65          7.004439        7.004284   0.000000   0.000000
     66          7.046191        7.046148   0.000000   0.000000
     67          7.128147        7.127912   0.000000   0.000000
     68          7.436943        7.436724   0.000000   0.000000
     69          8.108958        8.108860   0.000000   0.000000
     70          8.232432        8.236735   0.000000   0.000000
 
  0.0000000E+00  0.1428571E+00  0.0000000E+00  0.1142857E-01
      1        -33.850952      -33.851001   1.000000   1.000000
      2        -33.825212      -33.825278   1.000000   1.000000
      3        -33.822806      -33.822844   1.000000   1.000000
      4        -33.818053      -33.818075   1.000000   1.000000
      5        -20.321802      -20.321901   1.000000   1.000000
      6        -20.311665      -20.311764   1.000000   1.000000
      7        -20.189642      -20.189879   1.000000   1.000000
      8        -20.177358      -20.177598   1.000000   1.000000
      9        -18.902057      -18.902190   1.000000   1.000000
     10        -18.886474      -18.886625   1.000000   1.000000
     11        -18.741501      -18.741590   1.000000   1.000000
     12        -18.611223      -18.611327   1.000000   1.000000
     13        -15.202194      -15.202278   1.000000   1.000000
     14        -15.106503      -15.106591   1.000000   1.000000
     15        -15.072511      -15.072589   1.000000   1.000000
     16        -15.060217      -15.060283   1.000000   1.000000
     17        -15.027889      -15.027962   1.000000   1.000000
     18        -15.023387      -15.023468   1.000000   1.000000
     19        -15.014992      -15.015083   1.000000   1.000000
     20        -14.986633      -14.986659   1.000000   1.000000
     21        -14.948168      -14.948222   1.000000   1.000000
     22        -14.928861      -14.928941   1.000000   1.000000
     23        -14.911657      -14.911690   1.000000   1.000000
     24        -14.746090      -14.746128   1.000000   1.000000
     25         -6.978978       -6.979137   1.000000   1.000000
     26         -6.924227       -6.924494   1.000000   1.000000
     27         -6.694443       -6.694556   1.000000   1.000000
     28         -6.648629       -6.648970   1.000000   1.000000
     29         -4.832672       -4.832779   1.000000   1.000000
     30         -4.783343       -4.783436   1.000000   1.000000
     31         -4.714497       -4.714619   1.000000   1.000000
     32         -4.657285       -4.657366   1.000000   1.000000
     33         -3.991932       -3.992056   1.000000   1.000000
     34         -3.956790       -3.957357   1.000000   1.000000
     35         -3.901100       -3.901348   1.000000   1.000000
     36         -3.851635       -3.851939   1.000000   1.000000
     37         -3.775629       -3.775823   1.000000   1.000000
     38         -3.689707       -3.689878   1.000000   1.000000
     39         -3.659198       -3.659686   1.000000   1.000000
     40         -3.595723       -3.595914   1.000000   1.000000
     41         -2.192950       -2.193030   1.000000   1.000000
     42         -2.054643       -2.054826   1.000000   1.000000
     43         -1.769309       -1.769375   1.000000   1.000000
     44         -1.692910       -1.693035   1.000000   1.000000
     45         -1.669801       -1.670096   1.000000   1.000000
     46         -1.612063       -1.612113   1.000000   1.000000
     47         -1.370132       -1.370312   1.000000   1.000000
     48         -0.894426       -0.894523   1.000000   1.000000
     49          3.962607        3.962377   1.000000   1.000000
     50          4.352684        4.352519   1.000000   1.000000
     51          5.266116        5.265923   1.000000   1.000000
     52          5.326432        5.326109   0.999999   0.999999
     53          5.404450        5.404318   0.994331   0.994391
     54          5.406466        5.406193   0.993339   0.993482
     55          5.532590        5.532259   0.137355   0.139427
     56          5.677398        5.677217   0.000000   0.000000
     57          6.034189        6.033901   0.000000   0.000000
     58          6.386487        6.386379   0.000000   0.000000
     59          6.473292        6.472713   0.000000   0.000000
     60          6.554787        6.554149   0.000000   0.000000
     61          6.677576        6.677514   0.000000   0.000000
     62          6.778112        6.777830   0.000000   0.000000
     63          6.890501        6.890214   0.000000   0.000000
     64          6.923280        6.923106   0.000000   0.000000
     65          7.081554        7.080900   0.000000   0.000000
     66          7.649577        7.649570   0.000000   0.000000
     67          7.701160        7.701140   0.000000   0.000000
     68          7.929593        7.929342   0.000000   0.000000
     69          7.994935        7.994819   0.000000   0.000000
     70          8.069794        8.069732   0.000000   0.000000
 
  0.2000000E+00  0.1428571E+00  0.1896739E-14  0.1142857E-01
      1        -33.848572      -33.848622   1.000000   1.000000
      2        -33.827458      -33.827519   1.000000   1.000000
      3        -33.823014      -33.823050   1.000000   1.000000
      4        -33.817991      -33.818019   1.000000   1.000000
      5        -20.325250      -20.325351   1.000000   1.000000
      6        -20.315794      -20.315892   1.000000   1.000000
      7        -20.193664      -20.193903   1.000000   1.000000
      8        -20.182843      -20.183080   1.000000   1.000000
      9        -18.891085      -18.891215   1.000000   1.000000
     10        -18.874048      -18.874200   1.000000   1.000000
     11        -18.724219      -18.724311   1.000000   1.000000
     12        -18.615936      -18.616039   1.000000   1.000000
     13        -15.198252      -15.198332   1.000000   1.000000
     14        -15.128145      -15.128250   1.000000   1.000000
     15        -15.080966      -15.081012   1.000000   1.000000
     16        -15.055031      -15.055091   1.000000   1.000000
     17        -15.041767      -15.041867   1.000000   1.000000
     18        -15.025743      -15.025824   1.000000   1.000000
     19        -15.003171      -15.003265   1.000000   1.000000
     20        -14.983561      -14.983593   1.000000   1.000000
     21        -14.941792      -14.941852   1.000000   1.000000
     22        -14.927562      -14.927616   1.000000   1.000000
     23        -14.914799      -14.914839   1.000000   1.000000
     24        -14.766887      -14.766928   1.000000   1.000000
     25         -6.901563       -6.901718   1.000000   1.000000
     26         -6.848271       -6.848543   1.000000   1.000000
     27         -6.660535       -6.660634   1.000000   1.000000
     28         -6.617955       -6.618306   1.000000   1.000000
     29         -4.906220       -4.906325   1.000000   1.000000
     30         -4.847705       -4.847799   1.000000   1.000000
     31         -4.792563       -4.792702   1.000000   1.000000
     32         -4.749652       -4.749725   1.000000   1.000000
     33         -4.030411       -4.030698   1.000000   1.000000
     34         -3.975991       -3.976182   1.000000   1.000000
     35         -3.924912       -3.925524   1.000000   1.000000
     36         -3.861859       -3.862022   1.000000   1.000000
     37         -3.783982       -3.784219   1.000000   1.000000
     38         -3.742992       -3.743370   1.000000   1.000000
     39         -3.686089       -3.686270   1.000000   1.000000
     40         -3.594004       -3.594224   1.000000   1.000000
     41         -2.142178       -2.142253   1.000000   1.000000
     42         -1.920476       -1.920644   1.000000   1.000000
     43         -1.789993       -1.790083   1.000000   1.000000
     44         -1.641287       -1.641470   1.000000   1.000000
     45         -1.594889       -1.595079   1.000000   1.000000
     46         -1.497348       -1.497459   1.000000   1.000000
     47         -1.315316       -1.315481   1.000000   1.000000
     48         -0.954816       -0.954913   1.000000   1.000000
     49          4.176420        4.176166   1.000000   1.000000
     50          4.458816        4.458650   1.000000   1.000000
     51          5.138881        5.138596   1.000000   1.000000
     52          5.161483        5.161272   1.000000   1.000000
     53          5.245819        5.245637   1.000000   1.000000
     54          5.412898        5.412367   0.989080   0.989505
     55          5.486621        5.486513   0.582364   0.583554
     56          5.820820        5.820903   0.000000   0.000000
     57          6.056673        6.055914   0.000000   0.000000
     58          6.285308        6.285015   0.000000   0.000000
     59          6.363292        6.362977   0.000000   0.000000
     60          6.566657        6.566381   0.000000   0.000000
     61          6.622953        6.622467   0.000000   0.000000
     62          6.814970        6.814901   0.000000   0.000000
     63          6.917406        6.917476   0.000000   0.000000
     64          7.003600        7.003174   0.000000   0.000000
     65          7.058192        7.057731   0.000000   0.000000
     66          7.537703        7.537506   0.000000   0.000000
     67          7.564201        7.564160   0.000000   0.000000
     68          7.737874        7.737582   0.000000   0.000000
     69          7.960002        7.959974   0.000000   0.000000
     70          8.087080        8.087275   0.000000   0.000000
 
 -0.2000000E+00  0.1428571E+00 -0.1896739E-14  0.1142857E-01
      1        -33.848572      -33.848622   1.000000   1.000000
      2        -33.827457      -33.827520   1.000000   1.000000
      3        -33.823014      -33.823049   1.000000   1.000000
      4        -33.817991      -33.818019   1.000000   1.000000
      5        -20.325252      -20.325349   1.000000   1.000000
      6        -20.315793      -20.315893   1.000000   1.000000
      7        -20.193667      -20.193901   1.000000   1.000000
      8        -20.182840      -20.183082   1.000000   1.000000
      9        -18.891080      -18.891219   1.000000   1.000000
     10        -18.874053      -18.874196   1.000000   1.000000
     11        -18.724220      -18.724310   1.000000   1.000000
     12        -18.615935      -18.616039   1.000000   1.000000
     13        -15.198249      -15.198336   1.000000   1.000000
     14        -15.128166      -15.128229   1.000000   1.000000
     15        -15.080944      -15.081034   1.000000   1.000000
     16        -15.055010      -15.055113   1.000000   1.000000
     17        -15.041796      -15.041837   1.000000   1.000000
     18        -15.025731      -15.025836   1.000000   1.000000
     19        -15.003182      -15.003254   1.000000   1.000000
     20        -14.983555      -14.983599   1.000000   1.000000
     21        -14.941806      -14.941837   1.000000   1.000000
     22        -14.927544      -14.927633   1.000000   1.000000
     23        -14.914803      -14.914835   1.000000   1.000000
     24        -14.766889      -14.766927   1.000000   1.000000
     25         -6.901563       -6.901718   1.000000   1.000000
     26         -6.848272       -6.848541   1.000000   1.000000
     27         -6.660535       -6.660634   1.000000   1.000000
     28         -6.617953       -6.618308   1.000000   1.000000
     29         -4.906212       -4.906332   1.000000   1.000000
     30         -4.847708       -4.847796   1.000000   1.000000
     31         -4.792569       -4.792697   1.000000   1.000000
     32         -4.749651       -4.749727   1.000000   1.000000
     33         -4.030447       -4.030661   1.000000   1.000000
     34         -3.975753       -3.976417   1.000000   1.000000
     35         -3.925241       -3.925198   1.000000   1.000000
     36         -3.861802       -3.862079   1.000000   1.000000
     37         -3.783888       -3.784312   1.000000   1.000000
     38         -3.743026       -3.743336   1.000000   1.000000
     39         -3.686078       -3.686279   1.000000   1.000000
     40         -3.594005       -3.594223   1.000000   1.000000
     41         -2.142170       -2.142260   1.000000   1.000000
     42         -1.920472       -1.920648   1.000000   1.000000
     43         -1.789990       -1.790085   1.000000   1.000000
     44         -1.641300       -1.641458   1.000000   1.000000
     45         -1.594911       -1.595058   1.000000   1.000000
     46         -1.497340       -1.497466   1.000000   1.000000
     47         -1.315306       -1.315492   1.000000   1.000000
     48         -0.954815       -0.954915   1.000000   1.000000
     49          4.176410        4.176176   1.000000   1.000000
     50          4.458833        4.458633   1.000000   1.000000
     51          5.138865        5.138613   1.000000   1.000000
     52          5.161569        5.161186   1.000000   1.000000
     53          5.245837        5.245619   1.000000   1.000000
     54          5.412649        5.412616   0.989281   0.989307
     55          5.486673        5.486460   0.581784   0.584135
     56          5.821218        5.820505   0.000000   0.000000
     57          6.056233        6.056353   0.000000   0.000000
     58          6.285265        6.285058   0.000000   0.000000
     59          6.363464        6.362807   0.000000   0.000000
     60          6.566656        6.566382   0.000000   0.000000
     61          6.622670        6.622747   0.000000   0.000000
     62          6.815186        6.814687   0.000000   0.000000
     63          6.917711        6.917170   0.000000   0.000000
     64          7.003545        7.003226   0.000000   0.000000
     65          7.058104        7.057822   0.000000   0.000000
     66          7.537672        7.537538   0.000000   0.000000
     67          7.564203        7.564157   0.000000   0.000000
     68          7.737783        7.737675   0.000000   0.000000
     69          7.960066        7.959909   0.000000   0.000000
     70          8.088145        8.087024   0.000000   0.000000
 
  0.4000000E+00  0.1428571E+00 -0.1903305E-14  0.1142857E-01
      1        -33.842656      -33.842708   1.000000   1.000000
      2        -33.833197      -33.833251   1.000000   1.000000
      3        -33.823437      -33.823472   1.000000   1.000000
      4        -33.817765      -33.817799   1.000000   1.000000
      5        -20.330778      -20.330877   1.000000   1.000000
      6        -20.322399      -20.322497   1.000000   1.000000
      7        -20.199775      -20.200014   1.000000   1.000000
      8        -20.191894      -20.192132   1.000000   1.000000
      9        -18.870490      -18.870625   1.000000   1.000000
     10        -18.858061      -18.858204   1.000000   1.000000
     11        -18.683180      -18.683279   1.000000   1.000000
     12        -18.635606      -18.635705   1.000000   1.000000
     13        -15.191447      -15.191524   1.000000   1.000000
     14        -15.154624      -15.154722   1.000000   1.000000
     15        -15.091273      -15.091313   1.000000   1.000000
     16        -15.067789      -15.067878   1.000000   1.000000
     17        -15.055911      -15.056000   1.000000   1.000000
     18        -15.028494      -15.028584   1.000000   1.000000
     19        -14.986560      -14.986656   1.000000   1.000000
     20        -14.971145      -14.971184   1.000000   1.000000
     21        -14.943504      -14.943570   1.000000   1.000000
     22        -14.938998      -14.939029   1.000000   1.000000
     23        -14.883040      -14.883075   1.000000   1.000000
     24        -14.817244      -14.817291   1.000000   1.000000
     25         -6.735438       -6.735579   1.000000   1.000000
     26         -6.695630       -6.695925   1.000000   1.000000
     27         -6.631801       -6.631908   1.000000   1.000000
     28         -6.577813       -6.578147   1.000000   1.000000
     29         -5.013325       -5.013429   1.000000   1.000000
     30         -4.964686       -4.964818   1.000000   1.000000
     31         -4.948533       -4.948674   1.000000   1.000000
     32         -4.917419       -4.917471   1.000000   1.000000
     33         -4.064729       -4.065076   1.000000   1.000000
     34         -4.024631       -4.024831   1.000000   1.000000
     35         -3.947194       -3.947665   1.000000   1.000000
     36         -3.870525       -3.870832   1.000000   1.000000
     37         -3.834540       -3.834800   1.000000   1.000000
     38         -3.796046       -3.796318   1.000000   1.000000
     39         -3.673703       -3.673868   1.000000   1.000000
     40         -3.624226       -3.624442   1.000000   1.000000
     41         -2.015402       -2.015479   1.000000   1.000000
     42         -1.886504       -1.886588   1.000000   1.000000
     43         -1.676779       -1.676952   1.000000   1.000000
     44         -1.564378       -1.564589   1.000000   1.000000
     45         -1.437943       -1.438091   1.000000   1.000000
     46         -1.282571       -1.282658   1.000000   1.000000
     47         -1.273600       -1.273783   1.000000   1.000000
     48         -1.108502       -1.108616   1.000000   1.000000
     49          4.616674        4.616199   1.000000   1.000000
     50          4.688895        4.688803   1.000000   1.000000
     51          4.946362        4.946280   1.000000   1.000000
     52          4.977524        4.977209   1.000000   1.000000
     53          5.132250        5.132094   1.000000   1.000000
     54          5.245856        5.245404   1.000000   1.000000
     55          5.648222        5.647917   0.000006   0.000007
     56          5.773560        5.773589   0.000000   0.000000
     57          5.984524        5.983761   0.000000   0.000000
     58          6.174041        6.173575   0.000000   0.000000
     59          6.415485        6.415330   0.000000   0.000000
     60          6.519969        6.519733   0.000000   0.000000
     61          6.624058        6.623891   0.000000   0.000000
     62          6.679686        6.679512   0.000000   0.000000
     63          6.724465        6.724395   0.000000   0.000000
     64          6.860246        6.859798   0.000000   0.000000
     65          7.046032        7.045935   0.000000   0.000000
     66          7.279847        7.279675   0.000000   0.000000
     67          7.452187        7.451954   0.000000   0.000000
     68          7.575051        7.574805   0.000000   0.000000
     69          7.985166        7.985092   0.000000   0.000000
     70          8.123895        8.119538   0.000000   0.000000
 
 -0.4000000E+00  0.1428571E+00  0.1903305E-14  0.1142857E-01
      1        -33.842656      -33.842708   1.000000   1.000000
      2        -33.833196      -33.833252   1.000000   1.000000
      3        -33.823438      -33.823472   1.000000   1.000000
      4        -33.817765      -33.817799   1.000000   1.000000
      5        -20.330779      -20.330876   1.000000   1.000000
      6        -20.322397      -20.322498   1.000000   1.000000
      7        -20.199777      -20.200012   1.000000   1.000000
      8        -20.191892      -20.192134   1.000000   1.000000
      9        -18.870487      -18.870629   1.000000   1.000000
     10        -18.858065      -18.858201   1.000000   1.000000
     11        -18.683181      -18.683277   1.000000   1.000000
     12        -18.635605      -18.635706   1.000000   1.000000
     13        -15.191442      -15.191530   1.000000   1.000000
     14        -15.154638      -15.154708   1.000000   1.000000
     15        -15.091255      -15.091332   1.000000   1.000000
     16        -15.067802      -15.067865   1.000000   1.000000
     17        -15.055907      -15.056003   1.000000   1.000000
     18        -15.028491      -15.028588   1.000000   1.000000
     19        -14.986566      -14.986649   1.000000   1.000000
     20        -14.971141      -14.971188   1.000000   1.000000
     21        -14.943503      -14.943571   1.000000   1.000000
     22        -14.939001      -14.939025   1.000000   1.000000
     23        -14.883036      -14.883079   1.000000   1.000000
     24        -14.817246      -14.817289   1.000000   1.000000
     25         -6.735436       -6.735581   1.000000   1.000000
     26         -6.695637       -6.695919   1.000000   1.000000
     27         -6.631798       -6.631911   1.000000   1.000000
     28         -6.577811       -6.578148   1.000000   1.000000
     29         -5.013308       -5.013445   1.000000   1.000000
     30         -4.964722       -4.964784   1.000000   1.000000
     31         -4.948514       -4.948691   1.000000   1.000000
     32         -4.917418       -4.917473   1.000000   1.000000
     33         -4.064796       -4.065008   1.000000   1.000000
     34         -4.024463       -4.024998   1.000000   1.000000
     35         -3.947388       -3.947473   1.000000   1.000000
     36         -3.870459       -3.870899   1.000000   1.000000
     37         -3.834471       -3.834868   1.000000   1.000000
     38         -3.796097       -3.796268   1.000000   1.000000
     39         -3.673693       -3.673878   1.000000   1.000000
     40         -3.624228       -3.624440   1.000000   1.000000
     41         -2.015396       -2.015484   1.000000   1.000000
     42         -1.886507       -1.886585   1.000000   1.000000
     43         -1.676764       -1.676966   1.000000   1.000000
     44         -1.564388       -1.564579   1.000000   1.000000
     45         -1.437977       -1.438059   1.000000   1.000000
     46         -1.282517       -1.282714   1.000000   1.000000
     47         -1.273626       -1.273754   1.000000   1.000000
     48         -1.108503       -1.108615   1.000000   1.000000
     49          4.616611        4.616262   1.000000   1.000000
     50          4.688952        4.688747   1.000000   1.000000
     51          4.946476        4.946166   1.000000   1.000000
     52          4.977489        4.977245   1.000000   1.000000
     53          5.132291        5.132054   1.000000   1.000000
     54          5.245671        5.245589   1.000000   1.000000
     55          5.648201        5.647939   0.000006   0.000007
     56          5.773925        5.773223   0.000000   0.000000
     57          5.984073        5.984212   0.000000   0.000000
     58          6.174183        6.173433   0.000000   0.000000
     59          6.415490        6.415326   0.000000   0.000000
     60          6.519886        6.519817   0.000000   0.000000
     61          6.624098        6.623850   0.000000   0.000000
     62          6.679716        6.679480   0.000000   0.000000
     63          6.724637        6.724222   0.000000   0.000000
     64          6.860056        6.859990   0.000000   0.000000
     65          7.046154        7.045813   0.000000   0.000000
     66          7.279820        7.279702   0.000000   0.000000
     67          7.452169        7.451972   0.000000   0.000000
     68          7.575039        7.574818   0.000000   0.000000
     69          7.985179        7.985079   0.000000   0.000000
     70          8.119936        8.123975   0.000000   0.000000
 
  0.0000000E+00  0.2857143E+00  0.0000000E+00  0.1142857E-01
      1        -33.845545      -33.845597   1.000000   1.000000
      2        -33.825781      -33.825817   1.000000   1.000000
      3        -33.823374      -33.823444   1.000000   1.000000
      4        -33.817450      -33.817467   1.000000   1.000000
      5        -20.369958      -20.370057   1.000000   1.000000
      6        -20.358544      -20.358644   1.000000   1.000000
      7        -20.253672      -20.253910   1.000000   1.000000
      8        -20.240378      -20.240619   1.000000   1.000000
      9        -18.891100      -18.891250   1.000000   1.000000
     10        -18.884032      -18.884168   1.000000   1.000000
     11        -18.764258      -18.764346   1.000000   1.000000
     12        -18.663834      -18.663936   1.000000   1.000000
     13        -15.055759      -15.055837   1.000000   1.000000
     14        -15.041681      -15.041745   1.000000   1.000000
     15        -15.018343      -15.018382   1.000000   1.000000
     16        -15.017202      -15.017284   1.000000   1.000000
     17        -14.995769      -14.995804   1.000000   1.000000
     18        -14.945800      -14.945879   1.000000   1.000000
     19        -14.938740      -14.938834   1.000000   1.000000
     20        -14.931506      -14.931550   1.000000   1.000000
     21        -14.885042      -14.885162   1.000000   1.000000
     22        -14.871893      -14.871913   1.000000   1.000000
     23        -14.838963      -14.839039   1.000000   1.000000
     24        -14.781613      -14.781661   1.000000   1.000000
     25         -6.921412       -6.921524   1.000000   1.000000
     26         -6.890187       -6.890497   1.000000   1.000000
     27         -6.643520       -6.643620   1.000000   1.000000
     28         -6.598811       -6.599161   1.000000   1.000000
     29         -4.816786       -4.816895   1.000000   1.000000
     30         -4.779698       -4.779787   1.000000   1.000000
     31         -4.706647       -4.706776   1.000000   1.000000
     32         -4.664611       -4.664686   1.000000   1.000000
     33         -4.284503       -4.284682   1.000000   1.000000
     34         -4.188337       -4.188521   1.000000   1.000000
     35         -4.154781       -4.154960   1.000000   1.000000
     36         -4.147688       -4.147968   1.000000   1.000000
     37         -4.058266       -4.058367   1.000000   1.000000
     38         -3.992674       -3.993252   1.000000   1.000000
     39         -3.850942       -3.851216   1.000000   1.000000
     40         -3.728949       -3.729484   1.000000   1.000000
     41         -1.971083       -1.971264   1.000000   1.000000
     42         -1.912364       -1.912445   1.000000   1.000000
     43         -1.671376       -1.671674   1.000000   1.000000
     44         -1.613391       -1.613442   1.000000   1.000000
     45         -1.598516       -1.598643   1.000000   1.000000
     46         -1.510174       -1.510321   1.000000   1.000000
     47         -1.430898       -1.431013   1.000000   1.000000
     48         -0.958539       -0.958635   1.000000   1.000000
     49          3.967106        3.966940   1.000000   1.000000
     50          4.369623        4.369419   1.000000   1.000000
     51          4.841540        4.841302   1.000000   1.000000
     52          5.121233        5.120979   1.000000   1.000000
     53          5.175949        5.175690   1.000000   1.000000
     54          5.318798        5.318432   1.000000   1.000000
     55          5.407766        5.407534   0.992622   0.992754
     56          5.665257        5.665165   0.000001   0.000001
     57          6.042854        6.042441   0.000000   0.000000
     58          6.288158        6.287528   0.000000   0.000000
     59          6.561837        6.561752   0.000000   0.000000
     60          6.783975        6.783812   0.000000   0.000000
     61          6.820968        6.820880   0.000000   0.000000
     62          7.009491        7.009188   0.000000   0.000000
     63          7.075089        7.074975   0.000000   0.000000
     64          7.137574        7.137215   0.000000   0.000000
     65          7.457871        7.457829   0.000000   0.000000
     66          7.562559        7.562133   0.000000   0.000000
     67          7.620113        7.620051   0.000000   0.000000
     68          7.823168        7.822950   0.000000   0.000000
     69          7.880614        7.880545   0.000000   0.000000
     70          7.938400        7.941307   0.000000   0.000000
 
  0.2000000E+00  0.2857143E+00  0.1896739E-14  0.1142857E-01
      1        -33.843516      -33.843569   1.000000   1.000000
      2        -33.825713      -33.825758   1.000000   1.000000
      3        -33.824936      -33.824992   1.000000   1.000000
      4        -33.817996      -33.818018   1.000000   1.000000
      5        -20.373544      -20.373643   1.000000   1.000000
      6        -20.362887      -20.362986   1.000000   1.000000
      7        -20.257527      -20.257768   1.000000   1.000000
      8        -20.246193      -20.246430   1.000000   1.000000
      9        -18.879897      -18.880029   1.000000   1.000000
     10        -18.872148      -18.872299   1.000000   1.000000
     11        -18.748367      -18.748459   1.000000   1.000000
     12        -18.664831      -18.664931   1.000000   1.000000
     13        -15.090340      -15.090425   1.000000   1.000000
     14        -15.054593      -15.054655   1.000000   1.000000
     15        -15.031622      -15.031689   1.000000   1.000000
     16        -15.014180      -15.014222   1.000000   1.000000
     17        -14.979850      -14.979891   1.000000   1.000000
     18        -14.972441      -14.972532   1.000000   1.000000
     19        -14.943273      -14.943339   1.000000   1.000000
     20        -14.923584      -14.923653   1.000000   1.000000
     21        -14.877151      -14.877228   1.000000   1.000000
     22        -14.861344      -14.861394   1.000000   1.000000
     23        -14.819705      -14.819777   1.000000   1.000000
     24        -14.793080      -14.793140   1.000000   1.000000
     25         -6.844944       -6.845054   1.000000   1.000000
     26         -6.812914       -6.813229   1.000000   1.000000
     27         -6.611854       -6.611948   1.000000   1.000000
     28         -6.567069       -6.567420   1.000000   1.000000
     29         -4.894095       -4.894197   1.000000   1.000000
     30         -4.850037       -4.850127   1.000000   1.000000
     31         -4.787623       -4.787775   1.000000   1.000000
     32         -4.754738       -4.754805   1.000000   1.000000
     33         -4.292529       -4.292644   1.000000   1.000000
     34         -4.248497       -4.248855   1.000000   1.000000
     35         -4.191037       -4.191237   1.000000   1.000000
     36         -4.148701       -4.148842   1.000000   1.000000
     37         -4.019021       -4.019166   1.000000   1.000000
     38         -3.978837       -3.979428   1.000000   1.000000
     39         -3.887795       -3.888029   1.000000   1.000000
     40         -3.777949       -3.778460   1.000000   1.000000
     41         -1.922043       -1.922127   1.000000   1.000000
     42         -1.801661       -1.801814   1.000000   1.000000
     43         -1.655728       -1.655903   1.000000   1.000000
     44         -1.602502       -1.602711   1.000000   1.000000
     45         -1.522051       -1.522201   1.000000   1.000000
     46         -1.424431       -1.424566   1.000000   1.000000
     47         -1.372329       -1.372421   1.000000   1.000000
     48         -0.989970       -0.990068   1.000000   1.000000
     49          4.070749        4.070577   1.000000   1.000000
     50          4.488089        4.487850   1.000000   1.000000
     51          4.862811        4.862602   1.000000   1.000000
     52          4.973221        4.973039   1.000000   1.000000
     53          5.007141        5.006867   1.000000   1.000000
     54          5.285013        5.284553   1.000000   1.000000
     55          5.557284        5.557054   0.036670   0.037195
     56          5.727429        5.727270   0.000000   0.000000
     57          5.954997        5.954467   0.000000   0.000000
     58          6.203695        6.203268   0.000000   0.000000
     59          6.579399        6.579160   0.000000   0.000000
     60          6.714489        6.714455   0.000000   0.000000
     61          6.738088        6.738004   0.000000   0.000000
     62          7.102480        7.102189   0.000000   0.000000
     63          7.134482        7.134314   0.000000   0.000000
     64          7.275458        7.275282   0.000000   0.000000
     65          7.407276        7.407142   0.000000   0.000000
     66          7.497898        7.497584   0.000000   0.000000
     67          7.594323        7.594267   0.000000   0.000000
     68          7.684812        7.684609   0.000000   0.000000
     69          7.784579        7.784363   0.000000   0.000000
     70          7.846565        7.846507   0.000000   0.000000
 
 -0.2000000E+00  0.2857143E+00 -0.1896739E-14  0.1142857E-01
      1        -33.843516      -33.843569   1.000000   1.000000
      2        -33.825708      -33.825763   1.000000   1.000000
      3        -33.824941      -33.824987   1.000000   1.000000
      4        -33.817996      -33.818018   1.000000   1.000000
      5        -20.373544      -20.373643   1.000000   1.000000
      6        -20.362887      -20.362986   1.000000   1.000000
      7        -20.257530      -20.257765   1.000000   1.000000
      8        -20.246190      -20.246433   1.000000   1.000000
      9        -18.879883      -18.880041   1.000000   1.000000
     10        -18.872161      -18.872288   1.000000   1.000000
     11        -18.748369      -18.748457   1.000000   1.000000
     12        -18.664830      -18.664932   1.000000   1.000000
     13        -15.090351      -15.090414   1.000000   1.000000
     14        -15.054590      -15.054658   1.000000   1.000000
     15        -15.031605      -15.031707   1.000000   1.000000
     16        -15.014184      -15.014219   1.000000   1.000000
     17        -14.979831      -14.979911   1.000000   1.000000
     18        -14.972463      -14.972508   1.000000   1.000000
     19        -14.943281      -14.943331   1.000000   1.000000
     20        -14.923589      -14.923648   1.000000   1.000000
     21        -14.877132      -14.877248   1.000000   1.000000
     22        -14.861346      -14.861391   1.000000   1.000000
     23        -14.819704      -14.819778   1.000000   1.000000
     24        -14.793088      -14.793132   1.000000   1.000000
     25         -6.844944       -6.845054   1.000000   1.000000
     26         -6.812916       -6.813227   1.000000   1.000000
     27         -6.611853       -6.611948   1.000000   1.000000
     28         -6.567067       -6.567423   1.000000   1.000000
     29         -4.894082       -4.894209   1.000000   1.000000
     30         -4.850040       -4.850124   1.000000   1.000000
     31         -4.787630       -4.787768   1.000000   1.000000
     32         -4.754739       -4.754804   1.000000   1.000000
     33         -4.292454       -4.292718   1.000000   1.000000
     34         -4.248606       -4.248747   1.000000   1.000000
     35         -4.191065       -4.191212   1.000000   1.000000
     36         -4.148645       -4.148896   1.000000   1.000000
     37         -4.019036       -4.019152   1.000000   1.000000
     38         -3.978856       -3.979409   1.000000   1.000000
     39         -3.887750       -3.888074   1.000000   1.000000
     40         -3.777957       -3.778453   1.000000   1.000000
     41         -1.922009       -1.922161   1.000000   1.000000
     42         -1.801679       -1.801796   1.000000   1.000000
     43         -1.655718       -1.655913   1.000000   1.000000
     44         -1.602537       -1.602678   1.000000   1.000000
     45         -1.522097       -1.522156   1.000000   1.000000
     46         -1.424394       -1.424603   1.000000   1.000000
     47         -1.372314       -1.372436   1.000000   1.000000
     48         -0.989969       -0.990069   1.000000   1.000000
     49          4.070754        4.070571   1.000000   1.000000
     50          4.488053        4.487885   1.000000   1.000000
     51          4.862877        4.862536   1.000000   1.000000
     52          4.973261        4.972998   1.000000   1.000000
     53          5.007112        5.006897   1.000000   1.000000
     54          5.284919        5.284648   1.000000   1.000000
     55          5.557359        5.556978   0.036498   0.037370
     56          5.727444        5.727255   0.000000   0.000000
     57          5.954892        5.954572   0.000000   0.000000
     58          6.203789        6.203174   0.000000   0.000000
     59          6.579270        6.579290   0.000000   0.000000
     60          6.714551        6.714394   0.000000   0.000000
     61          6.738100        6.737992   0.000000   0.000000
     62          7.102504        7.102165   0.000000   0.000000
     63          7.134479        7.134316   0.000000   0.000000
     64          7.275442        7.275297   0.000000   0.000000
     65          7.407266        7.407153   0.000000   0.000000
     66          7.497928        7.497556   0.000000   0.000000
     67          7.594329        7.594260   0.000000   0.000000
     68          7.684768        7.684654   0.000000   0.000000
     69          7.784537        7.784404   0.000000   0.000000
     70          7.846717        7.846363   0.000000   0.000000
 
  0.4000000E+00  0.2857143E+00 -0.1903305E-14  0.1142857E-01
      1        -33.838556      -33.838612   1.000000   1.000000
      2        -33.829983      -33.830041   1.000000   1.000000
      3        -33.824799      -33.824831   1.000000   1.000000
      4        -33.818833      -33.818863   1.000000   1.000000
      5        -20.379287      -20.379386   1.000000   1.000000
      6        -20.369771      -20.369871   1.000000   1.000000
      7        -20.263361      -20.263601   1.000000   1.000000
      8        -20.255674      -20.255913   1.000000   1.000000
      9        -18.861947      -18.862082   1.000000   1.000000
     10        -18.853266      -18.853412   1.000000   1.000000
     11        -18.713928      -18.714026   1.000000   1.000000
     12        -18.674660      -18.674755   1.000000   1.000000
     13        -15.130163      -15.130238   1.000000   1.000000
     14        -15.075084      -15.075155   1.000000   1.000000
     15        -15.054333      -15.054415   1.000000   1.000000
     16        -15.029068      -15.029129   1.000000   1.000000
     17        -14.985246      -14.985297   1.000000   1.000000
     18        -14.956390      -14.956462   1.000000   1.000000
     19        -14.945075      -14.945107   1.000000   1.000000
     20        -14.919394      -14.919463   1.000000   1.000000
     21        -14.870010      -14.870072   1.000000   1.000000
     22        -14.845908      -14.845967   1.000000   1.000000
     23        -14.813930      -14.814009   1.000000   1.000000
     24        -14.799456      -14.799526   1.000000   1.000000
     25         -6.681773       -6.681873   1.000000   1.000000
     26         -6.653387       -6.653720   1.000000   1.000000
     27         -6.583103       -6.583196   1.000000   1.000000
     28         -6.530686       -6.531029   1.000000   1.000000
     29         -5.010096       -5.010190   1.000000   1.000000
     30         -4.974196       -4.974339   1.000000   1.000000
     31         -4.952452       -4.952594   1.000000   1.000000
     32         -4.915939       -4.915996   1.000000   1.000000
     33         -4.307380       -4.307476   1.000000   1.000000
     34         -4.301739       -4.302096   1.000000   1.000000
     35         -4.210498       -4.210722   1.000000   1.000000
     36         -4.177292       -4.177429   1.000000   1.000000
     37         -3.990966       -3.991155   1.000000   1.000000
     38         -3.950873       -3.951672   1.000000   1.000000
     39         -3.929925       -3.929889   1.000000   1.000000
     40         -3.854086       -3.854580   1.000000   1.000000
     41         -1.825629       -1.825706   1.000000   1.000000
     42         -1.706445       -1.706560   1.000000   1.000000
     43         -1.589259       -1.589419   1.000000   1.000000
     44         -1.497005       -1.497285   1.000000   1.000000
     45         -1.462251       -1.462389   1.000000   1.000000
     46         -1.354232       -1.354312   1.000000   1.000000
     47         -1.210329       -1.210460   1.000000   1.000000
     48         -1.065306       -1.065416   1.000000   1.000000
     49          4.308130        4.307939   1.000000   1.000000
     50          4.572853        4.572379   1.000000   1.000000
     51          4.639983        4.640020   1.000000   1.000000
     52          4.794728        4.794497   1.000000   1.000000
     53          5.250082        5.249913   1.000000   1.000000
     54          5.287113        5.286507   1.000000   1.000000
     55          5.638320        5.638053   0.000022   0.000023
     56          5.674214        5.673774   0.000000   0.000000
     57          5.853772        5.853315   0.000000   0.000000
     58          6.241193        6.241036   0.000000   0.000000
     59          6.571093        6.570915   0.000000   0.000000
     60          6.714537        6.714409   0.000000   0.000000
     61          6.827011        6.826896   0.000000   0.000000
     62          6.888486        6.888450   0.000000   0.000000
     63          7.003788        7.003698   0.000000   0.000000
     64          7.247547        7.247255   0.000000   0.000000
     65          7.319760        7.319442   0.000000   0.000000
     66          7.350488        7.350438   0.000000   0.000000
     67          7.520517        7.520251   0.000000   0.000000
     68          7.583869        7.583693   0.000000   0.000000
     69          7.727509        7.727411   0.000000   0.000000
     70          7.824535        7.824625   0.000000   0.000000
 
 -0.4000000E+00  0.2857143E+00  0.1903305E-14  0.1142857E-01
      1        -33.838556      -33.838611   1.000000   1.000000
      2        -33.829982      -33.830042   1.000000   1.000000
      3        -33.824800      -33.824830   1.000000   1.000000
      4        -33.818833      -33.818863   1.000000   1.000000
      5        -20.379288      -20.379386   1.000000   1.000000
      6        -20.369771      -20.369871   1.000000   1.000000
      7        -20.263364      -20.263599   1.000000   1.000000
      8        -20.255672      -20.255915   1.000000   1.000000
      9        -18.861940      -18.862088   1.000000   1.000000
     10        -18.853273      -18.853406   1.000000   1.000000
     11        -18.713930      -18.714024   1.000000   1.000000
     12        -18.674658      -18.674757   1.000000   1.000000
     13        -15.130167      -15.130234   1.000000   1.000000
     14        -15.075081      -15.075157   1.000000   1.000000
     15        -15.054332      -15.054416   1.000000   1.000000
     16        -15.029066      -15.029132   1.000000   1.000000
     17        -14.985244      -14.985299   1.000000   1.000000
     18        -14.956389      -14.956463   1.000000   1.000000
     19        -14.945076      -14.945106   1.000000   1.000000
     20        -14.919407      -14.919450   1.000000   1.000000
     21        -14.869997      -14.870086   1.000000   1.000000
     22        -14.845901      -14.845974   1.000000   1.000000
     23        -14.813941      -14.813997   1.000000   1.000000
     24        -14.799455      -14.799527   1.000000   1.000000
     25         -6.681771       -6.681874   1.000000   1.000000
     26         -6.653393       -6.653714   1.000000   1.000000
     27         -6.583100       -6.583198   1.000000   1.000000
     28         -6.530684       -6.531031   1.000000   1.000000
     29         -5.010067       -5.010217   1.000000   1.000000
     30         -4.974245       -4.974293   1.000000   1.000000
     31         -4.952429       -4.952615   1.000000   1.000000
     32         -4.915941       -4.915994   1.000000   1.000000
     33         -4.307250       -4.307605   1.000000   1.000000
     34         -4.301871       -4.301965   1.000000   1.000000
     35         -4.210539       -4.210682   1.000000   1.000000
     36         -4.177248       -4.177472   1.000000   1.000000
     37         -3.990958       -3.991163   1.000000   1.000000
     38         -3.951106       -3.951444   1.000000   1.000000
     39         -3.929671       -3.930138   1.000000   1.000000
     40         -3.854116       -3.854550   1.000000   1.000000
     41         -1.825610       -1.825725   1.000000   1.000000
     42         -1.706457       -1.706548   1.000000   1.000000
     43         -1.589232       -1.589446   1.000000   1.000000
     44         -1.497045       -1.497246   1.000000   1.000000
     45         -1.462296       -1.462345   1.000000   1.000000
     46         -1.354183       -1.354360   1.000000   1.000000
     47         -1.210327       -1.210462   1.000000   1.000000
     48         -1.065307       -1.065415   1.000000   1.000000
     49          4.308155        4.307913   1.000000   1.000000
     50          4.572630        4.572603   1.000000   1.000000
     51          4.640204        4.639798   1.000000   1.000000
     52          4.794713        4.794512   1.000000   1.000000
     53          5.250132        5.249863   1.000000   1.000000
     54          5.287061        5.286559   1.000000   1.000000
     55          5.638269        5.638103   0.000022   0.000023
     56          5.674289        5.673700   0.000000   0.000000
     57          5.853711        5.853376   0.000000   0.000000
     58          6.241255        6.240974   0.000000   0.000000
     59          6.571073        6.570935   0.000000   0.000000
     60          6.714476        6.714470   0.000000   0.000000
     61          6.826993        6.826913   0.000000   0.000000
     62          6.888500        6.888436   0.000000   0.000000
     63          7.003850        7.003636   0.000000   0.000000
     64          7.247596        7.247205   0.000000   0.000000
     65          7.319717        7.319485   0.000000   0.000000
     66          7.350491        7.350435   0.000000   0.000000
     67          7.520440        7.520327   0.000000   0.000000
     68          7.583880        7.583682   0.000000   0.000000
     69          7.727519        7.727402   0.000000   0.000000
     70          7.824675        7.824729   0.000000   0.000000
 
  0.0000000E+00  0.4285714E+00  0.0000000E+00  0.1142857E-01
      1        -33.838806      -33.838869   1.000000   1.000000
      2        -33.830570      -33.830595   1.000000   1.000000
      3        -33.821789      -33.821866   1.000000   1.000000
      4        -33.817086      -33.817096   1.000000   1.000000
      5        -20.408106      -20.408205   1.000000   1.000000
      6        -20.396198      -20.396297   1.000000   1.000000
      7        -20.303709      -20.303948   1.000000   1.000000
      8        -20.289442      -20.289683   1.000000   1.000000
      9        -18.892921      -18.893071   1.000000   1.000000
     10        -18.851990      -18.852134   1.000000   1.000000
     11        -18.779330      -18.779418   1.000000   1.000000
     12        -18.718773      -18.718865   1.000000   1.000000
     13        -15.049985      -15.050046   1.000000   1.000000
     14        -15.043232      -15.043283   1.000000   1.000000
     15        -15.023998      -15.024044   1.000000   1.000000
     16        -15.014097      -15.014161   1.000000   1.000000
     17        -14.990247      -14.990324   1.000000   1.000000
     18        -14.964511      -14.964599   1.000000   1.000000
     19        -14.903104      -14.903144   1.000000   1.000000
     20        -14.863208      -14.863229   1.000000   1.000000
     21        -14.758274      -14.758368   1.000000   1.000000
     22        -14.722200      -14.722315   1.000000   1.000000
     23        -14.716076      -14.716142   1.000000   1.000000
     24        -14.701860      -14.701905   1.000000   1.000000
     25         -6.871823       -6.871906   1.000000   1.000000
     26         -6.845214       -6.845548   1.000000   1.000000
     27         -6.591683       -6.591773   1.000000   1.000000
     28         -6.545605       -6.545961   1.000000   1.000000
     29         -4.796781       -4.796904   1.000000   1.000000
     30         -4.779474       -4.779546   1.000000   1.000000
     31         -4.698215       -4.698360   1.000000   1.000000
     32         -4.672256       -4.672319   1.000000   1.000000
     33         -4.575430       -4.575621   1.000000   1.000000
     34         -4.533694       -4.533888   1.000000   1.000000
     35         -4.530033       -4.530223   1.000000   1.000000
     36         -4.510097       -4.510278   1.000000   1.000000
     37         -4.120478       -4.120568   1.000000   1.000000
     38         -4.082698       -4.083374   1.000000   1.000000
     39         -3.853888       -3.854051   1.000000   1.000000
     40         -3.792146       -3.792796   1.000000   1.000000
     41         -1.834113       -1.834293   1.000000   1.000000
     42         -1.681027       -1.681326   1.000000   1.000000
     43         -1.676156       -1.676345   1.000000   1.000000
     44         -1.661400       -1.661448   1.000000   1.000000
     45         -1.486345       -1.486433   1.000000   1.000000
     46         -1.354521       -1.354677   1.000000   1.000000
     47         -1.321841       -1.321898   1.000000   1.000000
     48         -1.154472       -1.154565   1.000000   1.000000
     49          3.832373        3.832217   1.000000   1.000000
     50          4.006487        4.006314   1.000000   1.000000
     51          5.017128        5.016903   1.000000   1.000000
     52          5.042438        5.042191   1.000000   1.000000
     53          5.197792        5.197527   1.000000   1.000000
     54          5.224691        5.224207   1.000000   1.000000
     55          5.564454        5.564289   0.023103   0.023359
     56          5.867841        5.867719   0.000000   0.000000
     57          6.067865        6.067402   0.000000   0.000000
     58          6.145856        6.145233   0.000000   0.000000
     59          6.450242        6.450163   0.000000   0.000000
     60          6.560766        6.560749   0.000000   0.000000
     61          6.664155        6.664042   0.000000   0.000000
     62          6.877385        6.877216   0.000000   0.000000
     63          7.054714        7.054649   0.000000   0.000000
     64          7.177406        7.177117   0.000000   0.000000
     65          7.185164        7.185042   0.000000   0.000000
     66          7.338790        7.338719   0.000000   0.000000
     67          7.942943        7.942932   0.000000   0.000000
     68          7.964226        7.964191   0.000000   0.000000
     69          8.167711        8.166805   0.000000   0.000000
     70          8.197844        8.204834   0.000000   0.000000
 
  0.2000000E+00  0.4285714E+00  0.1896739E-14  0.1142857E-01
      1        -33.837311      -33.837375   1.000000   1.000000
      2        -33.829591      -33.829614   1.000000   1.000000
      3        -33.823134      -33.823210   1.000000   1.000000
      4        -33.818216      -33.818228   1.000000   1.000000
      5        -20.411820      -20.411919   1.000000   1.000000
      6        -20.400569      -20.400669   1.000000   1.000000
      7        -20.307396      -20.307636   1.000000   1.000000
      8        -20.295425      -20.295664   1.000000   1.000000
      9        -18.878502      -18.878649   1.000000   1.000000
     10        -18.845117      -18.845262   1.000000   1.000000
     11        -18.765609      -18.765700   1.000000   1.000000
     12        -18.714180      -18.714270   1.000000   1.000000
     13        -15.072211      -15.072271   1.000000   1.000000
     14        -15.059237      -15.059315   1.000000   1.000000
     15        -15.019791      -15.019844   1.000000   1.000000
     16        -15.015639      -15.015678   1.000000   1.000000
     17        -14.993374      -14.993447   1.000000   1.000000
     18        -14.982017      -14.982100   1.000000   1.000000
     19        -14.919445      -14.919487   1.000000   1.000000
     20        -14.886030      -14.886060   1.000000   1.000000
     21        -14.735279      -14.735359   1.000000   1.000000
     22        -14.714236      -14.714354   1.000000   1.000000
     23        -14.698884      -14.698941   1.000000   1.000000
     24        -14.693505      -14.693561   1.000000   1.000000
     25         -6.795379       -6.795463   1.000000   1.000000
     26         -6.767155       -6.767489   1.000000   1.000000
     27         -6.561218       -6.561307   1.000000   1.000000
     28         -6.513110       -6.513463   1.000000   1.000000
     29         -4.880724       -4.880849   1.000000   1.000000
     30         -4.861636       -4.861709   1.000000   1.000000
     31         -4.787868       -4.788029   1.000000   1.000000
     32         -4.758342       -4.758407   1.000000   1.000000
     33         -4.584874       -4.585009   1.000000   1.000000
     34         -4.548944       -4.549298   1.000000   1.000000
     35         -4.530745       -4.530985   1.000000   1.000000
     36         -4.523177       -4.523208   1.000000   1.000000
     37         -4.100017       -4.100115   1.000000   1.000000
     38         -4.065189       -4.065850   1.000000   1.000000
     39         -3.901158       -3.901314   1.000000   1.000000
     40         -3.846046       -3.846680   1.000000   1.000000
     41         -1.768677       -1.768763   1.000000   1.000000
     42         -1.648261       -1.648539   1.000000   1.000000
     43         -1.626151       -1.626425   1.000000   1.000000
     44         -1.556391       -1.556449   1.000000   1.000000
     45         -1.457474       -1.457568   1.000000   1.000000
     46         -1.328962       -1.329090   1.000000   1.000000
     47         -1.276761       -1.276856   1.000000   1.000000
     48         -1.141204       -1.141296   1.000000   1.000000
     49          3.932667        3.932506   1.000000   1.000000
     50          4.093705        4.093523   1.000000   1.000000
     51          4.797031        4.796819   1.000000   1.000000
     52          4.839259        4.839001   1.000000   1.000000
     53          5.248193        5.247881   1.000000   1.000000
     54          5.296859        5.296399   1.000000   1.000000
     55          5.730801        5.730594   0.000000   0.000000
     56          5.864386        5.864048   0.000000   0.000000
     57          5.930516        5.929982   0.000000   0.000000
     58          6.154759        6.154497   0.000000   0.000000
     59          6.515747        6.515660   0.000000   0.000000
     60          6.606023        6.606001   0.000000   0.000000
     61          6.721311        6.721211   0.000000   0.000000
     62          6.921654        6.921460   0.000000   0.000000
     63          7.044046        7.043972   0.000000   0.000000
     64          7.155054        7.155013   0.000000   0.000000
     65          7.279048        7.278680   0.000000   0.000000
     66          7.384844        7.384772   0.000000   0.000000
     67          7.724963        7.724890   0.000000   0.000000
     68          7.785987        7.785971   0.000000   0.000000
     69          8.051932        8.051696   0.000000   0.000000
     70          8.125338        8.124743   0.000000   0.000000
 
 -0.2000000E+00  0.4285714E+00 -0.1896739E-14  0.1142857E-01
      1        -33.837311      -33.837375   1.000000   1.000000
      2        -33.829590      -33.829615   1.000000   1.000000
      3        -33.823134      -33.823209   1.000000   1.000000
      4        -33.818216      -33.818228   1.000000   1.000000
      5        -20.411820      -20.411919   1.000000   1.000000
      6        -20.400569      -20.400668   1.000000   1.000000
      7        -20.307397      -20.307635   1.000000   1.000000
      8        -20.295424      -20.295666   1.000000   1.000000
      9        -18.878500      -18.878651   1.000000   1.000000
     10        -18.845118      -18.845262   1.000000   1.000000
     11        -18.765611      -18.765698   1.000000   1.000000
     12        -18.714179      -18.714272   1.000000   1.000000
     13        -15.072217      -15.072264   1.000000   1.000000
     14        -15.059233      -15.059319   1.000000   1.000000
     15        -15.019794      -15.019841   1.000000   1.000000
     16        -15.015629      -15.015689   1.000000   1.000000
     17        -14.993378      -14.993444   1.000000   1.000000
     18        -14.982018      -14.982099   1.000000   1.000000
     19        -14.919444      -14.919488   1.000000   1.000000
     20        -14.886031      -14.886058   1.000000   1.000000
     21        -14.735273      -14.735365   1.000000   1.000000
     22        -14.714245      -14.714346   1.000000   1.000000
     23        -14.698873      -14.698952   1.000000   1.000000
     24        -14.693513      -14.693553   1.000000   1.000000
     25         -6.795379       -6.795462   1.000000   1.000000
     26         -6.767156       -6.767489   1.000000   1.000000
     27         -6.561217       -6.561307   1.000000   1.000000
     28         -6.513109       -6.513464   1.000000   1.000000
     29         -4.880720       -4.880853   1.000000   1.000000
     30         -4.861632       -4.861714   1.000000   1.000000
     31         -4.787871       -4.788026   1.000000   1.000000
     32         -4.758347       -4.758402   1.000000   1.000000
     33         -4.584807       -4.585074   1.000000   1.000000
     34         -4.549109       -4.549134   1.000000   1.000000
     35         -4.530804       -4.530935   1.000000   1.000000
     36         -4.523023       -4.523353   1.000000   1.000000
     37         -4.100014       -4.100117   1.000000   1.000000
     38         -4.065195       -4.065844   1.000000   1.000000
     39         -3.901152       -3.901320   1.000000   1.000000
     40         -3.846046       -3.846680   1.000000   1.000000
     41         -1.768630       -1.768809   1.000000   1.000000
     42         -1.648318       -1.648482   1.000000   1.000000
     43         -1.626170       -1.626406   1.000000   1.000000
     44         -1.556376       -1.556464   1.000000   1.000000
     45         -1.457471       -1.457570   1.000000   1.000000
     46         -1.328947       -1.329105   1.000000   1.000000
     47         -1.276764       -1.276853   1.000000   1.000000
     48         -1.141203       -1.141297   1.000000   1.000000
     49          3.932670        3.932502   1.000000   1.000000
     50          4.093700        4.093528   1.000000   1.000000
     51          4.797038        4.796811   1.000000   1.000000
     52          4.839251        4.839010   1.000000   1.000000
     53          5.248168        5.247906   1.000000   1.000000
     54          5.296897        5.296362   1.000000   1.000000
     55          5.730803        5.730592   0.000000   0.000000
     56          5.864379        5.864055   0.000000   0.000000
     57          5.930483        5.930015   0.000000   0.000000
     58          6.154797        6.154459   0.000000   0.000000
     59          6.515742        6.515666   0.000000   0.000000
     60          6.606025        6.606000   0.000000   0.000000
     61          6.721312        6.721209   0.000000   0.000000
     62          6.921645        6.921470   0.000000   0.000000
     63          7.044039        7.043978   0.000000   0.000000
     64          7.155054        7.155013   0.000000   0.000000
     65          7.279044        7.278685   0.000000   0.000000
     66          7.384854        7.384761   0.000000   0.000000
     67          7.724910        7.724943   0.000000   0.000000
     68          7.786016        7.785941   0.000000   0.000000
     69          8.051990        8.051641   0.000000   0.000000
     70          8.125430        8.124856   0.000000   0.000000
 
  0.4000000E+00  0.4285714E+00 -0.1903305E-14  0.1142857E-01
      1        -33.833831      -33.833899   1.000000   1.000000
      2        -33.827446      -33.827466   1.000000   1.000000
      3        -33.826364      -33.826435   1.000000   1.000000
      4        -33.820618      -33.820634   1.000000   1.000000
      5        -20.417811      -20.417909   1.000000   1.000000
      6        -20.407516      -20.407615   1.000000   1.000000
      7        -20.312941      -20.313181   1.000000   1.000000
      8        -20.305269      -20.305510   1.000000   1.000000
      9        -18.852560      -18.852704   1.000000   1.000000
     10        -18.836757      -18.836904   1.000000   1.000000
     11        -18.740879      -18.740972   1.000000   1.000000
     12        -18.709315      -18.709404   1.000000   1.000000
     13        -15.107165      -15.107220   1.000000   1.000000
     14        -15.084831      -15.084923   1.000000   1.000000
     15        -15.036844      -15.036944   1.000000   1.000000
     16        -15.028420      -15.028455   1.000000   1.000000
     17        -14.984492      -14.984548   1.000000   1.000000
     18        -14.968458      -14.968495   1.000000   1.000000
     19        -14.946865      -14.946913   1.000000   1.000000
     20        -14.925013      -14.925057   1.000000   1.000000
     21        -14.709728      -14.709813   1.000000   1.000000
     22        -14.702919      -14.703015   1.000000   1.000000
     23        -14.679592      -14.679661   1.000000   1.000000
     24        -14.678364      -14.678422   1.000000   1.000000
     25         -6.631987       -6.632074   1.000000   1.000000
     26         -6.603518       -6.603857   1.000000   1.000000
     27         -6.533734       -6.533822   1.000000   1.000000
     28         -6.477867       -6.478212   1.000000   1.000000
     29         -5.008547       -5.008653   1.000000   1.000000
     30         -4.995286       -4.995409   1.000000   1.000000
     31         -4.961343       -4.961510   1.000000   1.000000
     32         -4.915403       -4.915463   1.000000   1.000000
     33         -4.598844       -4.599026   1.000000   1.000000
     34         -4.567791       -4.568027   1.000000   1.000000
     35         -4.543917       -4.544138   1.000000   1.000000
     36         -4.533483       -4.533604   1.000000   1.000000
     37         -4.052093       -4.052203   1.000000   1.000000
     38         -4.018417       -4.019107   1.000000   1.000000
     39         -3.983090       -3.983179   1.000000   1.000000
     40         -3.937676       -3.938299   1.000000   1.000000
     41         -1.688796       -1.688852   1.000000   1.000000
     42         -1.584701       -1.584944   1.000000   1.000000
     43         -1.540136       -1.540398   1.000000   1.000000
     44         -1.428071       -1.428132   1.000000   1.000000
     45         -1.394585       -1.394690   1.000000   1.000000
     46         -1.300420       -1.300555   1.000000   1.000000
     47         -1.195511       -1.195659   1.000000   1.000000
     48         -1.103821       -1.103907   1.000000   1.000000
     49          4.171809        4.171634   1.000000   1.000000
     50          4.285882        4.285650   1.000000   1.000000
     51          4.482720        4.482576   1.000000   1.000000
     52          4.562933        4.562687   1.000000   1.000000
     53          5.304004        5.303582   1.000000   1.000000
     54          5.346377        5.345902   0.999985   0.999986
     55          5.585669        5.585538   0.004749   0.004801
     56          5.643649        5.642848   0.000012   0.000013
     57          6.217444        6.217241   0.000000   0.000000
     58          6.481908        6.481862   0.000000   0.000000
     59          6.642415        6.642252   0.000000   0.000000
     60          6.708192        6.708132   0.000000   0.000000
     61          6.913442        6.913383   0.000000   0.000000
     62          6.943701        6.943676   0.000000   0.000000
     63          7.051493        7.051338   0.000000   0.000000
     64          7.087131        7.086889   0.000000   0.000000
     65          7.225636        7.225512   0.000000   0.000000
     66          7.345100        7.344901   0.000000   0.000000
     67          7.440608        7.440552   0.000000   0.000000
     68          7.630066        7.629853   0.000000   0.000000
     69          7.804718        7.804560   0.000000   0.000000
     70          7.874694        7.874335   0.000000   0.000000
 
 -0.4000000E+00  0.4285714E+00  0.1903305E-14  0.1142857E-01
      1        -33.833831      -33.833899   1.000000   1.000000
      2        -33.827443      -33.827470   1.000000   1.000000
      3        -33.826367      -33.826431   1.000000   1.000000
      4        -33.820618      -33.820634   1.000000   1.000000
      5        -20.417811      -20.417909   1.000000   1.000000
      6        -20.407516      -20.407615   1.000000   1.000000
      7        -20.312943      -20.313180   1.000000   1.000000
      8        -20.305268      -20.305511   1.000000   1.000000
      9        -18.852557      -18.852706   1.000000   1.000000
     10        -18.836759      -18.836902   1.000000   1.000000
     11        -18.740881      -18.740970   1.000000   1.000000
     12        -18.709314      -18.709405   1.000000   1.000000
     13        -15.107168      -15.107217   1.000000   1.000000
     14        -15.084828      -15.084926   1.000000   1.000000
     15        -15.036844      -15.036944   1.000000   1.000000
     16        -15.028420      -15.028456   1.000000   1.000000
     17        -14.984490      -14.984550   1.000000   1.000000
     18        -14.968460      -14.968493   1.000000   1.000000
     19        -14.946865      -14.946912   1.000000   1.000000
     20        -14.925013      -14.925056   1.000000   1.000000
     21        -14.709719      -14.709823   1.000000   1.000000
     22        -14.702928      -14.703006   1.000000   1.000000
     23        -14.679606      -14.679647   1.000000   1.000000
     24        -14.678351      -14.678436   1.000000   1.000000
     25         -6.631988       -6.632073   1.000000   1.000000
     26         -6.603519       -6.603856   1.000000   1.000000
     27         -6.533734       -6.533823   1.000000   1.000000
     28         -6.477865       -6.478213   1.000000   1.000000
     29         -5.008520       -5.008678   1.000000   1.000000
     30         -4.995314       -4.995382   1.000000   1.000000
     31         -4.961338       -4.961514   1.000000   1.000000
     32         -4.915406       -4.915460   1.000000   1.000000
     33         -4.598812       -4.599058   1.000000   1.000000
     34         -4.567849       -4.567969   1.000000   1.000000
     35         -4.543959       -4.544099   1.000000   1.000000
     36         -4.533416       -4.533668   1.000000   1.000000
     37         -4.052075       -4.052222   1.000000   1.000000
     38         -4.018484       -4.019041   1.000000   1.000000
     39         -3.983026       -3.983242   1.000000   1.000000
     40         -3.937691       -3.938284   1.000000   1.000000
     41         -1.688772       -1.688876   1.000000   1.000000
     42         -1.584708       -1.584936   1.000000   1.000000
     43         -1.540167       -1.540368   1.000000   1.000000
     44         -1.428068       -1.428134   1.000000   1.000000
     45         -1.394587       -1.394687   1.000000   1.000000
     46         -1.300403       -1.300572   1.000000   1.000000
     47         -1.195512       -1.195658   1.000000   1.000000
     48         -1.103821       -1.103906   1.000000   1.000000
     49          4.171829        4.171615   1.000000   1.000000
     50          4.285843        4.285690   1.000000   1.000000
     51          4.482769        4.482527   1.000000   1.000000
     52          4.562903        4.562717   1.000000   1.000000
     53          5.303977        5.303609   1.000000   1.000000
     54          5.346412        5.345867   0.999985   0.999986
     55          5.585669        5.585538   0.004749   0.004801
     56          5.643641        5.642855   0.000012   0.000013
     57          6.217437        6.217249   0.000000   0.000000
     58          6.481947        6.481824   0.000000   0.000000
     59          6.642385        6.642283   0.000000   0.000000
     60          6.708181        6.708143   0.000000   0.000000
     61          6.913465        6.913358   0.000000   0.000000
     62          6.943741        6.943636   0.000000   0.000000
     63          7.051437        7.051393   0.000000   0.000000
     64          7.087112        7.086907   0.000000   0.000000
     65          7.225644        7.225505   0.000000   0.000000
     66          7.345059        7.344941   0.000000   0.000000
     67          7.440680        7.440481   0.000000   0.000000
     68          7.630001        7.629919   0.000000   0.000000
     69          7.804743        7.804540   0.000000   0.000000
     70          7.874874        7.874273   0.000000   0.000000
 
 -0.6560908E-18  0.0000000E+00  0.2000000E+00  0.1142857E-01
      1        -33.849912      -33.849962   1.000000   1.000000
      2        -33.826330      -33.826403   1.000000   1.000000
      3        -33.822950      -33.822979   1.000000   1.000000
      4        -33.820005      -33.820028   1.000000   1.000000
      5        -20.308151      -20.308252   1.000000   1.000000
      6        -20.299550      -20.299649   1.000000   1.000000
      7        -20.168201      -20.168435   1.000000   1.000000
      8        -20.156896      -20.157134   1.000000   1.000000
      9        -18.886098      -18.886231   1.000000   1.000000
     10        -18.859618      -18.859769   1.000000   1.000000
     11        -18.710534      -18.710622   1.000000   1.000000
     12        -18.586614      -18.586719   1.000000   1.000000
     13        -15.285348      -15.285433   1.000000   1.000000
     14        -15.184426      -15.184536   1.000000   1.000000
     15        -15.170393      -15.170451   1.000000   1.000000
     16        -15.110992      -15.111074   1.000000   1.000000
     17        -15.065902      -15.065953   1.000000   1.000000
     18        -15.034981      -15.035098   1.000000   1.000000
     19        -15.032573      -15.032643   1.000000   1.000000
     20        -14.961976      -14.962011   1.000000   1.000000
     21        -14.949481      -14.949551   1.000000   1.000000
     22        -14.939360      -14.939416   1.000000   1.000000
     23        -14.917256      -14.917284   1.000000   1.000000
     24        -14.754560      -14.754598   1.000000   1.000000
     25         -6.905548       -6.905716   1.000000   1.000000
     26         -6.833059       -6.833318   1.000000   1.000000
     27         -6.662457       -6.662588   1.000000   1.000000
     28         -6.607329       -6.607650   1.000000   1.000000
     29         -4.914239       -4.914357   1.000000   1.000000
     30         -4.895919       -4.896005   1.000000   1.000000
     31         -4.802458       -4.802593   1.000000   1.000000
     32         -4.757176       -4.757249   1.000000   1.000000
     33         -4.006265       -4.006436   1.000000   1.000000
     34         -3.955231       -3.955830   1.000000   1.000000
     35         -3.919738       -3.920051   1.000000   1.000000
     36         -3.764753       -3.764915   1.000000   1.000000
     37         -3.746973       -3.747462   1.000000   1.000000
     38         -3.601834       -3.601998   1.000000   1.000000
     39         -3.511102       -3.511272   1.000000   1.000000
     40         -3.380139       -3.380314   1.000000   1.000000
     41         -2.222015       -2.222096   1.000000   1.000000
     42         -1.901259       -1.901449   1.000000   1.000000
     43         -1.822528       -1.822594   1.000000   1.000000
     44         -1.713343       -1.713457   1.000000   1.000000
     45         -1.564716       -1.564967   1.000000   1.000000
     46         -1.477257       -1.477356   1.000000   1.000000
     47         -1.237898       -1.238080   1.000000   1.000000
     48         -0.949606       -0.949703   1.000000   1.000000
     49          3.911830        3.911600   1.000000   1.000000
     50          4.750327        4.750138   1.000000   1.000000
     51          5.178696        5.178359   1.000000   1.000000
     52          5.330621        5.330335   0.999998   0.999998
     53          5.410088        5.409790   0.991168   0.991368
     54          5.465216        5.465037   0.791993   0.793443
     55          5.679945        5.679750   0.000000   0.000000
     56          5.785847        5.785710   0.000000   0.000000
     57          6.031901        6.031587   0.000000   0.000000
     58          6.238056        6.237814   0.000000   0.000000
     59          6.331961        6.331724   0.000000   0.000000
     60          6.374294        6.373868   0.000000   0.000000
     61          6.583620        6.583291   0.000000   0.000000
     62          6.680119        6.679901   0.000000   0.000000
     63          6.715542        6.715003   0.000000   0.000000
     64          6.810581        6.809991   0.000000   0.000000
     65          7.046287        7.045960   0.000000   0.000000
     66          7.348812        7.348776   0.000000   0.000000
     67          7.384724        7.384717   0.000000   0.000000
     68          7.654766        7.654586   0.000000   0.000000
     69          8.018102        8.017990   0.000000   0.000000
     70          8.232731        8.232613   0.000000   0.000000
 
  0.2000000E+00  0.0000000E+00  0.2000000E+00  0.1142857E-01
      1        -33.845315      -33.845366   1.000000   1.000000
      2        -33.830463      -33.830531   1.000000   1.000000
      3        -33.825164      -33.825184   1.000000   1.000000
      4        -33.818279      -33.818315   1.000000   1.000000
      5        -20.311757      -20.311857   1.000000   1.000000
      6        -20.302966      -20.303066   1.000000   1.000000
      7        -20.172360      -20.172595   1.000000   1.000000
      8        -20.161476      -20.161714   1.000000   1.000000
      9        -18.875928      -18.876062   1.000000   1.000000
     10        -18.846494      -18.846643   1.000000   1.000000
     11        -18.694612      -18.694702   1.000000   1.000000
     12        -18.592024      -18.592127   1.000000   1.000000
     13        -15.271609      -15.271695   1.000000   1.000000
     14        -15.198066      -15.198162   1.000000   1.000000
     15        -15.169741      -15.169812   1.000000   1.000000
     16        -15.112000      -15.112082   1.000000   1.000000
     17        -15.094962      -15.095026   1.000000   1.000000
     18        -15.027589      -15.027666   1.000000   1.000000
     19        -15.014745      -15.014859   1.000000   1.000000
     20        -14.971266      -14.971335   1.000000   1.000000
     21        -14.954348      -14.954390   1.000000   1.000000
     22        -14.932397      -14.932421   1.000000   1.000000
     23        -14.913805      -14.913845   1.000000   1.000000
     24        -14.786576      -14.786615   1.000000   1.000000
     25         -6.813854       -6.814023   1.000000   1.000000
     26         -6.737879       -6.738137   1.000000   1.000000
     27         -6.621094       -6.621207   1.000000   1.000000
     28         -6.574089       -6.574433   1.000000   1.000000
     29         -5.047403       -5.047526   1.000000   1.000000
     30         -5.019117       -5.019192   1.000000   1.000000
     31         -4.840282       -4.840435   1.000000   1.000000
     32         -4.811636       -4.811692   1.000000   1.000000
     33         -4.013062       -4.013354   1.000000   1.000000
     34         -3.974052       -3.974143   1.000000   1.000000
     35         -3.948807       -3.949506   1.000000   1.000000
     36         -3.834259       -3.834751   1.000000   1.000000
     37         -3.753779       -3.753941   1.000000   1.000000
     38         -3.620182       -3.620344   1.000000   1.000000
     39         -3.524999       -3.525167   1.000000   1.000000
     40         -3.397666       -3.397841   1.000000   1.000000
     41         -2.173703       -2.173782   1.000000   1.000000
     42         -1.779527       -1.779638   1.000000   1.000000
     43         -1.766959       -1.767091   1.000000   1.000000
     44         -1.678861       -1.678985   1.000000   1.000000
     45         -1.457688       -1.457988   1.000000   1.000000
     46         -1.411790       -1.411844   1.000000   1.000000
     47         -1.189959       -1.190136   1.000000   1.000000
     48         -1.018267       -1.018362   1.000000   1.000000
     49          4.236244        4.235989   1.000000   1.000000
     50          4.843649        4.843186   1.000000   1.000000
     51          4.991089        4.990919   1.000000   1.000000
     52          5.049864        5.049614   1.000000   1.000000
     53          5.183974        5.183768   1.000000   1.000000
     54          5.340479        5.340266   0.999993   0.999993
     55          5.772625        5.772398   0.000000   0.000000
     56          6.038081        6.037888   0.000000   0.000000
     57          6.119921        6.119764   0.000000   0.000000
     58          6.203317        6.202942   0.000000   0.000000
     59          6.260643        6.260243   0.000000   0.000000
     60          6.364784        6.364484   0.000000   0.000000
     61          6.547504        6.547266   0.000000   0.000000
     62          6.665768        6.665269   0.000000   0.000000
     63          6.805961        6.805647   0.000000   0.000000
     64          6.896769        6.896644   0.000000   0.000000
     65          6.942252        6.942011   0.000000   0.000000
     66          7.057461        7.057211   0.000000   0.000000
     67          7.205857        7.205644   0.000000   0.000000
     68          7.721247        7.721024   0.000000   0.000000
     69          8.194044        8.193985   0.000000   0.000000
     70          8.200997        8.200876   0.000000   0.000000
 
  0.4000000E+00  0.0000000E+00  0.2000000E+00  0.1142857E-01
      1        -33.840191      -33.840246   1.000000   1.000000
      2        -33.835133      -33.835188   1.000000   1.000000
      3        -33.826917      -33.826948   1.000000   1.000000
      4        -33.816983      -33.817018   1.000000   1.000000
      5        -20.317617      -20.317716   1.000000   1.000000
      6        -20.309525      -20.309626   1.000000   1.000000
      7        -20.179762      -20.179997   1.000000   1.000000
      8        -20.170148      -20.170386   1.000000   1.000000
      9        -18.850398      -18.850536   1.000000   1.000000
     10        -18.830815      -18.830957   1.000000   1.000000
     11        -18.656635      -18.656731   1.000000   1.000000
     12        -18.612958      -18.613057   1.000000   1.000000
     13        -15.244084      -15.244171   1.000000   1.000000
     14        -15.225772      -15.225860   1.000000   1.000000
     15        -15.158195      -15.158274   1.000000   1.000000
     16        -15.124570      -15.124652   1.000000   1.000000
     17        -15.119240      -15.119302   1.000000   1.000000
     18        -15.051049      -15.051148   1.000000   1.000000
     19        -15.010776      -15.010871   1.000000   1.000000
     20        -14.972535      -14.972584   1.000000   1.000000
     21        -14.960454      -14.960512   1.000000   1.000000
     22        -14.932241      -14.932271   1.000000   1.000000
     23        -14.869256      -14.869284   1.000000   1.000000
     24        -14.837157      -14.837206   1.000000   1.000000
     25         -6.653922       -6.654079   1.000000   1.000000
     26         -6.607802       -6.608043   1.000000   1.000000
     27         -6.577962       -6.578108   1.000000   1.000000
     28         -6.524266       -6.524603   1.000000   1.000000
     29         -5.171758       -5.171902   1.000000   1.000000
     30         -5.145918       -5.145975   1.000000   1.000000
     31         -4.948761       -4.948910   1.000000   1.000000
     32         -4.913054       -4.913118   1.000000   1.000000
     33         -4.114486       -4.114780   1.000000   1.000000
     34         -4.018572       -4.018981   1.000000   1.000000
     35         -3.974065       -3.974313   1.000000   1.000000
     36         -3.931425       -3.932027   1.000000   1.000000
     37         -3.720954       -3.721116   1.000000   1.000000
     38         -3.671918       -3.672079   1.000000   1.000000
     39         -3.519969       -3.520136   1.000000   1.000000
     40         -3.448280       -3.448452   1.000000   1.000000
     41         -2.032177       -2.032255   1.000000   1.000000
     42         -1.847019       -1.847100   1.000000   1.000000
     43         -1.545211       -1.545397   1.000000   1.000000
     44         -1.455687       -1.455792   1.000000   1.000000
     45         -1.397993       -1.398201   1.000000   1.000000
     46         -1.213816       -1.213959   1.000000   1.000000
     47         -1.209961       -1.210071   1.000000   1.000000
     48         -1.142485       -1.142653   1.000000   1.000000
     49          4.647674        4.647275   1.000000   1.000000
     50          4.712375        4.712069   1.000000   1.000000
     51          4.884846        4.884548   1.000000   1.000000
     52          4.973154        4.973040   1.000000   1.000000
     53          5.214978        5.214687   1.000000   1.000000
     54          5.466642        5.466485   0.780246   0.781558
     55          5.625406        5.625066   0.000101   0.000105
     56          5.943087        5.942886   0.000000   0.000000
     57          5.992259        5.991837   0.000000   0.000000
     58          6.179657        6.179185   0.000000   0.000000
     59          6.211512        6.211151   0.000000   0.000000
     60          6.381820        6.381603   0.000000   0.000000
     61          6.491431        6.491214   0.000000   0.000000
     62          6.607468        6.607295   0.000000   0.000000
     63          6.640981        6.640802   0.000000   0.000000
     64          6.670789        6.670613   0.000000   0.000000
     65          6.946586        6.946330   0.000000   0.000000
     66          6.992397        6.992190   0.000000   0.000000
     67          7.428111        7.427884   0.000000   0.000000
     68          7.671051        7.670814   0.000000   0.000000
     69          7.968692        7.968614   0.000000   0.000000
     70          8.182958        8.182898   0.000000   0.000000
 
 -0.4000000E+00  0.0000000E+00  0.2000000E+00  0.1142857E-01
      1        -33.845719      -33.845771   1.000000   1.000000
      2        -33.829567      -33.829624   1.000000   1.000000
      3        -33.826611      -33.826646   1.000000   1.000000
      4        -33.817302      -33.817333   1.000000   1.000000
      5        -20.317607      -20.317706   1.000000   1.000000
      6        -20.310244      -20.310345   1.000000   1.000000
      7        -20.180347      -20.180583   1.000000   1.000000
      8        -20.170834      -20.171072   1.000000   1.000000
      9        -18.844402      -18.844541   1.000000   1.000000
     10        -18.833558      -18.833698   1.000000   1.000000
     11        -18.658533      -18.658629   1.000000   1.000000
     12        -18.611860      -18.611959   1.000000   1.000000
     13        -15.257516      -15.257602   1.000000   1.000000
     14        -15.212207      -15.212296   1.000000   1.000000
     15        -15.144571      -15.144650   1.000000   1.000000
     16        -15.138938      -15.139021   1.000000   1.000000
     17        -15.113581      -15.113639   1.000000   1.000000
     18        -15.066618      -15.066723   1.000000   1.000000
     19        -15.013726      -15.013810   1.000000   1.000000
     20        -14.980853      -14.980889   1.000000   1.000000
     21        -14.944915      -14.944987   1.000000   1.000000
     22        -14.927629      -14.927668   1.000000   1.000000
     23        -14.897648      -14.897681   1.000000   1.000000
     24        -14.803248      -14.803291   1.000000   1.000000
     25         -6.686667       -6.686799   1.000000   1.000000
     26         -6.645624       -6.645925   1.000000   1.000000
     27         -6.573516       -6.573622   1.000000   1.000000
     28         -6.520010       -6.520342   1.000000   1.000000
     29         -5.105601       -5.105744   1.000000   1.000000
     30         -5.080354       -5.080425   1.000000   1.000000
     31         -4.967196       -4.967329   1.000000   1.000000
     32         -4.915381       -4.915457   1.000000   1.000000
     33         -4.147341       -4.147609   1.000000   1.000000
     34         -4.061829       -4.062332   1.000000   1.000000
     35         -3.977712       -3.977939   1.000000   1.000000
     36         -3.908597       -3.909144   1.000000   1.000000
     37         -3.724346       -3.724506   1.000000   1.000000
     38         -3.667840       -3.668003   1.000000   1.000000
     39         -3.497821       -3.497990   1.000000   1.000000
     40         -3.474457       -3.474626   1.000000   1.000000
     41         -1.993129       -1.993213   1.000000   1.000000
     42         -1.878634       -1.878710   1.000000   1.000000
     43         -1.517411       -1.517605   1.000000   1.000000
     44         -1.472805       -1.472912   1.000000   1.000000
     45         -1.426791       -1.426999   1.000000   1.000000
     46         -1.238189       -1.238340   1.000000   1.000000
     47         -1.200131       -1.200231   1.000000   1.000000
     48         -1.115733       -1.115906   1.000000   1.000000
     49          4.366274        4.366008   1.000000   1.000000
     50          4.784230        4.783967   1.000000   1.000000
     51          4.906613        4.906389   1.000000   1.000000
     52          5.126702        5.126453   1.000000   1.000000
     53          5.280689        5.280447   1.000000   1.000000
     54          5.594089        5.593725   0.002315   0.002391
     55          5.703849        5.703371   0.000000   0.000000
     56          5.845504        5.845296   0.000000   0.000000
     57          5.953720        5.953496   0.000000   0.000000
     58          5.987577        5.987308   0.000000   0.000000
     59          6.197908        6.197284   0.000000   0.000000
     60          6.339203        6.338824   0.000000   0.000000
     61          6.381848        6.381848   0.000000   0.000000
     62          6.472858        6.472572   0.000000   0.000000
     63          6.545054        6.544837   0.000000   0.000000
     64          7.015594        7.015406   0.000000   0.000000
     65          7.145133        7.144853   0.000000   0.000000
     66          7.242425        7.242402   0.000000   0.000000
     67          7.426534        7.426310   0.000000   0.000000
     68          7.506096        7.505870   0.000000   0.000000
     69          7.900961        7.900858   0.000000   0.000000
     70          8.198456        8.198394   0.000000   0.000000
 
 -0.2000000E+00  0.0000000E+00  0.2000000E+00  0.1142857E-01
      1        -33.850063      -33.850113   1.000000   1.000000
      2        -33.825580      -33.825647   1.000000   1.000000
      3        -33.824702      -33.824740   1.000000   1.000000
      4        -33.818840      -33.818861   1.000000   1.000000
      5        -20.311809      -20.311909   1.000000   1.000000
      6        -20.304122      -20.304222   1.000000   1.000000
      7        -20.173359      -20.173595   1.000000   1.000000
      8        -20.162683      -20.162921   1.000000   1.000000
      9        -18.869327      -18.869461   1.000000   1.000000
     10        -18.847981      -18.848130   1.000000   1.000000
     11        -18.696288      -18.696378   1.000000   1.000000
     12        -18.591521      -18.591625   1.000000   1.000000
     13        -15.279985      -15.280071   1.000000   1.000000
     14        -15.189464      -15.189560   1.000000   1.000000
     15        -15.160777      -15.160848   1.000000   1.000000
     16        -15.121857      -15.121939   1.000000   1.000000
     17        -15.083104      -15.083154   1.000000   1.000000
     18        -15.057294      -15.057402   1.000000   1.000000
     19        -15.023253      -15.023335   1.000000   1.000000
     20        -14.976134      -14.976167   1.000000   1.000000
     21        -14.945199      -14.945240   1.000000   1.000000
     22        -14.932385      -14.932468   1.000000   1.000000
     23        -14.909072      -14.909103   1.000000   1.000000
     24        -14.762243      -14.762282   1.000000   1.000000
     25         -6.847812       -6.847970   1.000000   1.000000
     26         -6.788053       -6.788321   1.000000   1.000000
     27         -6.620932       -6.621043   1.000000   1.000000
     28         -6.572961       -6.573296   1.000000   1.000000
     29         -4.928988       -4.929092   1.000000   1.000000
     30         -4.925313       -4.925429   1.000000   1.000000
     31         -4.868117       -4.868248   1.000000   1.000000
     32         -4.830278       -4.830344   1.000000   1.000000
     33         -4.078631       -4.078741   1.000000   1.000000
     34         -4.039158       -4.039819   1.000000   1.000000
     35         -3.931795       -3.932074   1.000000   1.000000
     36         -3.817363       -3.817872   1.000000   1.000000
     37         -3.755449       -3.755609   1.000000   1.000000
     38         -3.617385       -3.617549   1.000000   1.000000
     39         -3.511427       -3.511596   1.000000   1.000000
     40         -3.418190       -3.418361   1.000000   1.000000
     41         -2.143143       -2.143227   1.000000   1.000000
     42         -1.792652       -1.792705   1.000000   1.000000
     43         -1.754632       -1.754832   1.000000   1.000000
     44         -1.693344       -1.693469   1.000000   1.000000
     45         -1.473893       -1.474196   1.000000   1.000000
     46         -1.421989       -1.422042   1.000000   1.000000
     47         -1.176767       -1.176948   1.000000   1.000000
     48         -1.015040       -1.015138   1.000000   1.000000
     49          3.974998        3.974769   1.000000   1.000000
     50          4.735969        4.735794   1.000000   1.000000
     51          5.153507        5.153271   1.000000   1.000000
     52          5.188121        5.187865   1.000000   1.000000
     53          5.478077        5.477815   0.673493   0.676166
     54          5.537324        5.536989   0.110069   0.111863
     55          5.670573        5.670372   0.000000   0.000000
     56          5.994144        5.993882   0.000000   0.000000
     57          6.044444        6.043836   0.000000   0.000000
     58          6.159777        6.159533   0.000000   0.000000
     59          6.220518        6.220274   0.000000   0.000000
     60          6.254307        6.254181   0.000000   0.000000
     61          6.416455        6.416267   0.000000   0.000000
     62          6.460375        6.460012   0.000000   0.000000
     63          6.550473        6.549761   0.000000   0.000000
     64          7.008618        7.008363   0.000000   0.000000
     65          7.200422        7.200179   0.000000   0.000000
     66          7.444973        7.444829   0.000000   0.000000
     67          7.475651        7.475623   0.000000   0.000000
     68          7.543736        7.543573   0.000000   0.000000
     69          7.933629        7.933518   0.000000   0.000000
     70          8.205579        8.205523   0.000000   0.000000
 
 -0.6560908E-18  0.1428571E+00  0.2000000E+00  0.1142857E-01
      1        -33.848050      -33.848100   1.000000   1.000000
      2        -33.825821      -33.825893   1.000000   1.000000
      3        -33.823313      -33.823347   1.000000   1.000000
      4        -33.819848      -33.819866   1.000000   1.000000
      5        -20.329618      -20.329709   1.000000   1.000000
      6        -20.320571      -20.320680   1.000000   1.000000
      7        -20.197570      -20.197798   1.000000   1.000000
      8        -20.185956      -20.186201   1.000000   1.000000
      9        -18.882342      -18.882480   1.000000   1.000000
     10        -18.862682      -18.862828   1.000000   1.000000
     11        -18.721593      -18.721682   1.000000   1.000000
     12        -18.606926      -18.607029   1.000000   1.000000
     13        -15.197844      -15.197918   1.000000   1.000000
     14        -15.113157      -15.113238   1.000000   1.000000
     15        -15.104553      -15.104631   1.000000   1.000000
     16        -15.059250      -15.059366   1.000000   1.000000
     17        -15.048254      -15.048310   1.000000   1.000000
     18        -15.018815      -15.018869   1.000000   1.000000
     19        -15.009733      -15.009845   1.000000   1.000000
     20        -14.967791      -14.967821   1.000000   1.000000
     21        -14.953298      -14.953359   1.000000   1.000000
     22        -14.934525      -14.934592   1.000000   1.000000
     23        -14.915791      -14.915820   1.000000   1.000000
     24        -14.770950      -14.770987   1.000000   1.000000
     25         -6.882256       -6.882413   1.000000   1.000000
     26         -6.822632       -6.822898   1.000000   1.000000
     27         -6.642615       -6.642740   1.000000   1.000000
     28         -6.590179       -6.590509   1.000000   1.000000
     29         -4.910255       -4.910375   1.000000   1.000000
     30         -4.893088       -4.893173   1.000000   1.000000
     31         -4.800526       -4.800664   1.000000   1.000000
     32         -4.758478       -4.758546   1.000000   1.000000
     33         -4.062413       -4.062665   1.000000   1.000000
     34         -4.004648       -4.005139   1.000000   1.000000
     35         -3.969654       -3.969923   1.000000   1.000000
     36         -3.875244       -3.875367   1.000000   1.000000
     37         -3.820357       -3.820769   1.000000   1.000000
     38         -3.734236       -3.734566   1.000000   1.000000
     39         -3.695653       -3.695825   1.000000   1.000000
     40         -3.593201       -3.593411   1.000000   1.000000
     41         -2.133185       -2.133263   1.000000   1.000000
     42         -1.882908       -1.883104   1.000000   1.000000
     43         -1.736289       -1.736352   1.000000   1.000000
     44         -1.667140       -1.667268   1.000000   1.000000
     45         -1.550030       -1.550272   1.000000   1.000000
     46         -1.466288       -1.466383   1.000000   1.000000
     47         -1.274260       -1.274446   1.000000   1.000000
     48         -0.949311       -0.949407   1.000000   1.000000
     49          4.182333        4.182083   1.000000   1.000000
     50          4.454868        4.454690   1.000000   1.000000
     51          5.050903        5.050606   1.000000   1.000000
     52          5.100396        5.100110   1.000000   1.000000
     53          5.216066        5.215965   1.000000   1.000000
     54          5.437892        5.437578   0.943653   0.944652
     55          5.525221        5.524936   0.188390   0.190577
     56          5.745087        5.744975   0.000000   0.000000
     57          6.149751        6.149490   0.000000   0.000000
     58          6.237309        6.236544   0.000000   0.000000
     59          6.438039        6.437391   0.000000   0.000000
     60          6.490563        6.490541   0.000000   0.000000
     61          6.639760        6.639469   0.000000   0.000000
     62          6.839932        6.839865   0.000000   0.000000
     63          6.935465        6.935182   0.000000   0.000000
     64          6.984636        6.984816   0.000000   0.000000
     65          7.145272        7.144477   0.000000   0.000000
     66          7.529310        7.529314   0.000000   0.000000
     67          7.640047        7.639942   0.000000   0.000000
     68          7.829988        7.829565   0.000000   0.000000
     69          8.002335        8.002133   0.000000   0.000000
     70          8.047328        8.047260   0.000000   0.000000
 
  0.6560908E-18  0.1428571E+00 -0.2000000E+00  0.1142857E-01
      1        -33.848050      -33.848100   1.000000   1.000000
      2        -33.825821      -33.825894   1.000000   1.000000
      3        -33.823313      -33.823347   1.000000   1.000000
      4        -33.819848      -33.819866   1.000000   1.000000
      5        -20.329609      -20.329718   1.000000   1.000000
      6        -20.320581      -20.320671   1.000000   1.000000
      7        -20.197563      -20.197805   1.000000   1.000000
      8        -20.185963      -20.186195   1.000000   1.000000
      9        -18.882347      -18.882476   1.000000   1.000000
     10        -18.862677      -18.862833   1.000000   1.000000
     11        -18.721594      -18.721682   1.000000   1.000000
     12        -18.606925      -18.607030   1.000000   1.000000
     13        -15.197835      -15.197929   1.000000   1.000000
     14        -15.113140      -15.113255   1.000000   1.000000
     15        -15.104568      -15.104616   1.000000   1.000000
     16        -15.059287      -15.059328   1.000000   1.000000
     17        -15.048250      -15.048315   1.000000   1.000000
     18        -15.018771      -15.018914   1.000000   1.000000
     19        -15.009764      -15.009814   1.000000   1.000000
     20        -14.967788      -14.967824   1.000000   1.000000
     21        -14.953309      -14.953347   1.000000   1.000000
     22        -14.934518      -14.934599   1.000000   1.000000
     23        -14.915784      -14.915827   1.000000   1.000000
     24        -14.770948      -14.770988   1.000000   1.000000
     25         -6.882256       -6.882413   1.000000   1.000000
     26         -6.822630       -6.822901   1.000000   1.000000
     27         -6.642617       -6.642739   1.000000   1.000000
     28         -6.590181       -6.590507   1.000000   1.000000
     29         -4.910254       -4.910376   1.000000   1.000000
     30         -4.893090       -4.893171   1.000000   1.000000
     31         -4.800526       -4.800664   1.000000   1.000000
     32         -4.758475       -4.758549   1.000000   1.000000
     33         -4.062445       -4.062634   1.000000   1.000000
     34         -4.004631       -4.005156   1.000000   1.000000
     35         -3.969660       -3.969917   1.000000   1.000000
     36         -3.875191       -3.875419   1.000000   1.000000
     37         -3.820375       -3.820751   1.000000   1.000000
     38         -3.734252       -3.734550   1.000000   1.000000
     39         -3.695651       -3.695827   1.000000   1.000000
     40         -3.593205       -3.593407   1.000000   1.000000
     41         -2.133180       -2.133267   1.000000   1.000000
     42         -1.882928       -1.883084   1.000000   1.000000
     43         -1.736269       -1.736373   1.000000   1.000000
     44         -1.667137       -1.667271   1.000000   1.000000
     45         -1.550040       -1.550262   1.000000   1.000000
     46         -1.466277       -1.466394   1.000000   1.000000
     47         -1.274270       -1.274436   1.000000   1.000000
     48         -0.949309       -0.949409   1.000000   1.000000
     49          4.182328        4.182088   1.000000   1.000000
     50          4.454879        4.454679   1.000000   1.000000
     51          5.050855        5.050653   1.000000   1.000000
     52          5.100398        5.100107   1.000000   1.000000
     53          5.216243        5.215790   1.000000   1.000000
     54          5.437813        5.437657   0.943906   0.944402
     55          5.525075        5.525081   0.189505   0.189460
     56          5.745308        5.744753   0.000000   0.000000
     57          6.149788        6.149454   0.000000   0.000000
     58          6.236907        6.236945   0.000000   0.000000
     59          6.437736        6.437691   0.000000   0.000000
     60          6.490900        6.490208   0.000000   0.000000
     61          6.639665        6.639564   0.000000   0.000000
     62          6.840218        6.839580   0.000000   0.000000
     63          6.935337        6.935308   0.000000   0.000000
     64          6.985147        6.984308   0.000000   0.000000
     65          7.144896        7.144850   0.000000   0.000000
     66          7.529320        7.529305   0.000000   0.000000
     67          7.640135        7.639853   0.000000   0.000000
     68          7.829832        7.829723   0.000000   0.000000
     69          8.006812        8.002085   0.000000   0.000000
     70          8.053505        8.047506   0.000000   0.000000
 
  0.2000000E+00  0.1428571E+00  0.2000000E+00  0.1142857E-01
      1        -33.843593      -33.843644   1.000000   1.000000
      2        -33.829734      -33.829803   1.000000   1.000000
      3        -33.824961      -33.824981   1.000000   1.000000
      4        -33.818759      -33.818793   1.000000   1.000000
      5        -20.333245      -20.333336   1.000000   1.000000
      6        -20.324057      -20.324167   1.000000   1.000000
      7        -20.201708      -20.201939   1.000000   1.000000
      8        -20.190578      -20.190820   1.000000   1.000000
      9        -18.872236      -18.872370   1.000000   1.000000
     10        -18.849290      -18.849438   1.000000   1.000000
     11        -18.706023      -18.706115   1.000000   1.000000
     12        -18.610999      -18.611100   1.000000   1.000000
     13        -15.204228      -15.204297   1.000000   1.000000
     14        -15.117516      -15.117609   1.000000   1.000000
     15        -15.094254      -15.094340   1.000000   1.000000
     16        -15.080557      -15.080640   1.000000   1.000000
     17        -15.063193      -15.063280   1.000000   1.000000
     18        -15.019193      -15.019240   1.000000   1.000000
     19        -14.999345      -14.999457   1.000000   1.000000
     20        -14.960396      -14.960444   1.000000   1.000000
     21        -14.941967      -14.942037   1.000000   1.000000
     22        -14.934198      -14.934220   1.000000   1.000000
     23        -14.916241      -14.916281   1.000000   1.000000
     24        -14.802927      -14.802967   1.000000   1.000000
     25         -6.790464       -6.790621   1.000000   1.000000
     26         -6.726614       -6.726881   1.000000   1.000000
     27         -6.603157       -6.603267   1.000000   1.000000
     28         -6.556220       -6.556566   1.000000   1.000000
     29         -5.045082       -5.045202   1.000000   1.000000
     30         -5.017762       -5.017835   1.000000   1.000000
     31         -4.839274       -4.839428   1.000000   1.000000
     32         -4.810748       -4.810803   1.000000   1.000000
     33         -4.069596       -4.069746   1.000000   1.000000
     34         -4.014962       -4.015305   1.000000   1.000000
     35         -4.001905       -4.002472   1.000000   1.000000
     36         -3.910116       -3.910500   1.000000   1.000000
     37         -3.854267       -3.854475   1.000000   1.000000
     38         -3.777205       -3.777406   1.000000   1.000000
     39         -3.710110       -3.710297   1.000000   1.000000
     40         -3.580164       -3.580382   1.000000   1.000000
     41         -2.089279       -2.089353   1.000000   1.000000
     42         -1.763790       -1.763931   1.000000   1.000000
     43         -1.688877       -1.688981   1.000000   1.000000
     44         -1.624913       -1.625042   1.000000   1.000000
     45         -1.454261       -1.454573   1.000000   1.000000
     46         -1.411457       -1.411521   1.000000   1.000000
     47         -1.242301       -1.242453   1.000000   1.000000
     48         -0.985295       -0.985396   1.000000   1.000000
     49          4.477440        4.477054   1.000000   1.000000
     50          4.552523        4.552363   1.000000   1.000000
     51          4.843596        4.843561   1.000000   1.000000
     52          4.963512        4.963058   1.000000   1.000000
     53          5.014828        5.014589   1.000000   1.000000
     54          5.431471        5.431185   0.961455   0.962126
     55          5.700003        5.699724   0.000000   0.000000
     56          5.715953        5.715656   0.000000   0.000000
     57          6.159884        6.159627   0.000000   0.000000
     58          6.263306        6.262663   0.000000   0.000000
     59          6.393868        6.393509   0.000000   0.000000
     60          6.450622        6.450289   0.000000   0.000000
     61          6.541709        6.541819   0.000000   0.000000
     62          6.905103        6.905293   0.000000   0.000000
     63          6.948215        6.948142   0.000000   0.000000
     64          7.003691        7.003129   0.000000   0.000000
     65          7.194354        7.194116   0.000000   0.000000
     66          7.313615        7.313589   0.000000   0.000000
     67          7.386751        7.386138   0.000000   0.000000
     68          7.797073        7.796766   0.000000   0.000000
     69          7.947874        7.947813   0.000000   0.000000
     70          8.013568        8.012711   0.000000   0.000000
 
 -0.2000000E+00  0.1428571E+00 -0.2000000E+00  0.1142857E-01
      1        -33.843593      -33.843644   1.000000   1.000000
      2        -33.829734      -33.829804   1.000000   1.000000
      3        -33.824961      -33.824981   1.000000   1.000000
      4        -33.818759      -33.818793   1.000000   1.000000
      5        -20.333236      -20.333345   1.000000   1.000000
      6        -20.324067      -20.324157   1.000000   1.000000
      7        -20.201703      -20.201943   1.000000   1.000000
      8        -20.190582      -20.190817   1.000000   1.000000
      9        -18.872235      -18.872371   1.000000   1.000000
     10        -18.849291      -18.849438   1.000000   1.000000
     11        -18.706025      -18.706113   1.000000   1.000000
     12        -18.610997      -18.611102   1.000000   1.000000
     13        -15.204213      -15.204312   1.000000   1.000000
     14        -15.117520      -15.117605   1.000000   1.000000
     15        -15.094265      -15.094328   1.000000   1.000000
     16        -15.080583      -15.080614   1.000000   1.000000
     17        -15.063191      -15.063283   1.000000   1.000000
     18        -15.019146      -15.019287   1.000000   1.000000
     19        -14.999370      -14.999431   1.000000   1.000000
     20        -14.960391      -14.960450   1.000000   1.000000
     21        -14.941982      -14.942021   1.000000   1.000000
     22        -14.934199      -14.934218   1.000000   1.000000
     23        -14.916227      -14.916295   1.000000   1.000000
     24        -14.802927      -14.802968   1.000000   1.000000
     25         -6.790463       -6.790622   1.000000   1.000000
     26         -6.726614       -6.726881   1.000000   1.000000
     27         -6.603159       -6.603265   1.000000   1.000000
     28         -6.556219       -6.556567   1.000000   1.000000
     29         -5.045078       -5.045206   1.000000   1.000000
     30         -5.017763       -5.017834   1.000000   1.000000
     31         -4.839275       -4.839428   1.000000   1.000000
     32         -4.810747       -4.810804   1.000000   1.000000
     33         -4.069460       -4.069882   1.000000   1.000000
     34         -4.015184       -4.015081   1.000000   1.000000
     35         -4.001923       -4.002458   1.000000   1.000000
     36         -3.910061       -3.910555   1.000000   1.000000
     37         -3.854214       -3.854528   1.000000   1.000000
     38         -3.777210       -3.777401   1.000000   1.000000
     39         -3.710112       -3.710295   1.000000   1.000000
     40         -3.580165       -3.580382   1.000000   1.000000
     41         -2.089270       -2.089363   1.000000   1.000000
     42         -1.763798       -1.763923   1.000000   1.000000
     43         -1.688867       -1.688991   1.000000   1.000000
     44         -1.624916       -1.625039   1.000000   1.000000
     45         -1.454276       -1.454558   1.000000   1.000000
     46         -1.411465       -1.411513   1.000000   1.000000
     47         -1.242291       -1.242463   1.000000   1.000000
     48         -0.985290       -0.985400   1.000000   1.000000
     49          4.477364        4.477130   1.000000   1.000000
     50          4.552576        4.552310   1.000000   1.000000
     51          4.843786        4.843370   1.000000   1.000000
     52          4.963483        4.963087   1.000000   1.000000
     53          5.014741        5.014675   1.000000   1.000000
     54          5.431434        5.431221   0.961540   0.962041
     55          5.699942        5.699786   0.000000   0.000000
     56          5.716017        5.715591   0.000000   0.000000
     57          6.159786        6.159726   0.000000   0.000000
     58          6.263275        6.262695   0.000000   0.000000
     59          6.393800        6.393575   0.000000   0.000000
     60          6.450373        6.450537   0.000000   0.000000
     61          6.541926        6.541601   0.000000   0.000000
     62          6.905486        6.904911   0.000000   0.000000
     63          6.948221        6.948136   0.000000   0.000000
     64          7.003514        7.003308   0.000000   0.000000
     65          7.194528        7.193943   0.000000   0.000000
     66          7.313787        7.313414   0.000000   0.000000
     67          7.386465        7.386423   0.000000   0.000000
     68          7.797000        7.796840   0.000000   0.000000
     69          7.947881        7.947793   0.000000   0.000000
     70          8.012867        8.012706   0.000000   0.000000
 
  0.4000000E+00  0.1428571E+00  0.2000000E+00  0.1142857E-01
      1        -33.838996      -33.839052   1.000000   1.000000
      2        -33.833832      -33.833887   1.000000   1.000000
      3        -33.826902      -33.826931   1.000000   1.000000
      4        -33.817312      -33.817347   1.000000   1.000000
      5        -20.339248      -20.339336   1.000000   1.000000
      6        -20.330793      -20.330905   1.000000   1.000000
      7        -20.209023      -20.209253   1.000000   1.000000
      8        -20.199430      -20.199673   1.000000   1.000000
      9        -18.848148      -18.848286   1.000000   1.000000
     10        -18.832094      -18.832234   1.000000   1.000000
     11        -18.669760      -18.669860   1.000000   1.000000
     12        -18.628651      -18.628746   1.000000   1.000000
     13        -15.208612      -15.208675   1.000000   1.000000
     14        -15.142099      -15.142191   1.000000   1.000000
     15        -15.119104      -15.119196   1.000000   1.000000
     16        -15.087764      -15.087851   1.000000   1.000000
     17        -15.058270      -15.058363   1.000000   1.000000
     18        -15.015907      -15.015949   1.000000   1.000000
     19        -14.987486      -14.987591   1.000000   1.000000
     20        -14.969082      -14.969127   1.000000   1.000000
     21        -14.950941      -14.951018   1.000000   1.000000
     22        -14.927078      -14.927107   1.000000   1.000000
     23        -14.878175      -14.878197   1.000000   1.000000
     24        -14.848173      -14.848227   1.000000   1.000000
     25         -6.632246       -6.632382   1.000000   1.000000
     26         -6.592056       -6.592320   1.000000   1.000000
     27         -6.561205       -6.561341   1.000000   1.000000
     28         -6.508101       -6.508444   1.000000   1.000000
     29         -5.171853       -5.171994   1.000000   1.000000
     30         -5.145195       -5.145255   1.000000   1.000000
     31         -4.947783       -4.947931   1.000000   1.000000
     32         -4.912936       -4.913001   1.000000   1.000000
     33         -4.178862       -4.179087   1.000000   1.000000
     34         -4.093381       -4.093953   1.000000   1.000000
     35         -4.016539       -4.016572   1.000000   1.000000
     36         -3.962077       -3.962730   1.000000   1.000000
     37         -3.833196       -3.833358   1.000000   1.000000
     38         -3.819714       -3.819909   1.000000   1.000000
     39         -3.704027       -3.704209   1.000000   1.000000
     40         -3.613730       -3.613940   1.000000   1.000000
     41         -1.957980       -1.958055   1.000000   1.000000
     42         -1.791540       -1.791621   1.000000   1.000000
     43         -1.521394       -1.521562   1.000000   1.000000
     44         -1.426274       -1.426402   1.000000   1.000000
     45         -1.395907       -1.396159   1.000000   1.000000
     46         -1.272807       -1.272887   1.000000   1.000000
     47         -1.212396       -1.212551   1.000000   1.000000
     48         -1.071068       -1.071208   1.000000   1.000000
     49          4.577450        4.577002   1.000000   1.000000
     50          4.637279        4.637119   1.000000   1.000000
     51          4.820740        4.820766   1.000000   1.000000
     52          4.865066        4.864563   1.000000   1.000000
     53          5.138142        5.138009   1.000000   1.000000
     54          5.477957        5.477323   0.674719   0.681149
     55          5.591200        5.591090   0.002980   0.003008
     56          5.731572        5.731120   0.000000   0.000000
     57          6.029518        6.029304   0.000000   0.000000
     58          6.168479        6.167803   0.000000   0.000000
     59          6.433156        6.433060   0.000000   0.000000
     60          6.477912        6.477874   0.000000   0.000000
     61          6.607616        6.607472   0.000000   0.000000
     62          6.677495        6.677230   0.000000   0.000000
     63          6.775795        6.775706   0.000000   0.000000
     64          6.892260        6.892164   0.000000   0.000000
     65          6.981975        6.981563   0.000000   0.000000
     66          7.164763        7.164591   0.000000   0.000000
     67          7.551476        7.551266   0.000000   0.000000
     68          7.711594        7.711386   0.000000   0.000000
     69          7.919298        7.919218   0.000000   0.000000
     70          8.018638        8.018445   0.000000   0.000000
 
 -0.4000000E+00  0.1428571E+00 -0.2000000E+00  0.1142857E-01
      1        -33.838996      -33.839052   1.000000   1.000000
      2        -33.833832      -33.833887   1.000000   1.000000
      3        -33.826902      -33.826932   1.000000   1.000000
      4        -33.817312      -33.817347   1.000000   1.000000
      5        -20.339237      -20.339347   1.000000   1.000000
      6        -20.330804      -20.330894   1.000000   1.000000
      7        -20.209017      -20.209258   1.000000   1.000000
      8        -20.199435      -20.199669   1.000000   1.000000
      9        -18.848149      -18.848286   1.000000   1.000000
     10        -18.832093      -18.832235   1.000000   1.000000
     11        -18.669764      -18.669855   1.000000   1.000000
     12        -18.628647      -18.628750   1.000000   1.000000
     13        -15.208592      -15.208695   1.000000   1.000000
     14        -15.142105      -15.142185   1.000000   1.000000
     15        -15.119126      -15.119174   1.000000   1.000000
     16        -15.087776      -15.087838   1.000000   1.000000
     17        -15.058273      -15.058361   1.000000   1.000000
     18        -15.015867      -15.015990   1.000000   1.000000
     19        -14.987510      -14.987566   1.000000   1.000000
     20        -14.969074      -14.969136   1.000000   1.000000
     21        -14.950948      -14.951010   1.000000   1.000000
     22        -14.927078      -14.927107   1.000000   1.000000
     23        -14.878170      -14.878202   1.000000   1.000000
     24        -14.848172      -14.848228   1.000000   1.000000
     25         -6.632237       -6.632391   1.000000   1.000000
     26         -6.592062       -6.592314   1.000000   1.000000
     27         -6.561207       -6.561338   1.000000   1.000000
     28         -6.508101       -6.508443   1.000000   1.000000
     29         -5.171850       -5.171996   1.000000   1.000000
     30         -5.145198       -5.145253   1.000000   1.000000
     31         -4.947780       -4.947933   1.000000   1.000000
     32         -4.912938       -4.912999   1.000000   1.000000
     33         -4.178802       -4.179146   1.000000   1.000000
     34         -4.093520       -4.093815   1.000000   1.000000
     35         -4.016452       -4.016658   1.000000   1.000000
     36         -3.962116       -3.962691   1.000000   1.000000
     37         -3.833154       -3.833400   1.000000   1.000000
     38         -3.819722       -3.819901   1.000000   1.000000
     39         -3.704029       -3.704208   1.000000   1.000000
     40         -3.613732       -3.613937   1.000000   1.000000
     41         -1.957972       -1.958062   1.000000   1.000000
     42         -1.791541       -1.791621   1.000000   1.000000
     43         -1.521387       -1.521569   1.000000   1.000000
     44         -1.426269       -1.426407   1.000000   1.000000
     45         -1.395967       -1.396099   1.000000   1.000000
     46         -1.272752       -1.272941   1.000000   1.000000
     47         -1.212408       -1.212539   1.000000   1.000000
     48         -1.071068       -1.071208   1.000000   1.000000
     49          4.577291        4.577161   1.000000   1.000000
     50          4.637430        4.636968   1.000000   1.000000
     51          4.820994        4.820510   1.000000   1.000000
     52          4.864874        4.864757   1.000000   1.000000
     53          5.138202        5.137948   1.000000   1.000000
     54          5.477670        5.477611   0.677638   0.678236
     55          5.591428        5.590861   0.002921   0.003068
     56          5.731481        5.731211   0.000000   0.000000
     57          6.029496        6.029326   0.000000   0.000000
     58          6.168388        6.167894   0.000000   0.000000
     59          6.433200        6.433016   0.000000   0.000000
     60          6.477976        6.477809   0.000000   0.000000
     61          6.607611        6.607477   0.000000   0.000000
     62          6.677424        6.677303   0.000000   0.000000
     63          6.775894        6.775607   0.000000   0.000000
     64          6.892292        6.892131   0.000000   0.000000
     65          6.981885        6.981653   0.000000   0.000000
     66          7.164901        7.164453   0.000000   0.000000
     67          7.551468        7.551274   0.000000   0.000000
     68          7.711564        7.711417   0.000000   0.000000
     69          7.919302        7.919214   0.000000   0.000000
     70          8.018634        8.018450   0.000000   0.000000
 
 -0.4000000E+00  0.1428571E+00  0.2000000E+00  0.1142857E-01
      1        -33.844281      -33.844333   1.000000   1.000000
      2        -33.828512      -33.828572   1.000000   1.000000
      3        -33.826949      -33.826981   1.000000   1.000000
      4        -33.817287      -33.817317   1.000000   1.000000
      5        -20.339235      -20.339322   1.000000   1.000000
      6        -20.331529      -20.331643   1.000000   1.000000
      7        -20.209475      -20.209703   1.000000   1.000000
      8        -20.200247      -20.200494   1.000000   1.000000
      9        -18.843496      -18.843646   1.000000   1.000000
     10        -18.833789      -18.833918   1.000000   1.000000
     11        -18.671285      -18.671381   1.000000   1.000000
     12        -18.627854      -18.627951   1.000000   1.000000
     13        -15.193811      -15.193869   1.000000   1.000000
     14        -15.167162      -15.167241   1.000000   1.000000
     15        -15.133796      -15.133901   1.000000   1.000000
     16        -15.072800      -15.072895   1.000000   1.000000
     17        -15.042855      -15.042948   1.000000   1.000000
     18        -15.015013      -15.015055   1.000000   1.000000
     19        -14.990595      -14.990676   1.000000   1.000000
     20        -14.985128      -14.985187   1.000000   1.000000
     21        -14.944491      -14.944561   1.000000   1.000000
     22        -14.932627      -14.932672   1.000000   1.000000
     23        -14.897499      -14.897531   1.000000   1.000000
     24        -14.813074      -14.813115   1.000000   1.000000
     25         -6.666997       -6.667113   1.000000   1.000000
     26         -6.631132       -6.631436   1.000000   1.000000
     27         -6.555161       -6.555269   1.000000   1.000000
     28         -6.502543       -6.502884   1.000000   1.000000
     29         -5.103802       -5.103957   1.000000   1.000000
     30         -5.081140       -5.081203   1.000000   1.000000
     31         -4.965309       -4.965437   1.000000   1.000000
     32         -4.915517       -4.915593   1.000000   1.000000
     33         -4.215024       -4.215244   1.000000   1.000000
     34         -4.146469       -4.146997   1.000000   1.000000
     35         -4.000744       -4.000854   1.000000   1.000000
     36         -3.932796       -3.933406   1.000000   1.000000
     37         -3.868113       -3.868294   1.000000   1.000000
     38         -3.791523       -3.791705   1.000000   1.000000
     39         -3.671791       -3.671967   1.000000   1.000000
     40         -3.651734       -3.651951   1.000000   1.000000
     41         -1.931044       -1.931130   1.000000   1.000000
     42         -1.819600       -1.819676   1.000000   1.000000
     43         -1.522842       -1.523088   1.000000   1.000000
     44         -1.455768       -1.455868   1.000000   1.000000
     45         -1.396237       -1.396384   1.000000   1.000000
     46         -1.212795       -1.212961   1.000000   1.000000
     47         -1.189782       -1.189876   1.000000   1.000000
     48         -1.124450       -1.124627   1.000000   1.000000
     49          4.564006        4.563722   1.000000   1.000000
     50          4.644416        4.643927   1.000000   1.000000
     51          4.704070        4.704199   1.000000   1.000000
     52          4.809895        4.809588   1.000000   1.000000
     53          5.373239        5.373116   0.999681   0.999685
     54          5.473926        5.473521   0.714646   0.718519
     55          5.640943        5.640370   0.000016   0.000017
     56          5.782154        5.781667   0.000000   0.000000
     57          5.797778        5.797593   0.000000   0.000000
     58          5.976249        5.975871   0.000000   0.000000
     59          6.463963        6.463917   0.000000   0.000000
     60          6.519478        6.519096   0.000000   0.000000
     61          6.580078        6.579918   0.000000   0.000000
     62          6.726880        6.726541   0.000000   0.000000
     63          6.776505        6.776301   0.000000   0.000000
     64          7.008500        7.008201   0.000000   0.000000
     65          7.063544        7.063503   0.000000   0.000000
     66          7.278012        7.277857   0.000000   0.000000
     67          7.665255        7.665072   0.000000   0.000000
     68          7.682475        7.682366   0.000000   0.000000
     69          7.907454        7.907334   0.000000   0.000000
     70          8.053433        8.053267   0.000000   0.000000
 
  0.4000000E+00  0.1428571E+00 -0.2000000E+00  0.1142857E-01
      1        -33.844280      -33.844334   1.000000   1.000000
      2        -33.828514      -33.828570   1.000000   1.000000
      3        -33.826946      -33.826983   1.000000   1.000000
      4        -33.817287      -33.817317   1.000000   1.000000
      5        -20.339222      -20.339334   1.000000   1.000000
      6        -20.331542      -20.331630   1.000000   1.000000
      7        -20.209466      -20.209711   1.000000   1.000000
      8        -20.200256      -20.200486   1.000000   1.000000
      9        -18.843508      -18.843636   1.000000   1.000000
     10        -18.833777      -18.833929   1.000000   1.000000
     11        -18.671286      -18.671380   1.000000   1.000000
     12        -18.627853      -18.627953   1.000000   1.000000
     13        -15.193787      -15.193894   1.000000   1.000000
     14        -15.167157      -15.167246   1.000000   1.000000
     15        -15.133824      -15.133872   1.000000   1.000000
     16        -15.072818      -15.072876   1.000000   1.000000
     17        -15.042862      -15.042942   1.000000   1.000000
     18        -15.014975      -15.015093   1.000000   1.000000
     19        -14.990616      -14.990655   1.000000   1.000000
     20        -14.985125      -14.985191   1.000000   1.000000
     21        -14.944487      -14.944565   1.000000   1.000000
     22        -14.932633      -14.932666   1.000000   1.000000
     23        -14.897496      -14.897534   1.000000   1.000000
     24        -14.813070      -14.813118   1.000000   1.000000
     25         -6.666996       -6.667115   1.000000   1.000000
     26         -6.631122       -6.631445   1.000000   1.000000
     27         -6.555167       -6.555262   1.000000   1.000000
     28         -6.502548       -6.502879   1.000000   1.000000
     29         -5.103809       -5.103951   1.000000   1.000000
     30         -5.081137       -5.081205   1.000000   1.000000
     31         -4.965301       -4.965444   1.000000   1.000000
     32         -4.915519       -4.915591   1.000000   1.000000
     33         -4.214977       -4.215291   1.000000   1.000000
     34         -4.146556       -4.146910   1.000000   1.000000
     35         -4.000657       -4.000940   1.000000   1.000000
     36         -3.932855       -3.933347   1.000000   1.000000
     37         -3.868110       -3.868296   1.000000   1.000000
     38         -3.791499       -3.791729   1.000000   1.000000
     39         -3.671795       -3.671963   1.000000   1.000000
     40         -3.651746       -3.651940   1.000000   1.000000
     41         -1.931047       -1.931128   1.000000   1.000000
     42         -1.819595       -1.819680   1.000000   1.000000
     43         -1.522922       -1.523009   1.000000   1.000000
     44         -1.455692       -1.455942   1.000000   1.000000
     45         -1.396215       -1.396406   1.000000   1.000000
     46         -1.212820       -1.212936   1.000000   1.000000
     47         -1.189757       -1.189902   1.000000   1.000000
     48         -1.124469       -1.124608   1.000000   1.000000
     49          4.564073        4.563655   1.000000   1.000000
     50          4.644120        4.644224   1.000000   1.000000
     51          4.704388        4.703879   1.000000   1.000000
     52          4.809815        4.809667   1.000000   1.000000
     53          5.373439        5.372915   0.999674   0.999691
     54          5.473825        5.473623   0.715612   0.717550
     55          5.640694        5.640618   0.000017   0.000017
     56          5.782049        5.781772   0.000000   0.000000
     57          5.798055        5.797317   0.000000   0.000000
     58          5.976134        5.975986   0.000000   0.000000
     59          6.464116        6.463762   0.000000   0.000000
     60          6.519478        6.519095   0.000000   0.000000
     61          6.580054        6.579944   0.000000   0.000000
     62          6.726743        6.726680   0.000000   0.000000
     63          6.776547        6.776259   0.000000   0.000000
     64          7.008425        7.008276   0.000000   0.000000
     65          7.063603        7.063443   0.000000   0.000000
     66          7.278099        7.277770   0.000000   0.000000
     67          7.665247        7.665080   0.000000   0.000000
     68          7.682477        7.682365   0.000000   0.000000
     69          7.907438        7.907350   0.000000   0.000000
     70          8.053664        8.053248   0.000000   0.000000
 
 -0.2000000E+00  0.1428571E+00  0.2000000E+00  0.1142857E-01
      1        -33.848310      -33.848361   1.000000   1.000000
      2        -33.825411      -33.825453   1.000000   1.000000
      3        -33.824816      -33.824880   1.000000   1.000000
      4        -33.818475      -33.818494   1.000000   1.000000
      5        -20.333299      -20.333388   1.000000   1.000000
      6        -20.325253      -20.325365   1.000000   1.000000
      7        -20.202520      -20.202747   1.000000   1.000000
      8        -20.191908      -20.192156   1.000000   1.000000
      9        -18.866669      -18.866814   1.000000   1.000000
     10        -18.850198      -18.850336   1.000000   1.000000
     11        -18.707431      -18.707520   1.000000   1.000000
     12        -18.610581      -18.610684   1.000000   1.000000
     13        -15.189800      -15.189875   1.000000   1.000000
     14        -15.148357      -15.148418   1.000000   1.000000
     15        -15.122729      -15.122828   1.000000   1.000000
     16        -15.056452      -15.056572   1.000000   1.000000
     17        -15.036671      -15.036736   1.000000   1.000000
     18        -15.013869      -15.013898   1.000000   1.000000
     19        -15.006483      -15.006605   1.000000   1.000000
     20        -14.984131      -14.984162   1.000000   1.000000
     21        -14.954601      -14.954649   1.000000   1.000000
     22        -14.936012      -14.936093   1.000000   1.000000
     23        -14.902563      -14.902593   1.000000   1.000000
     24        -14.776089      -14.776126   1.000000   1.000000
     25         -6.825833       -6.825976   1.000000   1.000000
     26         -6.776720       -6.776997   1.000000   1.000000
     27         -6.602237       -6.602345   1.000000   1.000000
     28         -6.554743       -6.555085   1.000000   1.000000
     29         -4.925594       -4.925757   1.000000   1.000000
     30         -4.922094       -4.922159   1.000000   1.000000
     31         -4.867327       -4.867458   1.000000   1.000000
     32         -4.830442       -4.830500   1.000000   1.000000
     33         -4.142952       -4.143053   1.000000   1.000000
     34         -4.116144       -4.116782   1.000000   1.000000
     35         -3.945371       -3.945542   1.000000   1.000000
     36         -3.901559       -3.901722   1.000000   1.000000
     37         -3.849633       -3.850193   1.000000   1.000000
     38         -3.751590       -3.751813   1.000000   1.000000
     39         -3.682325       -3.682514   1.000000   1.000000
     40         -3.624758       -3.624956   1.000000   1.000000
     41         -2.068572       -2.068658   1.000000   1.000000
     42         -1.772150       -1.772297   1.000000   1.000000
     43         -1.703600       -1.703770   1.000000   1.000000
     44         -1.654868       -1.654945   1.000000   1.000000
     45         -1.439726       -1.440000   1.000000   1.000000
     46         -1.398853       -1.398904   1.000000   1.000000
     47         -1.207182       -1.207376   1.000000   1.000000
     48         -1.018721       -1.018820   1.000000   1.000000
     49          4.239428        4.239190   1.000000   1.000000
     50          4.497742        4.497547   1.000000   1.000000
     51          4.903139        4.902903   1.000000   1.000000
     52          4.955478        4.955234   1.000000   1.000000
     53          5.366302        5.366180   0.999848   0.999850
     54          5.543195        5.542913   0.081929   0.083143
     55          5.617705        5.617480   0.000233   0.000239
     56          5.701756        5.701368   0.000000   0.000000
     57          5.987407        5.987178   0.000000   0.000000
     58          6.127963        6.127001   0.000000   0.000000
     59          6.490155        6.489901   0.000000   0.000000
     60          6.526766        6.526518   0.000000   0.000000
     61          6.592872        6.592944   0.000000   0.000000
     62          6.752480        6.751978   0.000000   0.000000
     63          6.809566        6.809366   0.000000   0.000000
     64          7.038239        7.037904   0.000000   0.000000
     65          7.101532        7.101364   0.000000   0.000000
     66          7.595185        7.595037   0.000000   0.000000
     67          7.700730        7.700676   0.000000   0.000000
     68          7.753055        7.752923   0.000000   0.000000
     69          7.925794        7.925675   0.000000   0.000000
     70          8.066845        8.086200   0.000000   0.000000
 
  0.2000000E+00  0.1428571E+00 -0.2000000E+00  0.1142857E-01
      1        -33.848310      -33.848361   1.000000   1.000000
      2        -33.825414      -33.825449   1.000000   1.000000
      3        -33.824813      -33.824884   1.000000   1.000000
      4        -33.818475      -33.818494   1.000000   1.000000
      5        -20.333288      -20.333399   1.000000   1.000000
      6        -20.325265      -20.325353   1.000000   1.000000
      7        -20.202511      -20.202756   1.000000   1.000000
      8        -20.191918      -20.192147   1.000000   1.000000
      9        -18.866680      -18.866804   1.000000   1.000000
     10        -18.850187      -18.850346   1.000000   1.000000
     11        -18.707430      -18.707520   1.000000   1.000000
     12        -18.610581      -18.610684   1.000000   1.000000
     13        -15.189791      -15.189885   1.000000   1.000000
     14        -15.148333      -15.148442   1.000000   1.000000
     15        -15.122753      -15.122803   1.000000   1.000000
     16        -15.056490      -15.056532   1.000000   1.000000
     17        -15.036662      -15.036747   1.000000   1.000000
     18        -15.013815      -15.013953   1.000000   1.000000
     19        -15.006523      -15.006564   1.000000   1.000000
     20        -14.984134      -14.984159   1.000000   1.000000
     21        -14.954603      -14.954647   1.000000   1.000000
     22        -14.936010      -14.936095   1.000000   1.000000
     23        -14.902558      -14.902598   1.000000   1.000000
     24        -14.776086      -14.776129   1.000000   1.000000
     25         -6.825832       -6.825977   1.000000   1.000000
     26         -6.776716       -6.777001   1.000000   1.000000
     27         -6.602238       -6.602344   1.000000   1.000000
     28         -6.554748       -6.555081   1.000000   1.000000
     29         -4.925649       -4.925706   1.000000   1.000000
     30         -4.922047       -4.922203   1.000000   1.000000
     31         -4.867325       -4.867460   1.000000   1.000000
     32         -4.830435       -4.830507   1.000000   1.000000
     33         -4.142960       -4.143046   1.000000   1.000000
     34         -4.116162       -4.116764   1.000000   1.000000
     35         -3.945290       -3.945621   1.000000   1.000000
     36         -3.901555       -3.901727   1.000000   1.000000
     37         -3.849687       -3.850139   1.000000   1.000000
     38         -3.751580       -3.751822   1.000000   1.000000
     39         -3.682335       -3.682504   1.000000   1.000000
     40         -3.624765       -3.624949   1.000000   1.000000
     41         -2.068575       -2.068655   1.000000   1.000000
     42         -1.772182       -1.772266   1.000000   1.000000
     43         -1.703624       -1.703746   1.000000   1.000000
     44         -1.654802       -1.655009   1.000000   1.000000
     45         -1.439719       -1.440006   1.000000   1.000000
     46         -1.398847       -1.398909   1.000000   1.000000
     47         -1.207198       -1.207361   1.000000   1.000000
     48         -1.018723       -1.018818   1.000000   1.000000
     49          4.239437        4.239181   1.000000   1.000000
     50          4.497726        4.497563   1.000000   1.000000
     51          4.903132        4.902910   1.000000   1.000000
     52          4.955483        4.955229   1.000000   1.000000
     53          5.366393        5.366090   0.999846   0.999851
     54          5.543287        5.542820   0.081535   0.083544
     55          5.617664        5.617521   0.000234   0.000237
     56          5.701606        5.701518   0.000000   0.000000
     57          5.987637        5.986948   0.000000   0.000000
     58          6.127569        6.127395   0.000000   0.000000
     59          6.490082        6.489973   0.000000   0.000000
     60          6.526946        6.526337   0.000000   0.000000
     61          6.593055        6.592761   0.000000   0.000000
     62          6.752299        6.752161   0.000000   0.000000
     63          6.809676        6.809256   0.000000   0.000000
     64          7.038109        7.038034   0.000000   0.000000
     65          7.101580        7.101316   0.000000   0.000000
     66          7.595264        7.594958   0.000000   0.000000
     67          7.700738        7.700668   0.000000   0.000000
     68          7.753022        7.752956   0.000000   0.000000
     69          7.925777        7.925689   0.000000   0.000000
     70          8.076909        8.068056   0.000000   0.000000
 
 -0.6560908E-18  0.2857143E+00  0.2000000E+00  0.1142857E-01
      1        -33.843156      -33.843209   1.000000   1.000000
      2        -33.826075      -33.826116   1.000000   1.000000
      3        -33.823798      -33.823867   1.000000   1.000000
      4        -33.819128      -33.819140   1.000000   1.000000
      5        -20.377309      -20.377398   1.000000   1.000000
      6        -20.367768      -20.367880   1.000000   1.000000
      7        -20.262243      -20.262471   1.000000   1.000000
      8        -20.249638      -20.249886   1.000000   1.000000
      9        -18.867781      -18.867969   1.000000   1.000000
     10        -18.864630      -18.864726   1.000000   1.000000
     11        -18.742732      -18.742822   1.000000   1.000000
     12        -18.656113      -18.656213   1.000000   1.000000
     13        -15.077066      -15.077152   1.000000   1.000000
     14        -15.068146      -15.068202   1.000000   1.000000
     15        -15.051068      -15.051145   1.000000   1.000000
     16        -15.011044      -15.011055   1.000000   1.000000
     17        -15.007014      -15.007092   1.000000   1.000000
     18        -14.993684      -14.993757   1.000000   1.000000
     19        -14.939021      -14.939090   1.000000   1.000000
     20        -14.921442      -14.921512   1.000000   1.000000
     21        -14.860817      -14.860926   1.000000   1.000000
     22        -14.853815      -14.853871   1.000000   1.000000
     23        -14.811620      -14.811674   1.000000   1.000000
     24        -14.793181      -14.793224   1.000000   1.000000
     25         -6.824999       -6.825110   1.000000   1.000000
     26         -6.789170       -6.789474   1.000000   1.000000
     27         -6.590772       -6.590878   1.000000   1.000000
     28         -6.542593       -6.542939   1.000000   1.000000
     29         -4.901062       -4.901191   1.000000   1.000000
     30         -4.886336       -4.886412   1.000000   1.000000
     31         -4.796041       -4.796186   1.000000   1.000000
     32         -4.761435       -4.761494   1.000000   1.000000
     33         -4.317339       -4.317555   1.000000   1.000000
     34         -4.249125       -4.249384   1.000000   1.000000
     35         -4.217280       -4.217419   1.000000   1.000000
     36         -4.171695       -4.171977   1.000000   1.000000
     37         -4.029915       -4.030014   1.000000   1.000000
     38         -3.986842       -3.987300   1.000000   1.000000
     39         -3.924509       -3.924835   1.000000   1.000000
     40         -3.807331       -3.807840   1.000000   1.000000
     41         -1.889643       -1.889732   1.000000   1.000000
     42         -1.784853       -1.785045   1.000000   1.000000
     43         -1.602974       -1.603160   1.000000   1.000000
     44         -1.585207       -1.585314   1.000000   1.000000
     45         -1.475680       -1.475807   1.000000   1.000000
     46         -1.436185       -1.436338   1.000000   1.000000
     47         -1.333650       -1.333799   1.000000   1.000000
     48         -0.988246       -0.988343   1.000000   1.000000
     49          4.063946        4.063770   1.000000   1.000000
     50          4.471185        4.470957   1.000000   1.000000
     51          4.816668        4.816414   1.000000   1.000000
     52          4.897133        4.896940   1.000000   1.000000
     53          5.013423        5.013162   1.000000   1.000000
     54          5.364269        5.363914   0.999878   0.999883
     55          5.533799        5.533463   0.129982   0.132006
     56          5.696391        5.696181   0.000000   0.000000
     57          6.001034        6.000615   0.000000   0.000000
     58          6.242982        6.242431   0.000000   0.000000
     59          6.598560        6.598363   0.000000   0.000000
     60          6.678083        6.677908   0.000000   0.000000
     61          6.770548        6.770561   0.000000   0.000000
     62          7.026861        7.026651   0.000000   0.000000
     63          7.138795        7.138698   0.000000   0.000000
     64          7.331369        7.331138   0.000000   0.000000
     65          7.454525        7.454462   0.000000   0.000000
     66          7.515896        7.515506   0.000000   0.000000
     67          7.566771        7.566719   0.000000   0.000000
     68          7.673798        7.673614   0.000000   0.000000
     69          7.733223        7.733127   0.000000   0.000000
     70          7.860255        7.859931   0.000000   0.000000
 
  0.6560908E-18  0.2857143E+00 -0.2000000E+00  0.1142857E-01
      1        -33.843156      -33.843209   1.000000   1.000000
      2        -33.826075      -33.826116   1.000000   1.000000
      3        -33.823798      -33.823867   1.000000   1.000000
      4        -33.819128      -33.819140   1.000000   1.000000
      5        -20.377298      -20.377409   1.000000   1.000000
      6        -20.367780      -20.367867   1.000000   1.000000
      7        -20.262234      -20.262479   1.000000   1.000000
      8        -20.249647      -20.249879   1.000000   1.000000
      9        -18.867824      -18.867931   1.000000   1.000000
     10        -18.864587      -18.864765   1.000000   1.000000
     11        -18.742734      -18.742821   1.000000   1.000000
     12        -18.656112      -18.656214   1.000000   1.000000
     13        -15.077062      -15.077156   1.000000   1.000000
     14        -15.068151      -15.068197   1.000000   1.000000
     15        -15.051050      -15.051163   1.000000   1.000000
     16        -15.011023      -15.011077   1.000000   1.000000
     17        -15.007033      -15.007072   1.000000   1.000000
     18        -14.993691      -14.993750   1.000000   1.000000
     19        -14.939025      -14.939086   1.000000   1.000000
     20        -14.921459      -14.921495   1.000000   1.000000
     21        -14.860840      -14.860903   1.000000   1.000000
     22        -14.853812      -14.853875   1.000000   1.000000
     23        -14.811603      -14.811692   1.000000   1.000000
     24        -14.793170      -14.793235   1.000000   1.000000
     25         -6.824998       -6.825112   1.000000   1.000000
     26         -6.789167       -6.789478   1.000000   1.000000
     27         -6.590773       -6.590876   1.000000   1.000000
     28         -6.542596       -6.542937   1.000000   1.000000
     29         -4.901062       -4.901191   1.000000   1.000000
     30         -4.886340       -4.886408   1.000000   1.000000
     31         -4.796040       -4.796187   1.000000   1.000000
     32         -4.761430       -4.761499   1.000000   1.000000
     33         -4.317346       -4.317547   1.000000   1.000000
     34         -4.249139       -4.249370   1.000000   1.000000
     35         -4.217253       -4.217445   1.000000   1.000000
     36         -4.171737       -4.171936   1.000000   1.000000
     37         -4.029882       -4.030047   1.000000   1.000000
     38         -3.986779       -3.987362   1.000000   1.000000
     39         -3.924559       -3.924785   1.000000   1.000000
     40         -3.807344       -3.807828   1.000000   1.000000
     41         -1.889623       -1.889752   1.000000   1.000000
     42         -1.784898       -1.785001   1.000000   1.000000
     43         -1.602925       -1.603208   1.000000   1.000000
     44         -1.585225       -1.585297   1.000000   1.000000
     45         -1.475689       -1.475797   1.000000   1.000000
     46         -1.436157       -1.436365   1.000000   1.000000
     47         -1.333677       -1.333773   1.000000   1.000000
     48         -0.988243       -0.988345   1.000000   1.000000
     49          4.063949        4.063767   1.000000   1.000000
     50          4.471161        4.470982   1.000000   1.000000
     51          4.816674        4.816408   1.000000   1.000000
     52          4.897246        4.896827   1.000000   1.000000
     53          5.013382        5.013202   1.000000   1.000000
     54          5.364175        5.364008   0.999879   0.999882
     55          5.533847        5.533416   0.129700   0.132293
     56          5.696379        5.696193   0.000000   0.000000
     57          6.001064        6.000586   0.000000   0.000000
     58          6.242935        6.242478   0.000000   0.000000
     59          6.598461        6.598462   0.000000   0.000000
     60          6.678062        6.677930   0.000000   0.000000
     61          6.770622        6.770487   0.000000   0.000000
     62          7.026861        7.026650   0.000000   0.000000
     63          7.138840        7.138654   0.000000   0.000000
     64          7.331493        7.331014   0.000000   0.000000
     65          7.454540        7.454447   0.000000   0.000000
     66          7.515777        7.515626   0.000000   0.000000
     67          7.566776        7.566712   0.000000   0.000000
     68          7.673722        7.673691   0.000000   0.000000
     69          7.733197        7.733152   0.000000   0.000000
     70          7.860316        7.859871   0.000000   0.000000
 
  0.2000000E+00  0.2857143E+00  0.2000000E+00  0.1142857E-01
      1        -33.839134      -33.839189   1.000000   1.000000
      2        -33.828101      -33.828172   1.000000   1.000000
      3        -33.824917      -33.824940   1.000000   1.000000
      4        -33.820014      -33.820041   1.000000   1.000000
      5        -20.381177      -20.381265   1.000000   1.000000
      6        -20.371384      -20.371498   1.000000   1.000000
      7        -20.266392      -20.266623   1.000000   1.000000
      8        -20.254485      -20.254729   1.000000   1.000000
      9        -18.858060      -18.858201   1.000000   1.000000
     10        -18.851425      -18.851567   1.000000   1.000000
     11        -18.728224      -18.728318   1.000000   1.000000
     12        -18.656325      -18.656422   1.000000   1.000000
     13        -15.133261      -15.133326   1.000000   1.000000
     14        -15.068930      -15.069032   1.000000   1.000000
     15        -15.020958      -15.021034   1.000000   1.000000
     16        -15.016519      -15.016544   1.000000   1.000000
     17        -15.007054      -15.007092   1.000000   1.000000
     18        -15.004426      -15.004531   1.000000   1.000000
     19        -14.958104      -14.958143   1.000000   1.000000
     20        -14.886936      -14.886965   1.000000   1.000000
     21        -14.871076      -14.871196   1.000000   1.000000
     22        -14.855994      -14.856059   1.000000   1.000000
     23        -14.813048      -14.813106   1.000000   1.000000
     24        -14.792010      -14.792071   1.000000   1.000000
     25         -6.732521       -6.732637   1.000000   1.000000
     26         -6.692060       -6.692363   1.000000   1.000000
     27         -6.554818       -6.554918   1.000000   1.000000
     28         -6.506957       -6.507309   1.000000   1.000000
     29         -5.040462       -5.040587   1.000000   1.000000
     30         -5.015724       -5.015790   1.000000   1.000000
     31         -4.837008       -4.837163   1.000000   1.000000
     32         -4.808343       -4.808398   1.000000   1.000000
     33         -4.348638       -4.348804   1.000000   1.000000
     34         -4.276438       -4.276760   1.000000   1.000000
     35         -4.201827       -4.202058   1.000000   1.000000
     36         -4.164378       -4.164547   1.000000   1.000000
     37         -4.060417       -4.060513   1.000000   1.000000
     38         -4.011941       -4.012542   1.000000   1.000000
     39         -3.952939       -3.953206   1.000000   1.000000
     40         -3.820613       -3.821048   1.000000   1.000000
     41         -1.883816       -1.883900   1.000000   1.000000
     42         -1.637395       -1.637539   1.000000   1.000000
     43         -1.536792       -1.536898   1.000000   1.000000
     44         -1.486686       -1.486818   1.000000   1.000000
     45         -1.455538       -1.455895   1.000000   1.000000
     46         -1.415798       -1.415879   1.000000   1.000000
     47         -1.331583       -1.331661   1.000000   1.000000
     48         -0.968788       -0.968894   1.000000   1.000000
     49          4.130803        4.130617   1.000000   1.000000
     50          4.421853        4.421621   1.000000   1.000000
     51          4.856328        4.855987   1.000000   1.000000
     52          4.910920        4.910747   1.000000   1.000000
     53          5.111405        5.111055   1.000000   1.000000
     54          5.338168        5.337698   0.999995   0.999995
     55          5.409169        5.409043   0.991771   0.991851
     56          5.616452        5.616154   0.000266   0.000274
     57          5.957436        5.956887   0.000000   0.000000
     58          6.378919        6.378655   0.000000   0.000000
     59          6.582907        6.582679   0.000000   0.000000
     60          6.648073        6.647938   0.000000   0.000000
     61          6.776319        6.776348   0.000000   0.000000
     62          7.142864        7.142764   0.000000   0.000000
     63          7.174162        7.174149   0.000000   0.000000
     64          7.250835        7.250794   0.000000   0.000000
     65          7.322379        7.322164   0.000000   0.000000
     66          7.465431        7.465365   0.000000   0.000000
     67          7.567369        7.567140   0.000000   0.000000
     68          7.601233        7.600845   0.000000   0.000000
     69          7.752072        7.751839   0.000000   0.000000
     70          7.845601        7.845197   0.000000   0.000000
 
 -0.2000000E+00  0.2857143E+00 -0.2000000E+00  0.1142857E-01
      1        -33.839134      -33.839188   1.000000   1.000000
      2        -33.828100      -33.828172   1.000000   1.000000
      3        -33.824917      -33.824940   1.000000   1.000000
      4        -33.820014      -33.820041   1.000000   1.000000
      5        -20.381165      -20.381277   1.000000   1.000000
      6        -20.371398      -20.371484   1.000000   1.000000
      7        -20.266386      -20.266629   1.000000   1.000000
      8        -20.254490      -20.254725   1.000000   1.000000
      9        -18.858059      -18.858201   1.000000   1.000000
     10        -18.851424      -18.851567   1.000000   1.000000
     11        -18.728228      -18.728313   1.000000   1.000000
     12        -18.656322      -18.656425   1.000000   1.000000
     13        -15.133248      -15.133339   1.000000   1.000000
     14        -15.068955      -15.069008   1.000000   1.000000
     15        -15.020975      -15.021016   1.000000   1.000000
     16        -15.016483      -15.016581   1.000000   1.000000
     17        -15.007027      -15.007120   1.000000   1.000000
     18        -15.004453      -15.004503   1.000000   1.000000
     19        -14.958102      -14.958145   1.000000   1.000000
     20        -14.886934      -14.886968   1.000000   1.000000
     21        -14.871122      -14.871148   1.000000   1.000000
     22        -14.855975      -14.856079   1.000000   1.000000
     23        -14.813049      -14.813105   1.000000   1.000000
     24        -14.791993      -14.792088   1.000000   1.000000
     25         -6.732519       -6.732639   1.000000   1.000000
     26         -6.692059       -6.692364   1.000000   1.000000
     27         -6.554820       -6.554916   1.000000   1.000000
     28         -6.506956       -6.507310   1.000000   1.000000
     29         -5.040458       -5.040591   1.000000   1.000000
     30         -5.015725       -5.015789   1.000000   1.000000
     31         -4.837009       -4.837163   1.000000   1.000000
     32         -4.808342       -4.808398   1.000000   1.000000
     33         -4.348578       -4.348863   1.000000   1.000000
     34         -4.276540       -4.276659   1.000000   1.000000
     35         -4.201860       -4.202026   1.000000   1.000000
     36         -4.164352       -4.164572   1.000000   1.000000
     37         -4.060396       -4.060533   1.000000   1.000000
     38         -4.011919       -4.012564   1.000000   1.000000
     39         -3.952914       -3.953230   1.000000   1.000000
     40         -3.820633       -3.821028   1.000000   1.000000
     41         -1.883793       -1.883922   1.000000   1.000000
     42         -1.637422       -1.637512   1.000000   1.000000
     43         -1.536752       -1.536937   1.000000   1.000000
     44         -1.486662       -1.486841   1.000000   1.000000
     45         -1.455635       -1.455801   1.000000   1.000000
     46         -1.415807       -1.415870   1.000000   1.000000
     47         -1.331540       -1.331703   1.000000   1.000000
     48         -0.968783       -0.968899   1.000000   1.000000
     49          4.130816        4.130604   1.000000   1.000000
     50          4.421821        4.421653   1.000000   1.000000
     51          4.856314        4.856001   1.000000   1.000000
     52          4.911051        4.910616   1.000000   1.000000
     53          5.111368        5.111092   1.000000   1.000000
     54          5.338109        5.337757   0.999995   0.999995
     55          5.409158        5.409055   0.991778   0.991843
     56          5.616477        5.616129   0.000265   0.000275
     57          5.957391        5.956932   0.000000   0.000000
     58          6.378931        6.378644   0.000000   0.000000
     59          6.582840        6.582746   0.000000   0.000000
     60          6.648022        6.647990   0.000000   0.000000
     61          6.776375        6.776292   0.000000   0.000000
     62          7.142900        7.142728   0.000000   0.000000
     63          7.174155        7.174157   0.000000   0.000000
     64          7.250855        7.250774   0.000000   0.000000
     65          7.322449        7.322093   0.000000   0.000000
     66          7.465433        7.465363   0.000000   0.000000
     67          7.567264        7.567244   0.000000   0.000000
     68          7.601294        7.600786   0.000000   0.000000
     69          7.752068        7.751842   0.000000   0.000000
     70          7.845663        7.845135   0.000000   0.000000
 
  0.4000000E+00  0.2857143E+00  0.2000000E+00  0.1142857E-01
      1        -33.836072      -33.836133   1.000000   1.000000
      2        -33.830481      -33.830541   1.000000   1.000000
      3        -33.827108      -33.827132   1.000000   1.000000
      4        -33.818488      -33.818519   1.000000   1.000000
      5        -20.387451      -20.387536   1.000000   1.000000
      6        -20.378263      -20.378379   1.000000   1.000000
      7        -20.273283      -20.273512   1.000000   1.000000
      8        -20.263685      -20.263932   1.000000   1.000000
      9        -18.838859      -18.839003   1.000000   1.000000
     10        -18.830412      -18.830549   1.000000   1.000000
     11        -18.697528      -18.697630   1.000000   1.000000
     12        -18.663913      -18.664002   1.000000   1.000000
     13        -15.175740      -15.175800   1.000000   1.000000
     14        -15.122442      -15.122547   1.000000   1.000000
     15        -15.022358      -15.022434   1.000000   1.000000
     16        -15.017082      -15.017124   1.000000   1.000000
     17        -14.987950      -14.988003   1.000000   1.000000
     18        -14.984468      -14.984513   1.000000   1.000000
     19        -14.977458      -14.977541   1.000000   1.000000
     20        -14.919105      -14.919132   1.000000   1.000000
     21        -14.851633      -14.851751   1.000000   1.000000
     22        -14.833577      -14.833628   1.000000   1.000000
     23        -14.812356      -14.812429   1.000000   1.000000
     24        -14.783446      -14.783501   1.000000   1.000000
     25         -6.577910       -6.578004   1.000000   1.000000
     26         -6.547193       -6.547502   1.000000   1.000000
     27         -6.516699       -6.516815   1.000000   1.000000
     28         -6.461284       -6.461635   1.000000   1.000000
     29         -5.173210       -5.173350   1.000000   1.000000
     30         -5.144798       -5.144859   1.000000   1.000000
     31         -4.946604       -4.946758   1.000000   1.000000
     32         -4.913124       -4.913185   1.000000   1.000000
     33         -4.412078       -4.412280   1.000000   1.000000
     34         -4.370091       -4.370417   1.000000   1.000000
     35         -4.220013       -4.220146   1.000000   1.000000
     36         -4.172323       -4.172541   1.000000   1.000000
     37         -4.051659       -4.051851   1.000000   1.000000
     38         -4.012267       -4.012918   1.000000   1.000000
     39         -3.975199       -3.975341   1.000000   1.000000
     40         -3.873715       -3.874117   1.000000   1.000000
     41         -1.791169       -1.791249   1.000000   1.000000
     42         -1.622481       -1.622566   1.000000   1.000000
     43         -1.428280       -1.428480   1.000000   1.000000
     44         -1.408778       -1.408999   1.000000   1.000000
     45         -1.368526       -1.368726   1.000000   1.000000
     46         -1.306138       -1.306144   1.000000   1.000000
     47         -1.223900       -1.224071   1.000000   1.000000
     48         -0.988439       -0.988564   1.000000   1.000000
     49          4.260135        4.259935   1.000000   1.000000
     50          4.373773        4.373526   1.000000   1.000000
     51          4.670805        4.670625   1.000000   1.000000
     52          4.878597        4.878273   1.000000   1.000000
     53          5.168423        5.168135   1.000000   1.000000
     54          5.252412        5.251909   1.000000   1.000000
     55          5.545551        5.545198   0.072302   0.073687
     56          5.681353        5.680896   0.000000   0.000000
     57          6.032345        6.032015   0.000000   0.000000
     58          6.306035        6.305741   0.000000   0.000000
     59          6.624051        6.623962   0.000000   0.000000
     60          6.766758        6.766677   0.000000   0.000000
     61          6.836065        6.835891   0.000000   0.000000
     62          6.859963        6.859982   0.000000   0.000000
     63          7.068944        7.068916   0.000000   0.000000
     64          7.140163        7.139887   0.000000   0.000000
     65          7.212229        7.212067   0.000000   0.000000
     66          7.355165        7.355105   0.000000   0.000000
     67          7.497408        7.497246   0.000000   0.000000
     68          7.610309        7.609995   0.000000   0.000000
     69          7.751772        7.751514   0.000000   0.000000
     70          7.876449        7.876328   0.000000   0.000000
 
 -0.4000000E+00  0.2857143E+00 -0.2000000E+00  0.1142857E-01
      1        -33.836072      -33.836133   1.000000   1.000000
      2        -33.830482      -33.830540   1.000000   1.000000
      3        -33.827107      -33.827134   1.000000   1.000000
      4        -33.818489      -33.818519   1.000000   1.000000
      5        -20.387437      -20.387550   1.000000   1.000000
      6        -20.378279      -20.378364   1.000000   1.000000
      7        -20.273275      -20.273519   1.000000   1.000000
      8        -20.263692      -20.263926   1.000000   1.000000
      9        -18.838862      -18.839000   1.000000   1.000000
     10        -18.830407      -18.830553   1.000000   1.000000
     11        -18.697536      -18.697622   1.000000   1.000000
     12        -18.663906      -18.664009   1.000000   1.000000
     13        -15.175724      -15.175816   1.000000   1.000000
     14        -15.122461      -15.122528   1.000000   1.000000
     15        -15.022362      -15.022431   1.000000   1.000000
     16        -15.017079      -15.017127   1.000000   1.000000
     17        -14.987957      -14.987996   1.000000   1.000000
     18        -14.984452      -14.984530   1.000000   1.000000
     19        -14.977455      -14.977543   1.000000   1.000000
     20        -14.919106      -14.919131   1.000000   1.000000
     21        -14.851664      -14.851718   1.000000   1.000000
     22        -14.833563      -14.833643   1.000000   1.000000
     23        -14.812367      -14.812418   1.000000   1.000000
     24        -14.783425      -14.783523   1.000000   1.000000
     25         -6.577897       -6.578017   1.000000   1.000000
     26         -6.547198       -6.547497   1.000000   1.000000
     27         -6.516705       -6.516810   1.000000   1.000000
     28         -6.461286       -6.461633   1.000000   1.000000
     29         -5.173206       -5.173354   1.000000   1.000000
     30         -5.144801       -5.144855   1.000000   1.000000
     31         -4.946601       -4.946762   1.000000   1.000000
     32         -4.913126       -4.913183   1.000000   1.000000
     33         -4.412011       -4.412346   1.000000   1.000000
     34         -4.370192       -4.370318   1.000000   1.000000
     35         -4.219965       -4.220192   1.000000   1.000000
     36         -4.172349       -4.172516   1.000000   1.000000
     37         -4.051729       -4.051780   1.000000   1.000000
     38         -4.012251       -4.012934   1.000000   1.000000
     39         -3.975096       -3.975443   1.000000   1.000000
     40         -3.873754       -3.874078   1.000000   1.000000
     41         -1.791150       -1.791267   1.000000   1.000000
     42         -1.622481       -1.622565   1.000000   1.000000
     43         -1.428300       -1.428461   1.000000   1.000000
     44         -1.408879       -1.408900   1.000000   1.000000
     45         -1.368473       -1.368777   1.000000   1.000000
     46         -1.306065       -1.306217   1.000000   1.000000
     47         -1.223927       -1.224044   1.000000   1.000000
     48         -0.988436       -0.988567   1.000000   1.000000
     49          4.260160        4.259910   1.000000   1.000000
     50          4.373734        4.373565   1.000000   1.000000
     51          4.670883        4.670547   1.000000   1.000000
     52          4.878530        4.878341   1.000000   1.000000
     53          5.168408        5.168150   1.000000   1.000000
     54          5.252460        5.251860   1.000000   1.000000
     55          5.545580        5.545169   0.072190   0.073802
     56          5.681308        5.680941   0.000000   0.000000
     57          6.032291        6.032069   0.000000   0.000000
     58          6.306024        6.305752   0.000000   0.000000
     59          6.624042        6.623971   0.000000   0.000000
     60          6.766753        6.766682   0.000000   0.000000
     61          6.835985        6.835971   0.000000   0.000000
     62          6.860010        6.859934   0.000000   0.000000
     63          7.069018        7.068842   0.000000   0.000000
     64          7.140182        7.139868   0.000000   0.000000
     65          7.212190        7.212107   0.000000   0.000000
     66          7.355183        7.355087   0.000000   0.000000
     67          7.497457        7.497197   0.000000   0.000000
     68          7.610356        7.609949   0.000000   0.000000
     69          7.751657        7.751628   0.000000   0.000000
     70          7.876538        7.876239   0.000000   0.000000
 
 -0.4000000E+00  0.2857143E+00  0.2000000E+00  0.1142857E-01
      1        -33.840588      -33.840644   1.000000   1.000000
      2        -33.828159      -33.828193   1.000000   1.000000
      3        -33.825900      -33.825960   1.000000   1.000000
      4        -33.817483      -33.817508   1.000000   1.000000
      5        -20.387467      -20.387551   1.000000   1.000000
      6        -20.379016      -20.379132   1.000000   1.000000
      7        -20.273408      -20.273633   1.000000   1.000000
      8        -20.264693      -20.264945   1.000000   1.000000
      9        -18.837564      -18.837727   1.000000   1.000000
     10        -18.829427      -18.829546   1.000000   1.000000
     11        -18.698159      -18.698256   1.000000   1.000000
     12        -18.663559      -18.663653   1.000000   1.000000
     13        -15.171960      -15.172015   1.000000   1.000000
     14        -15.137527      -15.137631   1.000000   1.000000
     15        -15.015425      -15.015483   1.000000   1.000000
     16        -15.009707      -15.009777   1.000000   1.000000
     17        -14.996879      -14.996931   1.000000   1.000000
     18        -14.981855      -14.981907   1.000000   1.000000
     19        -14.963586      -14.963604   1.000000   1.000000
     20        -14.954464      -14.954560   1.000000   1.000000
     21        -14.840268      -14.840389   1.000000   1.000000
     22        -14.817149      -14.817222   1.000000   1.000000
     23        -14.808312      -14.808362   1.000000   1.000000
     24        -14.786733      -14.786773   1.000000   1.000000
     25         -6.618272       -6.618357   1.000000   1.000000
     26         -6.587436       -6.587764   1.000000   1.000000
     27         -6.507042       -6.507143   1.000000   1.000000
     28         -6.453850       -6.454197   1.000000   1.000000
     29         -5.101984       -5.102149   1.000000   1.000000
     30         -5.082490       -5.082548   1.000000   1.000000
     31         -4.961143       -4.961279   1.000000   1.000000
     32         -4.916798       -4.916868   1.000000   1.000000
     33         -4.433648       -4.433876   1.000000   1.000000
     34         -4.406311       -4.406620   1.000000   1.000000
     35         -4.244374       -4.244514   1.000000   1.000000
     36         -4.157258       -4.157468   1.000000   1.000000
     37         -4.029375       -4.029545   1.000000   1.000000
     38         -3.990079       -3.990667   1.000000   1.000000
     39         -3.962630       -3.962763   1.000000   1.000000
     40         -3.916287       -3.916767   1.000000   1.000000
     41         -1.745425       -1.745513   1.000000   1.000000
     42         -1.685974       -1.686066   1.000000   1.000000
     43         -1.522027       -1.522266   1.000000   1.000000
     44         -1.422878       -1.422993   1.000000   1.000000
     45         -1.301829       -1.301940   1.000000   1.000000
     46         -1.231947       -1.232107   1.000000   1.000000
     47         -1.151570       -1.151747   1.000000   1.000000
     48         -1.084017       -1.084132   1.000000   1.000000
     49          4.374263        4.373935   1.000000   1.000000
     50          4.440281        4.440071   1.000000   1.000000
     51          4.458769        4.458723   1.000000   1.000000
     52          4.801736        4.801451   1.000000   1.000000
     53          5.175593        5.175287   1.000000   1.000000
     54          5.431937        5.431594   0.960338   0.961161
     55          5.571866        5.571435   0.013792   0.014227
     56          5.659142        5.658323   0.000001   0.000002
     57          5.776338        5.776149   0.000000   0.000000
     58          6.154381        6.154243   0.000000   0.000000
     59          6.706466        6.706412   0.000000   0.000000
     60          6.772971        6.772720   0.000000   0.000000
     61          6.860710        6.860649   0.000000   0.000000
     62          6.959074        6.958972   0.000000   0.000000
     63          7.125680        7.125547   0.000000   0.000000
     64          7.163267        7.163006   0.000000   0.000000
     65          7.188964        7.188763   0.000000   0.000000
     66          7.481462        7.481446   0.000000   0.000000
     67          7.543738        7.543434   0.000000   0.000000
     68          7.619743        7.619620   0.000000   0.000000
     69          7.684047        7.683929   0.000000   0.000000
     70          7.918073        7.918040   0.000000   0.000000
 
  0.4000000E+00  0.2857143E+00 -0.2000000E+00  0.1142857E-01
      1        -33.840588      -33.840645   1.000000   1.000000
      2        -33.828162      -33.828190   1.000000   1.000000
      3        -33.825898      -33.825963   1.000000   1.000000
      4        -33.817483      -33.817508   1.000000   1.000000
      5        -20.387452      -20.387566   1.000000   1.000000
      6        -20.379032      -20.379117   1.000000   1.000000
      7        -20.273395      -20.273644   1.000000   1.000000
      8        -20.264706      -20.264934   1.000000   1.000000
      9        -18.837586      -18.837707   1.000000   1.000000
     10        -18.829404      -18.829566   1.000000   1.000000
     11        -18.698162      -18.698253   1.000000   1.000000
     12        -18.663557      -18.663655   1.000000   1.000000
     13        -15.171942      -15.172033   1.000000   1.000000
     14        -15.137542      -15.137616   1.000000   1.000000
     15        -15.015415      -15.015493   1.000000   1.000000
     16        -15.009732      -15.009750   1.000000   1.000000
     17        -14.996881      -14.996928   1.000000   1.000000
     18        -14.981831      -14.981931   1.000000   1.000000
     19        -14.963571      -14.963620   1.000000   1.000000
     20        -14.954482      -14.954541   1.000000   1.000000
     21        -14.840300      -14.840356   1.000000   1.000000
     22        -14.817163      -14.817208   1.000000   1.000000
     23        -14.808300      -14.808375   1.000000   1.000000
     24        -14.786704      -14.786802   1.000000   1.000000
     25         -6.618266       -6.618362   1.000000   1.000000
     26         -6.587427       -6.587772   1.000000   1.000000
     27         -6.507050       -6.507136   1.000000   1.000000
     28         -6.453857       -6.454190   1.000000   1.000000
     29         -5.101990       -5.102144   1.000000   1.000000
     30         -5.082493       -5.082545   1.000000   1.000000
     31         -4.961132       -4.961289   1.000000   1.000000
     32         -4.916800       -4.916867   1.000000   1.000000
     33         -4.433587       -4.433936   1.000000   1.000000
     34         -4.406394       -4.406539   1.000000   1.000000
     35         -4.244336       -4.244552   1.000000   1.000000
     36         -4.157280       -4.157447   1.000000   1.000000
     37         -4.029397       -4.029523   1.000000   1.000000
     38         -3.990057       -3.990689   1.000000   1.000000
     39         -3.962558       -3.962835   1.000000   1.000000
     40         -3.916357       -3.916698   1.000000   1.000000
     41         -1.745431       -1.745508   1.000000   1.000000
     42         -1.685963       -1.686077   1.000000   1.000000
     43         -1.522111       -1.522183   1.000000   1.000000
     44         -1.422787       -1.423082   1.000000   1.000000
     45         -1.301792       -1.301976   1.000000   1.000000
     46         -1.231977       -1.232077   1.000000   1.000000
     47         -1.151584       -1.151734   1.000000   1.000000
     48         -1.084021       -1.084127   1.000000   1.000000
     49          4.374163        4.374036   1.000000   1.000000
     50          4.440279        4.440074   1.000000   1.000000
     51          4.458938        4.458553   1.000000   1.000000
     52          4.801644        4.801544   1.000000   1.000000
     53          5.175616        5.175265   1.000000   1.000000
     54          5.432124        5.431408   0.959885   0.961603
     55          5.571721        5.571580   0.013937   0.014079
     56          5.658978        5.658486   0.000002   0.000002
     57          5.776465        5.776022   0.000000   0.000000
     58          6.154345        6.154280   0.000000   0.000000
     59          6.706481        6.706397   0.000000   0.000000
     60          6.772934        6.772757   0.000000   0.000000
     61          6.860724        6.860635   0.000000   0.000000
     62          6.959079        6.958966   0.000000   0.000000
     63          7.125677        7.125550   0.000000   0.000000
     64          7.163226        7.163049   0.000000   0.000000
     65          7.189010        7.188716   0.000000   0.000000
     66          7.481646        7.481260   0.000000   0.000000
     67          7.543584        7.543590   0.000000   0.000000
     68          7.619759        7.619604   0.000000   0.000000
     69          7.684021        7.683953   0.000000   0.000000
     70          7.918102        7.917870   0.000000   0.000000
 
 -0.2000000E+00  0.2857143E+00  0.2000000E+00  0.1142857E-01
      1        -33.843726      -33.843780   1.000000   1.000000
      2        -33.827527      -33.827562   1.000000   1.000000
      3        -33.823171      -33.823243   1.000000   1.000000
      4        -33.817704      -33.817719   1.000000   1.000000
      5        -20.381211      -20.381297   1.000000   1.000000
      6        -20.372606      -20.372720   1.000000   1.000000
      7        -20.266758      -20.266983   1.000000   1.000000
      8        -20.255988      -20.256239   1.000000   1.000000
      9        -18.855792      -18.855978   1.000000   1.000000
     10        -18.850080      -18.850179   1.000000   1.000000
     11        -18.728898      -18.728987   1.000000   1.000000
     12        -18.656009      -18.656108   1.000000   1.000000
     13        -15.124180      -15.124228   1.000000   1.000000
     14        -15.110008      -15.110115   1.000000   1.000000
     15        -15.017209      -15.017283   1.000000   1.000000
     16        -15.011635      -15.011657   1.000000   1.000000
     17        -15.000824      -15.000870   1.000000   1.000000
     18        -14.973871      -14.973931   1.000000   1.000000
     19        -14.962754      -14.962835   1.000000   1.000000
     20        -14.946400      -14.946476   1.000000   1.000000
     21        -14.844712      -14.844847   1.000000   1.000000
     22        -14.833945      -14.834002   1.000000   1.000000
     23        -14.812073      -14.812114   1.000000   1.000000
     24        -14.784566      -14.784604   1.000000   1.000000
     25         -6.772340       -6.772437   1.000000   1.000000
     26         -6.740346       -6.740661   1.000000   1.000000
     27         -6.552828       -6.552927   1.000000   1.000000
     28         -6.505135       -6.505484   1.000000   1.000000
     29         -4.917657       -4.917857   1.000000   1.000000
     30         -4.915580       -4.915618   1.000000   1.000000
     31         -4.865973       -4.866101   1.000000   1.000000
     32         -4.828481       -4.828531   1.000000   1.000000
     33         -4.374799       -4.375153   1.000000   1.000000
     34         -4.356188       -4.356354   1.000000   1.000000
     35         -4.253061       -4.253210   1.000000   1.000000
     36         -4.144707       -4.144932   1.000000   1.000000
     37         -3.999210       -3.999336   1.000000   1.000000
     38         -3.969709       -3.969852   1.000000   1.000000
     39         -3.952506       -3.953091   1.000000   1.000000
     40         -3.877049       -3.877577   1.000000   1.000000
     41         -1.830270       -1.830360   1.000000   1.000000
     42         -1.710278       -1.710455   1.000000   1.000000
     43         -1.632908       -1.633112   1.000000   1.000000
     44         -1.579405       -1.579480   1.000000   1.000000
     45         -1.343285       -1.343332   1.000000   1.000000
     46         -1.316515       -1.316765   1.000000   1.000000
     47         -1.263214       -1.263379   1.000000   1.000000
     48         -1.053098       -1.053196   1.000000   1.000000
     49          4.149949        4.149767   1.000000   1.000000
     50          4.554901        4.554712   1.000000   1.000000
     51          4.648957        4.648741   1.000000   1.000000
     52          4.735919        4.735643   1.000000   1.000000
     53          4.969691        4.969489   1.000000   1.000000
     54          5.530236        5.529994   0.152519   0.154137
     55          5.589302        5.588740   0.003505   0.003676
     56          5.867041        5.866666   0.000000   0.000000
     57          5.880477        5.880417   0.000000   0.000000
     58          5.970399        5.969642   0.000000   0.000000
     59          6.630212        6.630142   0.000000   0.000000
     60          6.822855        6.822776   0.000000   0.000000
     61          6.856291        6.856119   0.000000   0.000000
     62          6.967096        6.966898   0.000000   0.000000
     63          7.130867        7.130633   0.000000   0.000000
     64          7.165150        7.165031   0.000000   0.000000
     65          7.313480        7.313115   0.000000   0.000000
     66          7.510898        7.510785   0.000000   0.000000
     67          7.609829        7.609773   0.000000   0.000000
     68          7.679288        7.679138   0.000000   0.000000
     69          7.788402        7.788199   0.000000   0.000000
     70          7.970019        7.969820   0.000000   0.000000
 
  0.2000000E+00  0.2857143E+00 -0.2000000E+00  0.1142857E-01
      1        -33.843726      -33.843780   1.000000   1.000000
      2        -33.827528      -33.827561   1.000000   1.000000
      3        -33.823170      -33.823244   1.000000   1.000000
      4        -33.817704      -33.817719   1.000000   1.000000
      5        -20.381198      -20.381310   1.000000   1.000000
      6        -20.372620      -20.372706   1.000000   1.000000
      7        -20.266745      -20.266995   1.000000   1.000000
      8        -20.256000      -20.256229   1.000000   1.000000
      9        -18.855837      -18.855939   1.000000   1.000000
     10        -18.850036      -18.850218   1.000000   1.000000
     11        -18.728898      -18.728987   1.000000   1.000000
     12        -18.656008      -18.656108   1.000000   1.000000
     13        -15.124161      -15.124247   1.000000   1.000000
     14        -15.110021      -15.110102   1.000000   1.000000
     15        -15.017233      -15.017259   1.000000   1.000000
     16        -15.011589      -15.011704   1.000000   1.000000
     17        -15.000830      -15.000864   1.000000   1.000000
     18        -14.973876      -14.973925   1.000000   1.000000
     19        -14.962774      -14.962814   1.000000   1.000000
     20        -14.946399      -14.946477   1.000000   1.000000
     21        -14.844744      -14.844813   1.000000   1.000000
     22        -14.833948      -14.833999   1.000000   1.000000
     23        -14.812054      -14.812134   1.000000   1.000000
     24        -14.784547      -14.784623   1.000000   1.000000
     25         -6.772338       -6.772439   1.000000   1.000000
     26         -6.740340       -6.740666   1.000000   1.000000
     27         -6.552830       -6.552925   1.000000   1.000000
     28         -6.505140       -6.505479   1.000000   1.000000
     29         -4.917714       -4.917806   1.000000   1.000000
     30         -4.915544       -4.915649   1.000000   1.000000
     31         -4.865963       -4.866110   1.000000   1.000000
     32         -4.828469       -4.828542   1.000000   1.000000
     33         -4.374881       -4.375072   1.000000   1.000000
     34         -4.356118       -4.356424   1.000000   1.000000
     35         -4.253033       -4.253237   1.000000   1.000000
     36         -4.144731       -4.144908   1.000000   1.000000
     37         -3.999168       -3.999378   1.000000   1.000000
     38         -3.969467       -3.970091   1.000000   1.000000
     39         -3.952783       -3.952816   1.000000   1.000000
     40         -3.877049       -3.877577   1.000000   1.000000
     41         -1.830277       -1.830353   1.000000   1.000000
     42         -1.710324       -1.710409   1.000000   1.000000
     43         -1.632918       -1.633103   1.000000   1.000000
     44         -1.579333       -1.579550   1.000000   1.000000
     45         -1.343189       -1.343426   1.000000   1.000000
     46         -1.316564       -1.316718   1.000000   1.000000
     47         -1.263265       -1.263329   1.000000   1.000000
     48         -1.053100       -1.053193   1.000000   1.000000
     49          4.149943        4.149773   1.000000   1.000000
     50          4.554949        4.554664   1.000000   1.000000
     51          4.648976        4.648721   1.000000   1.000000
     52          4.735830        4.735732   1.000000   1.000000
     53          4.969743        4.969437   1.000000   1.000000
     54          5.530373        5.529857   0.151606   0.155063
     55          5.589103        5.588939   0.003565   0.003615
     56          5.867014        5.866688   0.000000   0.000000
     57          5.880650        5.880248   0.000000   0.000000
     58          5.970266        5.969775   0.000000   0.000000
     59          6.630203        6.630150   0.000000   0.000000
     60          6.822903        6.822728   0.000000   0.000000
     61          6.856237        6.856173   0.000000   0.000000
     62          6.967085        6.966908   0.000000   0.000000
     63          7.130888        7.130613   0.000000   0.000000
     64          7.165238        7.164943   0.000000   0.000000
     65          7.313398        7.313197   0.000000   0.000000
     66          7.510928        7.510753   0.000000   0.000000
     67          7.609823        7.609778   0.000000   0.000000
     68          7.679235        7.679192   0.000000   0.000000
     69          7.788388        7.788213   0.000000   0.000000
     70          7.970762        7.969703   0.000000   0.000000
 
 -0.6560908E-18  0.4285714E+00  0.2000000E+00  0.1142857E-01
      1        -33.837203      -33.837268   1.000000   1.000000
      2        -33.829711      -33.829734   1.000000   1.000000
      3        -33.822927      -33.823005   1.000000   1.000000
      4        -33.818393      -33.818402   1.000000   1.000000
      5        -20.415062      -20.415155   1.000000   1.000000
      6        -20.405463      -20.405568   1.000000   1.000000
      7        -20.312952      -20.313187   1.000000   1.000000
      8        -20.299192      -20.299436   1.000000   1.000000
      9        -18.869840      -18.869991   1.000000   1.000000
     10        -18.835325      -18.835466   1.000000   1.000000
     11        -18.756578      -18.756669   1.000000   1.000000
     12        -18.706310      -18.706401   1.000000   1.000000
     13        -15.062228      -15.062268   1.000000   1.000000
     14        -15.054406      -15.054526   1.000000   1.000000
     15        -15.029386      -15.029458   1.000000   1.000000
     16        -15.026472      -15.026484   1.000000   1.000000
     17        -15.022307      -15.022354   1.000000   1.000000
     18        -15.003154      -15.003255   1.000000   1.000000
     19        -14.923569      -14.923610   1.000000   1.000000
     20        -14.892405      -14.892433   1.000000   1.000000
     21        -14.723180      -14.723295   1.000000   1.000000
     22        -14.701859      -14.701941   1.000000   1.000000
     23        -14.690385      -14.690477   1.000000   1.000000
     24        -14.687319      -14.687343   1.000000   1.000000
     25         -6.775060       -6.775142   1.000000   1.000000
     26         -6.744723       -6.745054   1.000000   1.000000
     27         -6.538386       -6.538477   1.000000   1.000000
     28         -6.490422       -6.490777   1.000000   1.000000
     29         -4.894640       -4.894785   1.000000   1.000000
     30         -4.880939       -4.880999   1.000000   1.000000
     31         -4.793918       -4.794070   1.000000   1.000000
     32         -4.763569       -4.763628   1.000000   1.000000
     33         -4.595568       -4.595764   1.000000   1.000000
     34         -4.559677       -4.559905   1.000000   1.000000
     35         -4.549120       -4.549272   1.000000   1.000000
     36         -4.535722       -4.535923   1.000000   1.000000
     37         -4.125411       -4.125492   1.000000   1.000000
     38         -4.090197       -4.090850   1.000000   1.000000
     39         -3.937371       -3.937529   1.000000   1.000000
     40         -3.878773       -3.879411   1.000000   1.000000
     41         -1.711636       -1.711805   1.000000   1.000000
     42         -1.597487       -1.597673   1.000000   1.000000
     43         -1.591790       -1.591958   1.000000   1.000000
     44         -1.549836       -1.550004   1.000000   1.000000
     45         -1.437311       -1.437394   1.000000   1.000000
     46         -1.311766       -1.311933   1.000000   1.000000
     47         -1.264561       -1.264636   1.000000   1.000000
     48         -1.147874       -1.147970   1.000000   1.000000
     49          3.925974        3.925810   1.000000   1.000000
     50          4.085050        4.084868   1.000000   1.000000
     51          4.731134        4.730899   1.000000   1.000000
     52          4.796481        4.796245   1.000000   1.000000
     53          5.269999        5.269616   1.000000   1.000000
     54          5.365385        5.364977   0.999862   0.999868
     55          5.709958        5.709769   0.000000   0.000000
     56          5.858840        5.858482   0.000000   0.000000
     57          5.961272        5.960726   0.000000   0.000000
     58          6.177900        6.177608   0.000000   0.000000
     59          6.518951        6.518866   0.000000   0.000000
     60          6.604969        6.604955   0.000000   0.000000
     61          6.743244        6.743118   0.000000   0.000000
     62          6.901198        6.901067   0.000000   0.000000
     63          7.054719        7.054619   0.000000   0.000000
     64          7.136997        7.136961   0.000000   0.000000
     65          7.228860        7.228526   0.000000   0.000000
     66          7.340099        7.340043   0.000000   0.000000
     67          7.759819        7.759714   0.000000   0.000000
     68          7.782260        7.782269   0.000000   0.000000
     69          8.031834        8.031472   0.000000   0.000000
     70          8.202512        8.201848   0.000000   0.000000
 
  0.6560908E-18  0.4285714E+00 -0.2000000E+00  0.1142857E-01
      1        -33.837203      -33.837268   1.000000   1.000000
      2        -33.829711      -33.829734   1.000000   1.000000
      3        -33.822927      -33.823005   1.000000   1.000000
      4        -33.818393      -33.818402   1.000000   1.000000
      5        -20.415057      -20.415161   1.000000   1.000000
      6        -20.405469      -20.405562   1.000000   1.000000
      7        -20.312948      -20.313190   1.000000   1.000000
      8        -20.299196      -20.299433   1.000000   1.000000
      9        -18.869842      -18.869989   1.000000   1.000000
     10        -18.835322      -18.835469   1.000000   1.000000
     11        -18.756580      -18.756667   1.000000   1.000000
     12        -18.706309      -18.706402   1.000000   1.000000
     13        -15.062227      -15.062268   1.000000   1.000000
     14        -15.054411      -15.054521   1.000000   1.000000
     15        -15.029384      -15.029460   1.000000   1.000000
     16        -15.026451      -15.026507   1.000000   1.000000
     17        -15.022316      -15.022344   1.000000   1.000000
     18        -15.003161      -15.003248   1.000000   1.000000
     19        -14.923569      -14.923610   1.000000   1.000000
     20        -14.892407      -14.892432   1.000000   1.000000
     21        -14.723207      -14.723266   1.000000   1.000000
     22        -14.701832      -14.701970   1.000000   1.000000
     23        -14.690419      -14.690442   1.000000   1.000000
     24        -14.687287      -14.687376   1.000000   1.000000
     25         -6.775059       -6.775143   1.000000   1.000000
     26         -6.744722       -6.745055   1.000000   1.000000
     27         -6.538386       -6.538476   1.000000   1.000000
     28         -6.490423       -6.490776   1.000000   1.000000
     29         -4.894642       -4.894783   1.000000   1.000000
     30         -4.880941       -4.880997   1.000000   1.000000
     31         -4.793915       -4.794072   1.000000   1.000000
     32         -4.763566       -4.763630   1.000000   1.000000
     33         -4.595562       -4.595770   1.000000   1.000000
     34         -4.559697       -4.559885   1.000000   1.000000
     35         -4.549085       -4.549303   1.000000   1.000000
     36         -4.535747       -4.535900   1.000000   1.000000
     37         -4.125405       -4.125497   1.000000   1.000000
     38         -4.090193       -4.090854   1.000000   1.000000
     39         -3.937369       -3.937532   1.000000   1.000000
     40         -3.878782       -3.879403   1.000000   1.000000
     41         -1.711636       -1.711805   1.000000   1.000000
     42         -1.597446       -1.597709   1.000000   1.000000
     43         -1.591840       -1.591913   1.000000   1.000000
     44         -1.549830       -1.550010   1.000000   1.000000
     45         -1.437302       -1.437403   1.000000   1.000000
     46         -1.311768       -1.311931   1.000000   1.000000
     47         -1.264567       -1.264630   1.000000   1.000000
     48         -1.147871       -1.147972   1.000000   1.000000
     49          3.925974        3.925810   1.000000   1.000000
     50          4.085049        4.084868   1.000000   1.000000
     51          4.731138        4.730896   1.000000   1.000000
     52          4.796494        4.796233   1.000000   1.000000
     53          5.269965        5.269650   1.000000   1.000000
     54          5.365400        5.364962   0.999862   0.999868
     55          5.709993        5.709734   0.000000   0.000000
     56          5.858810        5.858512   0.000000   0.000000
     57          5.961250        5.960748   0.000000   0.000000
     58          6.177921        6.177588   0.000000   0.000000
     59          6.518952        6.518865   0.000000   0.000000
     60          6.604971        6.604954   0.000000   0.000000
     61          6.743221        6.743141   0.000000   0.000000
     62          6.901200        6.901065   0.000000   0.000000
     63          7.054719        7.054620   0.000000   0.000000
     64          7.136989        7.136970   0.000000   0.000000
     65          7.228874        7.228512   0.000000   0.000000
     66          7.340114        7.340028   0.000000   0.000000
     67          7.759786        7.759747   0.000000   0.000000
     68          7.782294        7.782235   0.000000   0.000000
     69          8.031800        8.031506   0.000000   0.000000
     70          8.202522        8.201962   0.000000   0.000000
 
  0.2000000E+00  0.4285714E+00  0.2000000E+00  0.1142857E-01
      1        -33.833970      -33.834038   1.000000   1.000000
      2        -33.827677      -33.827705   1.000000   1.000000
      3        -33.825613      -33.825680   1.000000   1.000000
      4        -33.820979      -33.820991   1.000000   1.000000
      5        -20.419188      -20.419280   1.000000   1.000000
      6        -20.408963      -20.409069   1.000000   1.000000
      7        -20.317039      -20.317275   1.000000   1.000000
      8        -20.304144      -20.304387   1.000000   1.000000
      9        -18.856487      -18.856635   1.000000   1.000000
     10        -18.827955      -18.828097   1.000000   1.000000
     11        -18.743889      -18.743983   1.000000   1.000000
     12        -18.701000      -18.701088   1.000000   1.000000
     13        -15.102576      -15.102630   1.000000   1.000000
     14        -15.078220      -15.078332   1.000000   1.000000
     15        -15.024082      -15.024144   1.000000   1.000000
     16        -15.019371      -15.019387   1.000000   1.000000
     17        -15.008580      -15.008627   1.000000   1.000000
     18        -15.002232      -15.002344   1.000000   1.000000
     19        -14.945161      -14.945198   1.000000   1.000000
     20        -14.911584      -14.911608   1.000000   1.000000
     21        -14.707039      -14.707168   1.000000   1.000000
     22        -14.699333      -14.699391   1.000000   1.000000
     23        -14.691947      -14.692013   1.000000   1.000000
     24        -14.666968      -14.667025   1.000000   1.000000
     25         -6.680972       -6.681056   1.000000   1.000000
     26         -6.647519       -6.647850   1.000000   1.000000
     27         -6.504119       -6.504210   1.000000   1.000000
     28         -6.453413       -6.453770   1.000000   1.000000
     29         -5.039250       -5.039388   1.000000   1.000000
     30         -5.017337       -5.017393   1.000000   1.000000
     31         -4.835193       -4.835348   1.000000   1.000000
     32         -4.804453       -4.804509   1.000000   1.000000
     33         -4.633229       -4.633410   1.000000   1.000000
     34         -4.606183       -4.606425   1.000000   1.000000
     35         -4.528315       -4.528515   1.000000   1.000000
     36         -4.512111       -4.512278   1.000000   1.000000
     37         -4.113260       -4.113340   1.000000   1.000000
     38         -4.078480       -4.079159   1.000000   1.000000
     39         -3.988330       -3.988507   1.000000   1.000000
     40         -3.929611       -3.930197   1.000000   1.000000
     41         -1.700468       -1.700571   1.000000   1.000000
     42         -1.553597       -1.553803   1.000000   1.000000
     43         -1.471479       -1.471804   1.000000   1.000000
     44         -1.447989       -1.448037   1.000000   1.000000
     45         -1.368013       -1.368135   1.000000   1.000000
     46         -1.344500       -1.344583   1.000000   1.000000
     47         -1.282373       -1.282484   1.000000   1.000000
     48         -1.071269       -1.071371   1.000000   1.000000
     49          3.983739        3.983563   1.000000   1.000000
     50          4.104777        4.104584   1.000000   1.000000
     51          4.800389        4.800130   1.000000   1.000000
     52          4.853217        4.853035   1.000000   1.000000
     53          5.037025        5.036637   1.000000   1.000000
     54          5.106752        5.106330   1.000000   1.000000
     55          5.728827        5.728417   0.000000   0.000000
     56          5.806571        5.806057   0.000000   0.000000
     57          6.057694        6.057406   0.000000   0.000000
     58          6.464438        6.464316   0.000000   0.000000
     59          6.614209        6.614071   0.000000   0.000000
     60          6.657408        6.657363   0.000000   0.000000
     61          6.881766        6.881740   0.000000   0.000000
     62          6.943572        6.943515   0.000000   0.000000
     63          7.044967        7.044923   0.000000   0.000000
     64          7.096284        7.096072   0.000000   0.000000
     65          7.293469        7.293318   0.000000   0.000000
     66          7.386630        7.386564   0.000000   0.000000
     67          7.441392        7.441235   0.000000   0.000000
     68          7.535938        7.535824   0.000000   0.000000
     69          8.002197        8.001693   0.000000   0.000000
     70          8.086398        8.086015   0.000000   0.000000
 
 -0.2000000E+00  0.4285714E+00 -0.2000000E+00  0.1142857E-01
      1        -33.833971      -33.834038   1.000000   1.000000
      2        -33.827675      -33.827707   1.000000   1.000000
      3        -33.825614      -33.825679   1.000000   1.000000
      4        -33.820979      -33.820991   1.000000   1.000000
      5        -20.419181      -20.419286   1.000000   1.000000
      6        -20.408970      -20.409062   1.000000   1.000000
      7        -20.317036      -20.317278   1.000000   1.000000
      8        -20.304146      -20.304385   1.000000   1.000000
      9        -18.856487      -18.856635   1.000000   1.000000
     10        -18.827953      -18.828099   1.000000   1.000000
     11        -18.743894      -18.743978   1.000000   1.000000
     12        -18.700996      -18.701091   1.000000   1.000000
     13        -15.102566      -15.102641   1.000000   1.000000
     14        -15.078234      -15.078317   1.000000   1.000000
     15        -15.024083      -15.024144   1.000000   1.000000
     16        -15.019368      -15.019391   1.000000   1.000000
     17        -15.008573      -15.008634   1.000000   1.000000
     18        -15.002237      -15.002339   1.000000   1.000000
     19        -14.945161      -14.945199   1.000000   1.000000
     20        -14.911584      -14.911608   1.000000   1.000000
     21        -14.707063      -14.707143   1.000000   1.000000
     22        -14.699305      -14.699422   1.000000   1.000000
     23        -14.691967      -14.691992   1.000000   1.000000
     24        -14.666954      -14.667039   1.000000   1.000000
     25         -6.680971       -6.681057   1.000000   1.000000
     26         -6.647518       -6.647851   1.000000   1.000000
     27         -6.504120       -6.504209   1.000000   1.000000
     28         -6.453413       -6.453769   1.000000   1.000000
     29         -5.039249       -5.039389   1.000000   1.000000
     30         -5.017337       -5.017394   1.000000   1.000000
     31         -4.835193       -4.835348   1.000000   1.000000
     32         -4.804453       -4.804509   1.000000   1.000000
     33         -4.633185       -4.633452   1.000000   1.000000
     34         -4.606241       -4.606367   1.000000   1.000000
     35         -4.528324       -4.528506   1.000000   1.000000
     36         -4.512095       -4.512293   1.000000   1.000000
     37         -4.113260       -4.113340   1.000000   1.000000
     38         -4.078473       -4.079166   1.000000   1.000000
     39         -3.988320       -3.988517   1.000000   1.000000
     40         -3.929621       -3.930186   1.000000   1.000000
     41         -1.700439       -1.700599   1.000000   1.000000
     42         -1.553626       -1.553774   1.000000   1.000000
     43         -1.471513       -1.471772   1.000000   1.000000
     44         -1.447975       -1.448050   1.000000   1.000000
     45         -1.368018       -1.368129   1.000000   1.000000
     46         -1.344464       -1.344618   1.000000   1.000000
     47         -1.282388       -1.282469   1.000000   1.000000
     48         -1.071263       -1.071377   1.000000   1.000000
     49          3.983743        3.983559   1.000000   1.000000
     50          4.104774        4.104587   1.000000   1.000000
     51          4.800381        4.800138   1.000000   1.000000
     52          4.853258        4.852994   1.000000   1.000000
     53          5.036993        5.036668   1.000000   1.000000
     54          5.106744        5.106337   1.000000   1.000000
     55          5.728831        5.728412   0.000000   0.000000
     56          5.806605        5.806023   0.000000   0.000000
     57          6.057639        6.057461   0.000000   0.000000
     58          6.464488        6.464266   0.000000   0.000000
     59          6.614170        6.614110   0.000000   0.000000
     60          6.657397        6.657375   0.000000   0.000000
     61          6.881773        6.881732   0.000000   0.000000
     62          6.943574        6.943512   0.000000   0.000000
     63          7.044965        7.044926   0.000000   0.000000
     64          7.096277        7.096079   0.000000   0.000000
     65          7.293474        7.293313   0.000000   0.000000
     66          7.386660        7.386534   0.000000   0.000000
     67          7.441353        7.441275   0.000000   0.000000
     68          7.535943        7.535819   0.000000   0.000000
     69          8.002271        8.001619   0.000000   0.000000
     70          8.086374        8.086039   0.000000   0.000000
 
  0.4000000E+00  0.4285714E+00  0.2000000E+00  0.1142857E-01
      1        -33.833170      -33.833244   1.000000   1.000000
      2        -33.828008      -33.828026   1.000000   1.000000
      3        -33.826511      -33.826577   1.000000   1.000000
      4        -33.820538      -33.820556   1.000000   1.000000
      5        -20.425768      -20.425860   1.000000   1.000000
      6        -20.415892      -20.415999   1.000000   1.000000
      7        -20.323501      -20.323736   1.000000   1.000000
      8        -20.313711      -20.313955   1.000000   1.000000
      9        -18.831546      -18.831694   1.000000   1.000000
     10        -18.817218      -18.817360   1.000000   1.000000
     11        -18.720766      -18.720863   1.000000   1.000000
     12        -18.694093      -18.694178   1.000000   1.000000
     13        -15.154723      -15.154772   1.000000   1.000000
     14        -15.132868      -15.132983   1.000000   1.000000
     15        -15.016990      -15.017072   1.000000   1.000000
     16        -15.012140      -15.012162   1.000000   1.000000
     17        -14.984298      -14.984356   1.000000   1.000000
     18        -14.979944      -14.979956   1.000000   1.000000
     19        -14.974259      -14.974363   1.000000   1.000000
     20        -14.955533      -14.955564   1.000000   1.000000
     21        -14.698959      -14.699064   1.000000   1.000000
     22        -14.683317      -14.683345   1.000000   1.000000
     23        -14.674291      -14.674410   1.000000   1.000000
     24        -14.649387      -14.649439   1.000000   1.000000
     25         -6.526923       -6.527006   1.000000   1.000000
     26         -6.495642       -6.495973   1.000000   1.000000
     27         -6.469945       -6.470041   1.000000   1.000000
     28         -6.408144       -6.408494   1.000000   1.000000
     29         -5.176562       -5.176708   1.000000   1.000000
     30         -5.148863       -5.148921   1.000000   1.000000
     31         -4.950165       -4.950333   1.000000   1.000000
     32         -4.914797       -4.914855   1.000000   1.000000
     33         -4.674742       -4.674969   1.000000   1.000000
     34         -4.653951       -4.654153   1.000000   1.000000
     35         -4.537624       -4.537774   1.000000   1.000000
     36         -4.520434       -4.520649   1.000000   1.000000
     37         -4.090748       -4.090891   1.000000   1.000000
     38         -4.061106       -4.061726   1.000000   1.000000
     39         -4.054779       -4.054905   1.000000   1.000000
     40         -4.009237       -4.009834   1.000000   1.000000
     41         -1.642442       -1.642516   1.000000   1.000000
     42         -1.526538       -1.526741   1.000000   1.000000
     43         -1.406678       -1.406864   1.000000   1.000000
     44         -1.363492       -1.363627   1.000000   1.000000
     45         -1.308868       -1.308958   1.000000   1.000000
     46         -1.276169       -1.276296   1.000000   1.000000
     47         -1.148782       -1.148955   1.000000   1.000000
     48         -0.999434       -0.999540   1.000000   1.000000
     49          4.116094        4.115903   1.000000   1.000000
     50          4.178218        4.178005   1.000000   1.000000
     51          4.573081        4.572920   1.000000   1.000000
     52          4.659774        4.659545   1.000000   1.000000
     53          5.088156        5.087782   1.000000   1.000000
     54          5.122582        5.122035   1.000000   1.000000
     55          5.565168        5.564902   0.022020   0.022419
     56          5.641298        5.640578   0.000015   0.000017
     57          6.484755        6.484642   0.000000   0.000000
     58          6.620685        6.620536   0.000000   0.000000
     59          6.693746        6.693623   0.000000   0.000000
     60          6.806178        6.806137   0.000000   0.000000
     61          6.917916        6.917725   0.000000   0.000000
     62          6.934766        6.934725   0.000000   0.000000
     63          6.982092        6.982066   0.000000   0.000000
     64          7.088773        7.088611   0.000000   0.000000
     65          7.283717        7.283482   0.000000   0.000000
     66          7.357670        7.357635   0.000000   0.000000
     67          7.483485        7.483196   0.000000   0.000000
     68          7.584916        7.584731   0.000000   0.000000
     69          7.667965        7.667804   0.000000   0.000000
     70          7.756385        7.756141   0.000000   0.000000
 
 -0.4000000E+00  0.4285714E+00 -0.2000000E+00  0.1142857E-01
      1        -33.833170      -33.833244   1.000000   1.000000
      2        -33.828010      -33.828024   1.000000   1.000000
      3        -33.826509      -33.826579   1.000000   1.000000
      4        -33.820539      -33.820556   1.000000   1.000000
      5        -20.425761      -20.425866   1.000000   1.000000
      6        -20.415899      -20.415991   1.000000   1.000000
      7        -20.323497      -20.323739   1.000000   1.000000
      8        -20.313714      -20.313952   1.000000   1.000000
      9        -18.831549      -18.831692   1.000000   1.000000
     10        -18.817215      -18.817363   1.000000   1.000000
     11        -18.720773      -18.720856   1.000000   1.000000
     12        -18.694088      -18.694184   1.000000   1.000000
     13        -15.154711      -15.154784   1.000000   1.000000
     14        -15.132881      -15.132970   1.000000   1.000000
     15        -15.016989      -15.017074   1.000000   1.000000
     16        -15.012141      -15.012161   1.000000   1.000000
     17        -14.984304      -14.984350   1.000000   1.000000
     18        -14.979925      -14.979976   1.000000   1.000000
     19        -14.974274      -14.974348   1.000000   1.000000
     20        -14.955530      -14.955567   1.000000   1.000000
     21        -14.698970      -14.699052   1.000000   1.000000
     22        -14.683291      -14.683372   1.000000   1.000000
     23        -14.674324      -14.674377   1.000000   1.000000
     24        -14.649370      -14.649455   1.000000   1.000000
     25         -6.526919       -6.527010   1.000000   1.000000
     26         -6.495639       -6.495975   1.000000   1.000000
     27         -6.469950       -6.470036   1.000000   1.000000
     28         -6.408145       -6.408493   1.000000   1.000000
     29         -5.176560       -5.176710   1.000000   1.000000
     30         -5.148865       -5.148919   1.000000   1.000000
     31         -4.950164       -4.950334   1.000000   1.000000
     32         -4.914797       -4.914854   1.000000   1.000000
     33         -4.674712       -4.674999   1.000000   1.000000
     34         -4.653994       -4.654111   1.000000   1.000000
     35         -4.537585       -4.537812   1.000000   1.000000
     36         -4.520465       -4.520619   1.000000   1.000000
     37         -4.090791       -4.090847   1.000000   1.000000
     38         -4.061214       -4.061625   1.000000   1.000000
     39         -4.054566       -4.055111   1.000000   1.000000
     40         -4.009296       -4.009776   1.000000   1.000000
     41         -1.642413       -1.642545   1.000000   1.000000
     42         -1.526574       -1.526705   1.000000   1.000000
     43         -1.406711       -1.406831   1.000000   1.000000
     44         -1.363472       -1.363646   1.000000   1.000000
     45         -1.308850       -1.308976   1.000000   1.000000
     46         -1.276154       -1.276311   1.000000   1.000000
     47         -1.148801       -1.148937   1.000000   1.000000
     48         -0.999428       -0.999546   1.000000   1.000000
     49          4.116106        4.115891   1.000000   1.000000
     50          4.178205        4.178019   1.000000   1.000000
     51          4.573118        4.572882   1.000000   1.000000
     52          4.659744        4.659575   1.000000   1.000000
     53          5.088153        5.087785   1.000000   1.000000
     54          5.122571        5.122045   1.000000   1.000000
     55          5.565185        5.564885   0.021995   0.022444
     56          5.641297        5.640579   0.000015   0.000017
     57          6.484734        6.484663   0.000000   0.000000
     58          6.620654        6.620567   0.000000   0.000000
     59          6.693768        6.693602   0.000000   0.000000
     60          6.806190        6.806124   0.000000   0.000000
     61          6.917838        6.917801   0.000000   0.000000
     62          6.934821        6.934670   0.000000   0.000000
     63          6.982092        6.982067   0.000000   0.000000
     64          7.088756        7.088630   0.000000   0.000000
     65          7.283728        7.283471   0.000000   0.000000
     66          7.357737        7.357568   0.000000   0.000000
     67          7.483459        7.483222   0.000000   0.000000
     68          7.584869        7.584778   0.000000   0.000000
     69          7.668019        7.667749   0.000000   0.000000
     70          7.756378        7.756148   0.000000   0.000000
 
 -0.4000000E+00  0.4285714E+00  0.2000000E+00  0.1142857E-01
      1        -33.836429      -33.836499   1.000000   1.000000
      2        -33.830332      -33.830350   1.000000   1.000000
      3        -33.823311      -33.823385   1.000000   1.000000
      4        -33.818138      -33.818151   1.000000   1.000000
      5        -20.425726      -20.425817   1.000000   1.000000
      6        -20.416740      -20.416847   1.000000   1.000000
      7        -20.323318      -20.323551   1.000000   1.000000
      8        -20.314894      -20.315140   1.000000   1.000000
      9        -18.830386      -18.830540   1.000000   1.000000
     10        -18.817051      -18.817188   1.000000   1.000000
     11        -18.720351      -18.720444   1.000000   1.000000
     12        -18.693921      -18.694009   1.000000   1.000000
     13        -15.158512      -15.158557   1.000000   1.000000
     14        -15.142558      -15.142675   1.000000   1.000000
     15        -15.015437      -15.015473   1.000000   1.000000
     16        -15.001614      -15.001656   1.000000   1.000000
     17        -14.993388      -14.993484   1.000000   1.000000
     18        -14.987412      -14.987429   1.000000   1.000000
     19        -14.959803      -14.959853   1.000000   1.000000
     20        -14.953403      -14.953479   1.000000   1.000000
     21        -14.699864      -14.699963   1.000000   1.000000
     22        -14.680294      -14.680332   1.000000   1.000000
     23        -14.669144      -14.669263   1.000000   1.000000
     24        -14.651637      -14.651680   1.000000   1.000000
     25         -6.570916       -6.570997   1.000000   1.000000
     26         -6.537149       -6.537482   1.000000   1.000000
     27         -6.457748       -6.457839   1.000000   1.000000
     28         -6.400606       -6.400951   1.000000   1.000000
     29         -5.104475       -5.104635   1.000000   1.000000
     30         -5.085166       -5.085229   1.000000   1.000000
     31         -4.961508       -4.961672   1.000000   1.000000
     32         -4.919226       -4.919284   1.000000   1.000000
     33         -4.686031       -4.686296   1.000000   1.000000
     34         -4.668974       -4.669142   1.000000   1.000000
     35         -4.552450       -4.552592   1.000000   1.000000
     36         -4.522597       -4.522821   1.000000   1.000000
     37         -4.106283       -4.106476   1.000000   1.000000
     38         -4.072581       -4.073039   1.000000   1.000000
     39         -4.041093       -4.041240   1.000000   1.000000
     40         -4.003921       -4.004595   1.000000   1.000000
     41         -1.623882       -1.623947   1.000000   1.000000
     42         -1.560104       -1.560336   1.000000   1.000000
     43         -1.447873       -1.447975   1.000000   1.000000
     44         -1.373900       -1.374092   1.000000   1.000000
     45         -1.299304       -1.299392   1.000000   1.000000
     46         -1.245651       -1.245782   1.000000   1.000000
     47         -1.105085       -1.105292   1.000000   1.000000
     48         -1.025344       -1.025431   1.000000   1.000000
     49          4.245888        4.245611   1.000000   1.000000
     50          4.302291        4.302137   1.000000   1.000000
     51          4.323531        4.323417   1.000000   1.000000
     52          4.415787        4.415559   1.000000   1.000000
     53          5.372878        5.372161   0.999693   0.999715
     54          5.403356        5.403033   0.994812   0.994947
     55          5.511362        5.511245   0.311416   0.312586
     56          5.581233        5.580380   0.006791   0.007263
     57          6.132979        6.132803   0.000000   0.000000
     58          6.366652        6.366569   0.000000   0.000000
     59          6.623301        6.623239   0.000000   0.000000
     60          6.708059        6.708022   0.000000   0.000000
     61          6.774966        6.774837   0.000000   0.000000
     62          6.906749        6.906544   0.000000   0.000000
     63          7.055677        7.055557   0.000000   0.000000
     64          7.162448        7.162426   0.000000   0.000000
     65          7.390132        7.389867   0.000000   0.000000
     66          7.468186        7.468069   0.000000   0.000000
     67          7.642626        7.642407   0.000000   0.000000
     68          7.759876        7.759718   0.000000   0.000000
     69          7.787115        7.787079   0.000000   0.000000
     70          7.942858        7.942341   0.000000   0.000000
 
  0.4000000E+00  0.4285714E+00 -0.2000000E+00  0.1142857E-01
      1        -33.836429      -33.836499   1.000000   1.000000
      2        -33.830332      -33.830350   1.000000   1.000000
      3        -33.823311      -33.823386   1.000000   1.000000
      4        -33.818138      -33.818151   1.000000   1.000000
      5        -20.425719      -20.425824   1.000000   1.000000
      6        -20.416747      -20.416840   1.000000   1.000000
      7        -20.323312      -20.323557   1.000000   1.000000
      8        -20.314900      -20.315135   1.000000   1.000000
      9        -18.830394      -18.830532   1.000000   1.000000
     10        -18.817042      -18.817196   1.000000   1.000000
     11        -18.720354      -18.720441   1.000000   1.000000
     12        -18.693919      -18.694011   1.000000   1.000000
     13        -15.158501      -15.158568   1.000000   1.000000
     14        -15.142569      -15.142664   1.000000   1.000000
     15        -15.015433      -15.015478   1.000000   1.000000
     16        -15.001625      -15.001645   1.000000   1.000000
     17        -14.993388      -14.993484   1.000000   1.000000
     18        -14.987407      -14.987435   1.000000   1.000000
     19        -14.959808      -14.959847   1.000000   1.000000
     20        -14.953397      -14.953485   1.000000   1.000000
     21        -14.699880      -14.699946   1.000000   1.000000
     22        -14.680272      -14.680355   1.000000   1.000000
     23        -14.669168      -14.669239   1.000000   1.000000
     24        -14.651620      -14.651697   1.000000   1.000000
     25         -6.570911       -6.571001   1.000000   1.000000
     26         -6.537147       -6.537485   1.000000   1.000000
     27         -6.457751       -6.457836   1.000000   1.000000
     28         -6.400610       -6.400947   1.000000   1.000000
     29         -5.104476       -5.104635   1.000000   1.000000
     30         -5.085170       -5.085225   1.000000   1.000000
     31         -4.961504       -4.961676   1.000000   1.000000
     32         -4.919225       -4.919285   1.000000   1.000000
     33         -4.686018       -4.686309   1.000000   1.000000
     34         -4.668997       -4.669120   1.000000   1.000000
     35         -4.552404       -4.552637   1.000000   1.000000
     36         -4.522636       -4.522784   1.000000   1.000000
     37         -4.106312       -4.106446   1.000000   1.000000
     38         -4.072507       -4.073112   1.000000   1.000000
     39         -4.041115       -4.041218   1.000000   1.000000
     40         -4.003941       -4.004575   1.000000   1.000000
     41         -1.623869       -1.623960   1.000000   1.000000
     42         -1.560143       -1.560298   1.000000   1.000000
     43         -1.447868       -1.447979   1.000000   1.000000
     44         -1.373862       -1.374129   1.000000   1.000000
     45         -1.299309       -1.299387   1.000000   1.000000
     46         -1.245650       -1.245783   1.000000   1.000000
     47         -1.105102       -1.105275   1.000000   1.000000
     48         -1.025339       -1.025436   1.000000   1.000000
     49          4.245822        4.245677   1.000000   1.000000
     50          4.302348        4.302080   1.000000   1.000000
     51          4.323591        4.323356   1.000000   1.000000
     52          4.415740        4.415606   1.000000   1.000000
     53          5.372823        5.372216   0.999694   0.999713
     54          5.403399        5.402990   0.994794   0.994964
     55          5.511385        5.511221   0.311184   0.312823
     56          5.581223        5.580391   0.006797   0.007257
     57          6.132976        6.132806   0.000000   0.000000
     58          6.366630        6.366591   0.000000   0.000000
     59          6.623317        6.623223   0.000000   0.000000
     60          6.708062        6.708019   0.000000   0.000000
     61          6.774953        6.774850   0.000000   0.000000
     62          6.906709        6.906584   0.000000   0.000000
     63          7.055706        7.055530   0.000000   0.000000
     64          7.162471        7.162402   0.000000   0.000000
     65          7.390144        7.389854   0.000000   0.000000
     66          7.468205        7.468051   0.000000   0.000000
     67          7.642613        7.642419   0.000000   0.000000
     68          7.759773        7.759822   0.000000   0.000000
     69          7.787198        7.786994   0.000000   0.000000
     70          7.942561        7.942391   0.000000   0.000000
 
 -0.2000000E+00  0.4285714E+00  0.2000000E+00  0.1142857E-01
      1        -33.838223      -33.838289   1.000000   1.000000
      2        -33.831066      -33.831088   1.000000   1.000000
      3        -33.821776      -33.821854   1.000000   1.000000
      4        -33.817145      -33.817155   1.000000   1.000000
      5        -20.419116      -20.419209   1.000000   1.000000
      6        -20.410390      -20.410495   1.000000   1.000000
      7        -20.317053      -20.317287   1.000000   1.000000
      8        -20.305800      -20.306046   1.000000   1.000000
      9        -18.855109      -18.855261   1.000000   1.000000
     10        -18.827146      -18.827286   1.000000   1.000000
     11        -18.743349      -18.743439   1.000000   1.000000
     12        -18.700596      -18.700687   1.000000   1.000000
     13        -15.114651      -15.114693   1.000000   1.000000
     14        -15.104650      -15.104769   1.000000   1.000000
     15        -15.030444      -15.030490   1.000000   1.000000
     16        -15.023270      -15.023291   1.000000   1.000000
     17        -14.986275      -14.986344   1.000000   1.000000
     18        -14.966158      -14.966253   1.000000   1.000000
     19        -14.945412      -14.945455   1.000000   1.000000
     20        -14.922957      -14.922994   1.000000   1.000000
     21        -14.715216      -14.715319   1.000000   1.000000
     22        -14.689960      -14.689992   1.000000   1.000000
     23        -14.682674      -14.682805   1.000000   1.000000
     24        -14.669447      -14.669483   1.000000   1.000000
     25         -6.724797       -6.724879   1.000000   1.000000
     26         -6.693795       -6.694125   1.000000   1.000000
     27         -6.502037       -6.502127   1.000000   1.000000
     28         -6.451975       -6.452325   1.000000   1.000000
     29         -4.915565       -4.915706   1.000000   1.000000
     30         -4.910970       -4.911062   1.000000   1.000000
     31         -4.864379       -4.864514   1.000000   1.000000
     32         -4.819808       -4.819857   1.000000   1.000000
     33         -4.649281       -4.649585   1.000000   1.000000
     34         -4.628378       -4.628507   1.000000   1.000000
     35         -4.559954       -4.560096   1.000000   1.000000
     36         -4.523270       -4.523499   1.000000   1.000000
     37         -4.124320       -4.124428   1.000000   1.000000
     38         -4.093354       -4.093942   1.000000   1.000000
     39         -3.975315       -3.975449   1.000000   1.000000
     40         -3.928425       -3.929093   1.000000   1.000000
     41         -1.652849       -1.652962   1.000000   1.000000
     42         -1.613933       -1.614169   1.000000   1.000000
     43         -1.537170       -1.537330   1.000000   1.000000
     44         -1.482472       -1.482586   1.000000   1.000000
     45         -1.414121       -1.414242   1.000000   1.000000
     46         -1.222457       -1.222564   1.000000   1.000000
     47         -1.191374       -1.191570   1.000000   1.000000
     48         -1.139793       -1.139864   1.000000   1.000000
     49          4.015886        4.015717   1.000000   1.000000
     50          4.177105        4.176929   1.000000   1.000000
     51          4.540256        4.540068   1.000000   1.000000
     52          4.558548        4.558303   1.000000   1.000000
     53          5.420016        5.419557   0.981772   0.982345
     54          5.473573        5.473148   0.718027   0.722073
     55          5.776683        5.776482   0.000000   0.000000
     56          5.827040        5.826711   0.000000   0.000000
     57          5.858287        5.857499   0.000000   0.000000
     58          6.087526        6.087427   0.000000   0.000000
     59          6.508729        6.508671   0.000000   0.000000
     60          6.616421        6.616398   0.000000   0.000000
     61          6.675484        6.675345   0.000000   0.000000
     62          6.829442        6.829325   0.000000   0.000000
     63          7.076068        7.075979   0.000000   0.000000
     64          7.171950        7.171914   0.000000   0.000000
     65          7.322609        7.322241   0.000000   0.000000
     66          7.449038        7.448962   0.000000   0.000000
     67          7.813037        7.812825   0.000000   0.000000
     68          7.903969        7.903937   0.000000   0.000000
     69          7.938424        7.938222   0.000000   0.000000
     70          8.089278        8.088408   0.000000   0.000000
 
  0.2000000E+00  0.4285714E+00 -0.2000000E+00  0.1142857E-01
      1        -33.838223      -33.838289   1.000000   1.000000
      2        -33.831066      -33.831087   1.000000   1.000000
      3        -33.821776      -33.821854   1.000000   1.000000
      4        -33.817145      -33.817155   1.000000   1.000000
      5        -20.419110      -20.419214   1.000000   1.000000
      6        -20.410396      -20.410489   1.000000   1.000000
      7        -20.317047      -20.317292   1.000000   1.000000
      8        -20.305805      -20.306041   1.000000   1.000000
      9        -18.855114      -18.855257   1.000000   1.000000
     10        -18.827141      -18.827290   1.000000   1.000000
     11        -18.743350      -18.743438   1.000000   1.000000
     12        -18.700596      -18.700687   1.000000   1.000000
     13        -15.114644      -15.114700   1.000000   1.000000
     14        -15.104656      -15.104763   1.000000   1.000000
     15        -15.030442      -15.030492   1.000000   1.000000
     16        -15.023272      -15.023289   1.000000   1.000000
     17        -14.986268      -14.986351   1.000000   1.000000
     18        -14.966163      -14.966247   1.000000   1.000000
     19        -14.945412      -14.945455   1.000000   1.000000
     20        -14.922958      -14.922993   1.000000   1.000000
     21        -14.715237      -14.715297   1.000000   1.000000
     22        -14.689927      -14.690028   1.000000   1.000000
     23        -14.682701      -14.682776   1.000000   1.000000
     24        -14.669433      -14.669497   1.000000   1.000000
     25         -6.724795       -6.724880   1.000000   1.000000
     26         -6.693793       -6.694126   1.000000   1.000000
     27         -6.502038       -6.502126   1.000000   1.000000
     28         -6.451978       -6.452323   1.000000   1.000000
     29         -4.915571       -4.915701   1.000000   1.000000
     30         -4.910982       -4.911052   1.000000   1.000000
     31         -4.864368       -4.864524   1.000000   1.000000
     32         -4.819798       -4.819866   1.000000   1.000000
     33         -4.649323       -4.649545   1.000000   1.000000
     34         -4.628343       -4.628542   1.000000   1.000000
     35         -4.559909       -4.560140   1.000000   1.000000
     36         -4.523313       -4.523458   1.000000   1.000000
     37         -4.124317       -4.124431   1.000000   1.000000
     38         -4.093345       -4.093951   1.000000   1.000000
     39         -3.975315       -3.975448   1.000000   1.000000
     40         -3.928435       -3.929082   1.000000   1.000000
     41         -1.652893       -1.652919   1.000000   1.000000
     42         -1.613930       -1.614172   1.000000   1.000000
     43         -1.537120       -1.537380   1.000000   1.000000
     44         -1.482471       -1.482587   1.000000   1.000000
     45         -1.414119       -1.414244   1.000000   1.000000
     46         -1.222466       -1.222554   1.000000   1.000000
     47         -1.191370       -1.191574   1.000000   1.000000
     48         -1.139801       -1.139857   1.000000   1.000000
     49          4.015881        4.015722   1.000000   1.000000
     50          4.177110        4.176924   1.000000   1.000000
     51          4.540270        4.540053   1.000000   1.000000
     52          4.558541        4.558311   1.000000   1.000000
     53          5.419955        5.419619   0.981849   0.982269
     54          5.473636        5.473084   0.717422   0.722677
     55          5.776671        5.776494   0.000000   0.000000
     56          5.827071        5.826679   0.000000   0.000000
     57          5.858251        5.857536   0.000000   0.000000
     58          6.087526        6.087426   0.000000   0.000000
     59          6.508745        6.508656   0.000000   0.000000
     60          6.616417        6.616402   0.000000   0.000000
     61          6.675470        6.675360   0.000000   0.000000
     62          6.829435        6.829331   0.000000   0.000000
     63          7.076074        7.075974   0.000000   0.000000
     64          7.171946        7.171918   0.000000   0.000000
     65          7.322628        7.322223   0.000000   0.000000
     66          7.449049        7.448951   0.000000   0.000000
     67          7.813066        7.812796   0.000000   0.000000
     68          7.903933        7.903973   0.000000   0.000000
     69          7.938334        7.938312   0.000000   0.000000
     70          8.089171        8.088358   0.000000   0.000000
 
  0.1183204E-17  0.0000000E+00  0.4000000E+00  0.1142857E-01
      1        -33.841878      -33.841931   1.000000   1.000000
      2        -33.832084      -33.832142   1.000000   1.000000
      3        -33.823543      -33.823583   1.000000   1.000000
      4        -33.821712      -33.821737   1.000000   1.000000
      5        -20.320730      -20.320833   1.000000   1.000000
      6        -20.313228      -20.313329   1.000000   1.000000
      7        -20.180283      -20.180516   1.000000   1.000000
      8        -20.170229      -20.170466   1.000000   1.000000
      9        -18.853768      -18.853902   1.000000   1.000000
     10        -18.823475      -18.823623   1.000000   1.000000
     11        -18.671573      -18.671662   1.000000   1.000000
     12        -18.588864      -18.588967   1.000000   1.000000
     13        -15.250721      -15.250807   1.000000   1.000000
     14        -15.207317      -15.207409   1.000000   1.000000
     15        -15.160847      -15.160923   1.000000   1.000000
     16        -15.133224      -15.133305   1.000000   1.000000
     17        -15.089197      -15.089249   1.000000   1.000000
     18        -15.052595      -15.052694   1.000000   1.000000
     19        -15.026206      -15.026312   1.000000   1.000000
     20        -14.988213      -14.988283   1.000000   1.000000
     21        -14.948721      -14.948768   1.000000   1.000000
     22        -14.940866      -14.940901   1.000000   1.000000
     23        -14.896501      -14.896523   1.000000   1.000000
     24        -14.817184      -14.817225   1.000000   1.000000
     25         -6.700350       -6.700507   1.000000   1.000000
     26         -6.620065       -6.620331   1.000000   1.000000
     27         -6.592910       -6.593075   1.000000   1.000000
     28         -6.519888       -6.520176   1.000000   1.000000
     29         -5.085253       -5.085403   1.000000   1.000000
     30         -5.071947       -5.072020   1.000000   1.000000
     31         -4.988089       -4.988248   1.000000   1.000000
     32         -4.942268       -4.942326   1.000000   1.000000
     33         -4.098899       -4.099174   1.000000   1.000000
     34         -4.039378       -4.039736   1.000000   1.000000
     35         -3.974383       -3.974793   1.000000   1.000000
     36         -3.881580       -3.882059   1.000000   1.000000
     37         -3.763509       -3.763671   1.000000   1.000000
     38         -3.628773       -3.628934   1.000000   1.000000
     39         -3.544513       -3.544680   1.000000   1.000000
     40         -3.399752       -3.399925   1.000000   1.000000
     41         -2.096236       -2.096317   1.000000   1.000000
     42         -1.870267       -1.870350   1.000000   1.000000
     43         -1.607332       -1.607530   1.000000   1.000000
     44         -1.480726       -1.480864   1.000000   1.000000
     45         -1.471226       -1.471382   1.000000   1.000000
     46         -1.216760       -1.216924   1.000000   1.000000
     47         -1.124382       -1.124481   1.000000   1.000000
     48         -1.114045       -1.114213   1.000000   1.000000
     49          4.414062        4.413770   1.000000   1.000000
     50          4.834989        4.834679   1.000000   1.000000
     51          4.930927        4.930642   1.000000   1.000000
     52          5.107259        5.106977   1.000000   1.000000
     53          5.293374        5.293106   1.000000   1.000000
     54          5.490556        5.490378   0.538493   0.540484
     55          5.527951        5.527737   0.168264   0.169786
     56          5.654824        5.654618   0.000003   0.000003
     57          5.825267        5.824990   0.000000   0.000000
     58          6.095436        6.095235   0.000000   0.000000
     59          6.178555        6.178090   0.000000   0.000000
     60          6.481646        6.481232   0.000000   0.000000
     61          6.588016        6.587444   0.000000   0.000000
     62          6.707616        6.707537   0.000000   0.000000
     63          6.866725        6.866436   0.000000   0.000000
     64          6.920311        6.920106   0.000000   0.000000
     65          7.028362        7.028082   0.000000   0.000000
     66          7.113692        7.113619   0.000000   0.000000
     67          7.310364        7.310164   0.000000   0.000000
     68          7.523225        7.523028   0.000000   0.000000
     69          8.110875        8.110767   0.000000   0.000000
     70          8.267131        8.267009   0.000000   0.000000
 
  0.2000000E+00  0.0000000E+00  0.4000000E+00  0.1142857E-01
      1        -33.837073      -33.837139   1.000000   1.000000
      2        -33.834955      -33.835002   1.000000   1.000000
      3        -33.828385      -33.828413   1.000000   1.000000
      4        -33.818804      -33.818837   1.000000   1.000000
      5        -20.324735      -20.324838   1.000000   1.000000
      6        -20.316759      -20.316861   1.000000   1.000000
      7        -20.185493      -20.185726   1.000000   1.000000
      8        -20.174742      -20.174979   1.000000   1.000000
      9        -18.839211      -18.839345   1.000000   1.000000
     10        -18.808771      -18.808919   1.000000   1.000000
     11        -18.661278      -18.661367   1.000000   1.000000
     12        -18.592538      -18.592641   1.000000   1.000000
     13        -15.235469      -15.235556   1.000000   1.000000
     14        -15.207555      -15.207650   1.000000   1.000000
     15        -15.176360      -15.176431   1.000000   1.000000
     16        -15.133320      -15.133401   1.000000   1.000000
     17        -15.119293      -15.119357   1.000000   1.000000
     18        -15.060441      -15.060541   1.000000   1.000000
     19        -15.009391      -15.009486   1.000000   1.000000
     20        -14.990028      -14.990097   1.000000   1.000000
     21        -14.960979      -14.961019   1.000000   1.000000
     22        -14.919105      -14.919153   1.000000   1.000000
     23        -14.888995      -14.889004   1.000000   1.000000
     24        -14.846746      -14.846796   1.000000   1.000000
     25         -6.618987       -6.619140   1.000000   1.000000
     26         -6.553738       -6.553937   1.000000   1.000000
     27         -6.520673       -6.520892   1.000000   1.000000
     28         -6.477333       -6.477643   1.000000   1.000000
     29         -5.226098       -5.226248   1.000000   1.000000
     30         -5.202679       -5.202733   1.000000   1.000000
     31         -4.986362       -4.986524   1.000000   1.000000
     32         -4.945359       -4.945417   1.000000   1.000000
     33         -4.161825       -4.162110   1.000000   1.000000
     34         -4.053072       -4.053491   1.000000   1.000000
     35         -4.036594       -4.036900   1.000000   1.000000
     36         -3.953784       -3.954303   1.000000   1.000000
     37         -3.753665       -3.753827   1.000000   1.000000
     38         -3.638577       -3.638738   1.000000   1.000000
     39         -3.559469       -3.559634   1.000000   1.000000
     40         -3.424927       -3.425099   1.000000   1.000000
     41         -2.033717       -2.033796   1.000000   1.000000
     42         -1.774378       -1.774459   1.000000   1.000000
     43         -1.511515       -1.511620   1.000000   1.000000
     44         -1.485003       -1.485193   1.000000   1.000000
     45         -1.343090       -1.343295   1.000000   1.000000
     46         -1.186156       -1.186254   1.000000   1.000000
     47         -1.156554       -1.156715   1.000000   1.000000
     48         -1.074308       -1.074472   1.000000   1.000000
     49          4.576158        4.575777   1.000000   1.000000
     50          4.758180        4.757914   1.000000   1.000000
     51          4.844669        4.844355   1.000000   1.000000
     52          4.919316        4.919103   1.000000   1.000000
     53          5.163429        5.163136   1.000000   1.000000
     54          5.453348        5.453098   0.874732   0.876179
     55          5.614996        5.614765   0.000310   0.000317
     56          5.876810        5.876626   0.000000   0.000000
     57          5.977652        5.977207   0.000000   0.000000
     58          6.057095        6.056767   0.000000   0.000000
     59          6.273497        6.273270   0.000000   0.000000
     60          6.433039        6.432592   0.000000   0.000000
     61          6.474439        6.474172   0.000000   0.000000
     62          6.632779        6.632724   0.000000   0.000000
     63          6.740206        6.739963   0.000000   0.000000
     64          6.822901        6.822698   0.000000   0.000000
     65          6.996925        6.996894   0.000000   0.000000
     66          7.017717        7.017229   0.000000   0.000000
     67          7.506608        7.506390   0.000000   0.000000
     68          7.700360        7.700127   0.000000   0.000000
     69          8.115666        8.115562   0.000000   0.000000
     70          8.195870        8.196022   0.000000   0.000000
 
  0.4000000E+00  0.0000000E+00  0.4000000E+00  0.1142857E-01
      1        -33.838531      -33.838607   1.000000   1.000000
      2        -33.833754      -33.833767   1.000000   1.000000
      3        -33.828678      -33.828736   1.000000   1.000000
      4        -33.818233      -33.818262   1.000000   1.000000
      5        -20.331152      -20.331253   1.000000   1.000000
      6        -20.323130      -20.323233   1.000000   1.000000
      7        -20.194262      -20.194496   1.000000   1.000000
      8        -20.182763      -20.182999   1.000000   1.000000
      9        -18.807327      -18.807465   1.000000   1.000000
     10        -18.789932      -18.790076   1.000000   1.000000
     11        -18.636056      -18.636148   1.000000   1.000000
     12        -18.608154      -18.608251   1.000000   1.000000
     13        -15.209445      -15.209534   1.000000   1.000000
     14        -15.204492      -15.204605   1.000000   1.000000
     15        -15.192065      -15.192119   1.000000   1.000000
     16        -15.148505      -15.148588   1.000000   1.000000
     17        -15.142186      -15.142242   1.000000   1.000000
     18        -15.101765      -15.101875   1.000000   1.000000
     19        -14.988313      -14.988365   1.000000   1.000000
     20        -14.985651      -14.985740   1.000000   1.000000
     21        -14.963833      -14.963892   1.000000   1.000000
     22        -14.919975      -14.920015   1.000000   1.000000
     23        -14.880125      -14.880117   1.000000   1.000000
     24        -14.865854      -14.865931   1.000000   1.000000
     25         -6.485688       -6.485813   1.000000   1.000000
     26         -6.456972       -6.457124   1.000000   1.000000
     27         -6.419755       -6.420008   1.000000   1.000000
     28         -6.392558       -6.392909   1.000000   1.000000
     29         -5.386403       -5.386547   1.000000   1.000000
     30         -5.351250       -5.351300   1.000000   1.000000
     31         -5.034191       -5.034349   1.000000   1.000000
     32         -4.992130       -4.992187   1.000000   1.000000
     33         -4.259400       -4.259639   1.000000   1.000000
     34         -4.186736       -4.187264   1.000000   1.000000
     35         -4.073858       -4.073980   1.000000   1.000000
     36         -4.031032       -4.031670   1.000000   1.000000
     37         -3.723929       -3.724091   1.000000   1.000000
     38         -3.679379       -3.679540   1.000000   1.000000
     39         -3.551720       -3.551884   1.000000   1.000000
     40         -3.485602       -3.485771   1.000000   1.000000
     41         -1.859983       -1.860060   1.000000   1.000000
     42         -1.649025       -1.649090   1.000000   1.000000
     43         -1.544139       -1.544260   1.000000   1.000000
     44         -1.351005       -1.351101   1.000000   1.000000
     45         -1.269006       -1.269207   1.000000   1.000000
     46         -1.122954       -1.123257   1.000000   1.000000
     47         -1.092508       -1.092588   1.000000   1.000000
     48         -1.035632       -1.035779   1.000000   1.000000
     49          4.548548        4.548299   1.000000   1.000000
     50          4.737042        4.736529   1.000000   1.000000
     51          4.783662        4.783510   1.000000   1.000000
     52          4.859267        4.859018   1.000000   1.000000
     53          5.236572        5.236351   1.000000   1.000000
     54          5.375887        5.375469   0.999581   0.999599
     55          5.681172        5.680550   0.000000   0.000000
     56          5.731661        5.731329   0.000000   0.000000
     57          6.117333        6.117049   0.000000   0.000000
     58          6.193338        6.193056   0.000000   0.000000
     59          6.250014        6.249891   0.000000   0.000000
     60          6.285484        6.285232   0.000000   0.000000
     61          6.431678        6.431564   0.000000   0.000000
     62          6.482149        6.481944   0.000000   0.000000
     63          6.593956        6.593791   0.000000   0.000000
     64          6.731736        6.731524   0.000000   0.000000
     65          7.130918        7.130673   0.000000   0.000000
     66          7.175639        7.175441   0.000000   0.000000
     67          7.730562        7.730317   0.000000   0.000000
     68          7.797777        7.797539   0.000000   0.000000
     69          7.891452        7.891413   0.000000   0.000000
     70          8.018152        8.019803   0.000000   0.000000
 
 -0.4000000E+00  0.0000000E+00  0.4000000E+00  0.1142857E-01
      1        -33.842602      -33.842661   1.000000   1.000000
      2        -33.832100      -33.832129   1.000000   1.000000
      3        -33.824670      -33.824746   1.000000   1.000000
      4        -33.819810      -33.819821   1.000000   1.000000
      5        -20.331185      -20.331286   1.000000   1.000000
      6        -20.323590      -20.323692   1.000000   1.000000
      7        -20.194687      -20.194921   1.000000   1.000000
      8        -20.183165      -20.183402   1.000000   1.000000
      9        -18.802309      -18.802447   1.000000   1.000000
     10        -18.792643      -18.792787   1.000000   1.000000
     11        -18.639023      -18.639115   1.000000   1.000000
     12        -18.606154      -18.606251   1.000000   1.000000
     13        -15.231381      -15.231471   1.000000   1.000000
     14        -15.182109      -15.182217   1.000000   1.000000
     15        -15.170776      -15.170852   1.000000   1.000000
     16        -15.169815      -15.169878   1.000000   1.000000
     17        -15.134590      -15.134629   1.000000   1.000000
     18        -15.113996      -15.114125   1.000000   1.000000
     19        -14.997441      -14.997516   1.000000   1.000000
     20        -14.973023      -14.973076   1.000000   1.000000
     21        -14.952047      -14.952122   1.000000   1.000000
     22        -14.948724      -14.948757   1.000000   1.000000
     23        -14.891045      -14.891073   1.000000   1.000000
     24        -14.834914      -14.834959   1.000000   1.000000
     25         -6.503787       -6.503895   1.000000   1.000000
     26         -6.461298       -6.461554   1.000000   1.000000
     27         -6.447270       -6.447447   1.000000   1.000000
     28         -6.397786       -6.398117   1.000000   1.000000
     29         -5.344282       -5.344427   1.000000   1.000000
     30         -5.306917       -5.306978   1.000000   1.000000
     31         -5.034439       -5.034595   1.000000   1.000000
     32         -4.992374       -4.992432   1.000000   1.000000
     33         -4.259649       -4.259735   1.000000   1.000000
     34         -4.225524       -4.226197   1.000000   1.000000
     35         -4.072745       -4.072882   1.000000   1.000000
     36         -4.028371       -4.028999   1.000000   1.000000
     37         -3.726536       -3.726697   1.000000   1.000000
     38         -3.676633       -3.676796   1.000000   1.000000
     39         -3.537109       -3.537274   1.000000   1.000000
     40         -3.502273       -3.502439   1.000000   1.000000
     41         -1.821153       -1.821238   1.000000   1.000000
     42         -1.680929       -1.680986   1.000000   1.000000
     43         -1.569745       -1.569862   1.000000   1.000000
     44         -1.332514       -1.332614   1.000000   1.000000
     45         -1.226894       -1.227104   1.000000   1.000000
     46         -1.172930       -1.173223   1.000000   1.000000
     47         -1.126477       -1.126544   1.000000   1.000000
     48         -0.993999       -0.994166   1.000000   1.000000
     49          4.570505        4.570201   1.000000   1.000000
     50          4.674100        4.673881   1.000000   1.000000
     51          4.726392        4.726158   1.000000   1.000000
     52          4.893648        4.893380   1.000000   1.000000
     53          5.351602        5.351174   0.999972   0.999973
     54          5.374195        5.373862   0.999648   0.999660
     55          5.638143        5.637411   0.000023   0.000025
     56          5.690407        5.690096   0.000000   0.000000
     57          6.041568        6.041435   0.000000   0.000000
     58          6.207553        6.207232   0.000000   0.000000
     59          6.248743        6.248570   0.000000   0.000000
     60          6.260151        6.259846   0.000000   0.000000
     61          6.342410        6.342337   0.000000   0.000000
     62          6.484359        6.484120   0.000000   0.000000
     63          6.568451        6.568250   0.000000   0.000000
     64          6.953422        6.953239   0.000000   0.000000
     65          7.234123        7.233699   0.000000   0.000000
     66          7.263959        7.264004   0.000000   0.000000
     67          7.698107        7.697871   0.000000   0.000000
     68          7.725131        7.724913   0.000000   0.000000
     69          7.809523        7.809430   0.000000   0.000000
     70          8.132174        8.132922   0.000000   0.000000
 
 -0.2000000E+00  0.0000000E+00  0.4000000E+00  0.1142857E-01
      1        -33.844210      -33.844264   1.000000   1.000000
      2        -33.828843      -33.828886   1.000000   1.000000
      3        -33.825713      -33.825774   1.000000   1.000000
      4        -33.820428      -33.820446   1.000000   1.000000
      5        -20.324733      -20.324836   1.000000   1.000000
      6        -20.317434      -20.317536   1.000000   1.000000
      7        -20.186179      -20.186413   1.000000   1.000000
      8        -20.175347      -20.175584   1.000000   1.000000
      9        -18.834472      -18.834607   1.000000   1.000000
     10        -18.809980      -18.810128   1.000000   1.000000
     11        -18.663217      -18.663306   1.000000   1.000000
     12        -18.591570      -18.591672   1.000000   1.000000
     13        -15.249168      -15.249255   1.000000   1.000000
     14        -15.193453      -15.193548   1.000000   1.000000
     15        -15.162519      -15.162592   1.000000   1.000000
     16        -15.147716      -15.147797   1.000000   1.000000
     17        -15.108799      -15.108849   1.000000   1.000000
     18        -15.081058      -15.081174   1.000000   1.000000
     19        -15.020380      -15.020459   1.000000   1.000000
     20        -14.968092      -14.968136   1.000000   1.000000
     21        -14.959838      -14.959915   1.000000   1.000000
     22        -14.935043      -14.935084   1.000000   1.000000
     23        -14.905292      -14.905316   1.000000   1.000000
     24        -14.812430      -14.812471   1.000000   1.000000
     25         -6.647656       -6.647799   1.000000   1.000000
     26         -6.581846       -6.582135   1.000000   1.000000
     27         -6.539114       -6.539257   1.000000   1.000000
     28         -6.470238       -6.470532   1.000000   1.000000
     29         -5.157992       -5.158140   1.000000   1.000000
     30         -5.134138       -5.134210   1.000000   1.000000
     31         -4.998159       -4.998315   1.000000   1.000000
     32         -4.953127       -4.953187   1.000000   1.000000
     33         -4.188260       -4.188522   1.000000   1.000000
     34         -4.100733       -4.101235   1.000000   1.000000
     35         -4.035591       -4.035838   1.000000   1.000000
     36         -3.936758       -3.937268   1.000000   1.000000
     37         -3.755030       -3.755192   1.000000   1.000000
     38         -3.636338       -3.636500   1.000000   1.000000
     39         -3.552177       -3.552343   1.000000   1.000000
     40         -3.436384       -3.436554   1.000000   1.000000
     41         -2.004875       -2.004959   1.000000   1.000000
     42         -1.795598       -1.795676   1.000000   1.000000
     43         -1.526878       -1.526977   1.000000   1.000000
     44         -1.467963       -1.468168   1.000000   1.000000
     45         -1.356753       -1.356962   1.000000   1.000000
     46         -1.186194       -1.186331   1.000000   1.000000
     47         -1.173633       -1.173744   1.000000   1.000000
     48         -1.052779       -1.052953   1.000000   1.000000
     49          4.354227        4.353954   1.000000   1.000000
     50          4.816049        4.815804   1.000000   1.000000
     51          4.847553        4.847294   1.000000   1.000000
     52          5.057168        5.056918   1.000000   1.000000
     53          5.229405        5.229134   1.000000   1.000000
     54          5.505700        5.505254   0.370053   0.374829
     55          5.725291        5.725002   0.000000   0.000000
     56          5.842154        5.841913   0.000000   0.000000
     57          5.877900        5.877735   0.000000   0.000000
     58          5.994053        5.993561   0.000000   0.000000
     59          6.197043        6.196661   0.000000   0.000000
     60          6.309356        6.309096   0.000000   0.000000
     61          6.424322        6.424227   0.000000   0.000000
     62          6.474385        6.474004   0.000000   0.000000
     63          6.698923        6.698654   0.000000   0.000000
     64          7.086998        7.086764   0.000000   0.000000
     65          7.217074        7.216834   0.000000   0.000000
     66          7.306562        7.306480   0.000000   0.000000
     67          7.475378        7.475151   0.000000   0.000000
     68          7.564081        7.563882   0.000000   0.000000
     69          7.919945        7.919842   0.000000   0.000000
     70          8.202894        8.202861   0.000000   0.000000
 
  0.1183204E-17  0.1428571E+00  0.4000000E+00  0.1142857E-01
      1        -33.840506      -33.840559   1.000000   1.000000
      2        -33.831325      -33.831383   1.000000   1.000000
      3        -33.823506      -33.823551   1.000000   1.000000
      4        -33.821703      -33.821723   1.000000   1.000000
      5        -20.341924      -20.342020   1.000000   1.000000
      6        -20.334642      -20.334749   1.000000   1.000000
      7        -20.210083      -20.210312   1.000000   1.000000
      8        -20.199677      -20.199919   1.000000   1.000000
      9        -18.849702      -18.849839   1.000000   1.000000
     10        -18.826345      -18.826490   1.000000   1.000000
     11        -18.681639      -18.681729   1.000000   1.000000
     12        -18.607162      -18.607264   1.000000   1.000000
     13        -15.185112      -15.185178   1.000000   1.000000
     14        -15.155078      -15.155184   1.000000   1.000000
     15        -15.115330      -15.115376   1.000000   1.000000
     16        -15.092232      -15.092342   1.000000   1.000000
     17        -15.060238      -15.060309   1.000000   1.000000
     18        -15.014050      -15.014133   1.000000   1.000000
     19        -14.996612      -14.996713   1.000000   1.000000
     20        -14.962752      -14.962809   1.000000   1.000000
     21        -14.944818      -14.944865   1.000000   1.000000
     22        -14.936581      -14.936632   1.000000   1.000000
     23        -14.906815      -14.906837   1.000000   1.000000
     24        -14.829538      -14.829579   1.000000   1.000000
     25         -6.677786       -6.677931   1.000000   1.000000
     26         -6.608173       -6.608449   1.000000   1.000000
     27         -6.571828       -6.571979   1.000000   1.000000
     28         -6.505824       -6.506125   1.000000   1.000000
     29         -5.083688       -5.083842   1.000000   1.000000
     30         -5.070604       -5.070676   1.000000   1.000000
     31         -4.988226       -4.988384   1.000000   1.000000
     32         -4.942107       -4.942164   1.000000   1.000000
     33         -4.145901       -4.146225   1.000000   1.000000
     34         -4.100469       -4.100742   1.000000   1.000000
     35         -4.021061       -4.021428   1.000000   1.000000
     36         -3.951879       -3.952286   1.000000   1.000000
     37         -3.865729       -3.865938   1.000000   1.000000
     38         -3.766513       -3.766771   1.000000   1.000000
     39         -3.712922       -3.713091   1.000000   1.000000
     40         -3.608940       -3.609135   1.000000   1.000000
     41         -2.003293       -2.003375   1.000000   1.000000
     42         -1.811519       -1.811610   1.000000   1.000000
     43         -1.578855       -1.579047   1.000000   1.000000
     44         -1.463671       -1.463826   1.000000   1.000000
     45         -1.445363       -1.445514   1.000000   1.000000
     46         -1.235858       -1.235952   1.000000   1.000000
     47         -1.157483       -1.157707   1.000000   1.000000
     48         -1.071728       -1.071826   1.000000   1.000000
     49          4.605157        4.604743   1.000000   1.000000
     50          4.635283        4.635093   1.000000   1.000000
     51          4.850373        4.850124   1.000000   1.000000
     52          4.890394        4.890194   1.000000   1.000000
     53          5.000676        5.000485   1.000000   1.000000
     54          5.292651        5.292326   1.000000   1.000000
     55          5.565720        5.565398   0.021212   0.021681
     56          5.745381        5.745087   0.000000   0.000000
     57          6.134051        6.133728   0.000000   0.000000
     58          6.241078        6.240501   0.000000   0.000000
     59          6.425696        6.425430   0.000000   0.000000
     60          6.558919        6.558797   0.000000   0.000000
     61          6.601784        6.601550   0.000000   0.000000
     62          6.704332        6.703990   0.000000   0.000000
     63          6.758270        6.758062   0.000000   0.000000
     64          6.907378        6.907406   0.000000   0.000000
     65          7.153854        7.153633   0.000000   0.000000
     66          7.344844        7.344692   0.000000   0.000000
     67          7.540942        7.540661   0.000000   0.000000
     68          7.624035        7.623706   0.000000   0.000000
     69          8.031917        8.031266   0.000000   0.000000
     70          8.041324        8.039711   0.000000   0.000000
 
 -0.1183204E-17  0.1428571E+00 -0.4000000E+00  0.1142857E-01
      1        -33.840506      -33.840559   1.000000   1.000000
      2        -33.831325      -33.831383   1.000000   1.000000
      3        -33.823506      -33.823550   1.000000   1.000000
      4        -33.821703      -33.821723   1.000000   1.000000
      5        -20.341917      -20.342027   1.000000   1.000000
      6        -20.334648      -20.334742   1.000000   1.000000
      7        -20.210079      -20.210316   1.000000   1.000000
      8        -20.199681      -20.199915   1.000000   1.000000
      9        -18.849705      -18.849836   1.000000   1.000000
     10        -18.826342      -18.826493   1.000000   1.000000
     11        -18.681640      -18.681728   1.000000   1.000000
     12        -18.607161      -18.607265   1.000000   1.000000
     13        -15.185094      -15.185197   1.000000   1.000000
     14        -15.155100      -15.155161   1.000000   1.000000
     15        -15.115300      -15.115408   1.000000   1.000000
     16        -15.092266      -15.092306   1.000000   1.000000
     17        -15.060236      -15.060311   1.000000   1.000000
     18        -15.014041      -15.014142   1.000000   1.000000
     19        -14.996622      -14.996703   1.000000   1.000000
     20        -14.962745      -14.962816   1.000000   1.000000
     21        -14.944831      -14.944852   1.000000   1.000000
     22        -14.936568      -14.936645   1.000000   1.000000
     23        -14.906817      -14.906834   1.000000   1.000000
     24        -14.829535      -14.829582   1.000000   1.000000
     25         -6.677784       -6.677932   1.000000   1.000000
     26         -6.608169       -6.608453   1.000000   1.000000
     27         -6.571829       -6.571978   1.000000   1.000000
     28         -6.505828       -6.506122   1.000000   1.000000
     29         -5.083689       -5.083841   1.000000   1.000000
     30         -5.070605       -5.070674   1.000000   1.000000
     31         -4.988224       -4.988386   1.000000   1.000000
     32         -4.942106       -4.942165   1.000000   1.000000
     33         -4.145940       -4.146186   1.000000   1.000000
     34         -4.100432       -4.100779   1.000000   1.000000
     35         -4.021048       -4.021441   1.000000   1.000000
     36         -3.951894       -3.952270   1.000000   1.000000
     37         -3.865716       -3.865950   1.000000   1.000000
     38         -3.766522       -3.766761   1.000000   1.000000
     39         -3.712922       -3.713091   1.000000   1.000000
     40         -3.608941       -3.609135   1.000000   1.000000
     41         -2.003291       -2.003377   1.000000   1.000000
     42         -1.811524       -1.811604   1.000000   1.000000
     43         -1.578851       -1.579051   1.000000   1.000000
     44         -1.463640       -1.463857   1.000000   1.000000
     45         -1.445399       -1.445478   1.000000   1.000000
     46         -1.235797       -1.236012   1.000000   1.000000
     47         -1.157567       -1.157624   1.000000   1.000000
     48         -1.071697       -1.071856   1.000000   1.000000
     49          4.605126        4.604774   1.000000   1.000000
     50          4.635300        4.635075   1.000000   1.000000
     51          4.850348        4.850149   1.000000   1.000000
     52          4.890440        4.890146   1.000000   1.000000
     53          5.000778        5.000384   1.000000   1.000000
     54          5.292486        5.292490   1.000000   1.000000
     55          5.565738        5.565380   0.021187   0.021707
     56          5.745452        5.745016   0.000000   0.000000
     57          6.134079        6.133700   0.000000   0.000000
     58          6.240969        6.240610   0.000000   0.000000
     59          6.425619        6.425507   0.000000   0.000000
     60          6.558947        6.558771   0.000000   0.000000
     61          6.601786        6.601547   0.000000   0.000000
     62          6.704303        6.704015   0.000000   0.000000
     63          6.758224        6.758109   0.000000   0.000000
     64          6.907648        6.907138   0.000000   0.000000
     65          7.153775        7.153712   0.000000   0.000000
     66          7.344827        7.344709   0.000000   0.000000
     67          7.540985        7.540617   0.000000   0.000000
     68          7.623982        7.623760   0.000000   0.000000
     69          8.031442        8.031251   0.000000   0.000000
     70          8.040674        8.039625   0.000000   0.000000
 
  0.2000000E+00  0.1428571E+00  0.4000000E+00  0.1142857E-01
      1        -33.836137      -33.836208   1.000000   1.000000
      2        -33.833998      -33.834041   1.000000   1.000000
      3        -33.827936      -33.827965   1.000000   1.000000
      4        -33.818969      -33.819002   1.000000   1.000000
      5        -20.346015      -20.346110   1.000000   1.000000
      6        -20.338234      -20.338343   1.000000   1.000000
      7        -20.215187      -20.215419   1.000000   1.000000
      8        -20.204311      -20.204549   1.000000   1.000000
      9        -18.835553      -18.835685   1.000000   1.000000
     10        -18.811570      -18.811719   1.000000   1.000000
     11        -18.671297      -18.671389   1.000000   1.000000
     12        -18.609431      -18.609530   1.000000   1.000000
     13        -15.206985      -15.207050   1.000000   1.000000
     14        -15.138428      -15.138544   1.000000   1.000000
     15        -15.130216      -15.130311   1.000000   1.000000
     16        -15.109491      -15.109542   1.000000   1.000000
     17        -15.057715      -15.057801   1.000000   1.000000
     18        -15.007588      -15.007637   1.000000   1.000000
     19        -14.991472      -14.991589   1.000000   1.000000
     20        -14.968583      -14.968639   1.000000   1.000000
     21        -14.955300      -14.955360   1.000000   1.000000
     22        -14.916303      -14.916353   1.000000   1.000000
     23        -14.897238      -14.897242   1.000000   1.000000
     24        -14.856169      -14.856225   1.000000   1.000000
     25         -6.596681       -6.596820   1.000000   1.000000
     26         -6.535934       -6.536156   1.000000   1.000000
     27         -6.506237       -6.506438   1.000000   1.000000
     28         -6.462279       -6.462595   1.000000   1.000000
     29         -5.225488       -5.225638   1.000000   1.000000
     30         -5.201625       -5.201678   1.000000   1.000000
     31         -4.985358       -4.985520   1.000000   1.000000
     32         -4.944332       -4.944391   1.000000   1.000000
     33         -4.222626       -4.222852   1.000000   1.000000
     34         -4.122649       -4.123149   1.000000   1.000000
     35         -4.082798       -4.083074   1.000000   1.000000
     36         -3.993216       -3.993655   1.000000   1.000000
     37         -3.861026       -3.861218   1.000000   1.000000
     38         -3.786647       -3.786850   1.000000   1.000000
     39         -3.729597       -3.729769   1.000000   1.000000
     40         -3.608425       -3.608623   1.000000   1.000000
     41         -1.949567       -1.949641   1.000000   1.000000
     42         -1.731365       -1.731452   1.000000   1.000000
     43         -1.480686       -1.480792   1.000000   1.000000
     44         -1.449006       -1.449188   1.000000   1.000000
     45         -1.333659       -1.333879   1.000000   1.000000
     46         -1.244621       -1.244740   1.000000   1.000000
     47         -1.147357       -1.147544   1.000000   1.000000
     48         -1.030781       -1.030891   1.000000   1.000000
     49          4.549084        4.548658   1.000000   1.000000
     50          4.611902        4.611708   1.000000   1.000000
     51          4.776722        4.776697   1.000000   1.000000
     52          4.803331        4.802940   1.000000   1.000000
     53          5.105606        5.105344   1.000000   1.000000
     54          5.431356        5.430860   0.961725   0.962877
     55          5.518608        5.518271   0.242967   0.245954
     56          5.773408        5.773091   0.000000   0.000000
     57          6.114414        6.113986   0.000000   0.000000
     58          6.292588        6.292268   0.000000   0.000000
     59          6.391830        6.391787   0.000000   0.000000
     60          6.498972        6.498734   0.000000   0.000000
     61          6.581952        6.581676   0.000000   0.000000
     62          6.716726        6.716482   0.000000   0.000000
     63          6.863455        6.863346   0.000000   0.000000
     64          6.931354        6.931216   0.000000   0.000000
     65          6.964324        6.964338   0.000000   0.000000
     66          7.189597        7.189162   0.000000   0.000000
     67          7.578222        7.578016   0.000000   0.000000
     68          7.799675        7.799373   0.000000   0.000000
     69          7.895017        7.894913   0.000000   0.000000
     70          7.919033        7.918949   0.000000   0.000000
 
 -0.2000000E+00  0.1428571E+00 -0.4000000E+00  0.1142857E-01
      1        -33.836138      -33.836207   1.000000   1.000000
      2        -33.833997      -33.834042   1.000000   1.000000
      3        -33.827936      -33.827965   1.000000   1.000000
      4        -33.818970      -33.819002   1.000000   1.000000
      5        -20.346008      -20.346117   1.000000   1.000000
      6        -20.338242      -20.338336   1.000000   1.000000
      7        -20.215185      -20.215421   1.000000   1.000000
      8        -20.204312      -20.204548   1.000000   1.000000
      9        -18.835550      -18.835688   1.000000   1.000000
     10        -18.811572      -18.811717   1.000000   1.000000
     11        -18.671300      -18.671386   1.000000   1.000000
     12        -18.609428      -18.609532   1.000000   1.000000
     13        -15.206967      -15.207069   1.000000   1.000000
     14        -15.138455      -15.138515   1.000000   1.000000
     15        -15.130234      -15.130293   1.000000   1.000000
     16        -15.109469      -15.109564   1.000000   1.000000
     17        -15.057719      -15.057797   1.000000   1.000000
     18        -15.007566      -15.007659   1.000000   1.000000
     19        -14.991480      -14.991580   1.000000   1.000000
     20        -14.968591      -14.968630   1.000000   1.000000
     21        -14.955298      -14.955361   1.000000   1.000000
     22        -14.916298      -14.916359   1.000000   1.000000
     23        -14.897240      -14.897240   1.000000   1.000000
     24        -14.856170      -14.856224   1.000000   1.000000
     25         -6.596678       -6.596822   1.000000   1.000000
     26         -6.535936       -6.536153   1.000000   1.000000
     27         -6.506241       -6.506435   1.000000   1.000000
     28         -6.462275       -6.462599   1.000000   1.000000
     29         -5.225487       -5.225639   1.000000   1.000000
     30         -5.201624       -5.201678   1.000000   1.000000
     31         -4.985358       -4.985520   1.000000   1.000000
     32         -4.944333       -4.944390   1.000000   1.000000
     33         -4.222571       -4.222907   1.000000   1.000000
     34         -4.122716       -4.123082   1.000000   1.000000
     35         -4.082858       -4.083014   1.000000   1.000000
     36         -3.993158       -3.993714   1.000000   1.000000
     37         -3.861018       -3.861226   1.000000   1.000000
     38         -3.786646       -3.786851   1.000000   1.000000
     39         -3.729596       -3.729771   1.000000   1.000000
     40         -3.608423       -3.608625   1.000000   1.000000
     41         -1.949558       -1.949650   1.000000   1.000000
     42         -1.731369       -1.731448   1.000000   1.000000
     43         -1.480689       -1.480790   1.000000   1.000000
     44         -1.448993       -1.449201   1.000000   1.000000
     45         -1.333672       -1.333866   1.000000   1.000000
     46         -1.244620       -1.244740   1.000000   1.000000
     47         -1.147396       -1.147505   1.000000   1.000000
     48         -1.030744       -1.030928   1.000000   1.000000
     49          4.548926        4.548815   1.000000   1.000000
     50          4.612009        4.611600   1.000000   1.000000
     51          4.777030        4.776389   1.000000   1.000000
     52          4.803196        4.803076   1.000000   1.000000
     53          5.105559        5.105390   1.000000   1.000000
     54          5.431286        5.430930   0.961889   0.962717
     55          5.518435        5.518444   0.244495   0.244418
     56          5.773545        5.772955   0.000000   0.000000
     57          6.114496        6.113904   0.000000   0.000000
     58          6.292464        6.292392   0.000000   0.000000
     59          6.391881        6.391736   0.000000   0.000000
     60          6.498909        6.498796   0.000000   0.000000
     61          6.581802        6.581827   0.000000   0.000000
     62          6.716783        6.716424   0.000000   0.000000
     63          6.863503        6.863295   0.000000   0.000000
     64          6.931401        6.931173   0.000000   0.000000
     65          6.964587        6.964075   0.000000   0.000000
     66          7.189461        7.189296   0.000000   0.000000
     67          7.578232        7.578006   0.000000   0.000000
     68          7.799643        7.799404   0.000000   0.000000
     69          7.895003        7.894928   0.000000   0.000000
     70          7.919015        7.918969   0.000000   0.000000
 
  0.4000000E+00  0.1428571E+00  0.4000000E+00  0.1142857E-01
      1        -33.837946      -33.838023   1.000000   1.000000
      2        -33.833227      -33.833239   1.000000   1.000000
      3        -33.827730      -33.827789   1.000000   1.000000
      4        -33.818111      -33.818139   1.000000   1.000000
      5        -20.352691      -20.352785   1.000000   1.000000
      6        -20.344646      -20.344756   1.000000   1.000000
      7        -20.223833      -20.224065   1.000000   1.000000
      8        -20.212444      -20.212683   1.000000   1.000000
      9        -18.805625      -18.805761   1.000000   1.000000
     10        -18.791527      -18.791672   1.000000   1.000000
     11        -18.647195      -18.647293   1.000000   1.000000
     12        -18.621707      -18.621798   1.000000   1.000000
     13        -15.221716      -15.221777   1.000000   1.000000
     14        -15.178218      -15.178329   1.000000   1.000000
     15        -15.129136      -15.129229   1.000000   1.000000
     16        -15.120956      -15.121020   1.000000   1.000000
     17        -15.038559      -15.038657   1.000000   1.000000
     18        -15.004013      -15.004039   1.000000   1.000000
     19        -14.985592      -14.985708   1.000000   1.000000
     20        -14.972463      -14.972499   1.000000   1.000000
     21        -14.965644      -14.965738   1.000000   1.000000
     22        -14.932014      -14.932046   1.000000   1.000000
     23        -14.878230      -14.878229   1.000000   1.000000
     24        -14.864051      -14.864131   1.000000   1.000000
     25         -6.466010       -6.466110   1.000000   1.000000
     26         -6.438981       -6.439150   1.000000   1.000000
     27         -6.404422       -6.404685   1.000000   1.000000
     28         -6.375457       -6.375805   1.000000   1.000000
     29         -5.386608       -5.386751   1.000000   1.000000
     30         -5.350437       -5.350488   1.000000   1.000000
     31         -5.032471       -5.032629   1.000000   1.000000
     32         -4.990524       -4.990581   1.000000   1.000000
     33         -4.331870       -4.332060   1.000000   1.000000
     34         -4.276036       -4.276562   1.000000   1.000000
     35         -4.095616       -4.095756   1.000000   1.000000
     36         -4.052031       -4.052646   1.000000   1.000000
     37         -3.847346       -3.847515   1.000000   1.000000
     38         -3.822978       -3.823168   1.000000   1.000000
     39         -3.718288       -3.718471   1.000000   1.000000
     40         -3.647219       -3.647412   1.000000   1.000000
     41         -1.795455       -1.795529   1.000000   1.000000
     42         -1.610751       -1.610815   1.000000   1.000000
     43         -1.528395       -1.528522   1.000000   1.000000
     44         -1.364657       -1.364778   1.000000   1.000000
     45         -1.232341       -1.232513   1.000000   1.000000
     46         -1.120451       -1.120769   1.000000   1.000000
     47         -1.088376       -1.088474   1.000000   1.000000
     48         -1.008084       -1.008199   1.000000   1.000000
     49          4.409204        4.408905   1.000000   1.000000
     50          4.519289        4.519147   1.000000   1.000000
     51          4.777247        4.776769   1.000000   1.000000
     52          4.817577        4.817424   1.000000   1.000000
     53          5.305338        5.305097   1.000000   1.000000
     54          5.387924        5.387341   0.998648   0.998719
     55          5.583726        5.583107   0.005565   0.005849
     56          5.655053        5.654743   0.000003   0.000003
     57          6.105293        6.105085   0.000000   0.000000
     58          6.162831        6.162539   0.000000   0.000000
     59          6.408856        6.408742   0.000000   0.000000
     60          6.473309        6.473185   0.000000   0.000000
     61          6.569150        6.569000   0.000000   0.000000
     62          6.664100        6.663792   0.000000   0.000000
     63          6.799388        6.799302   0.000000   0.000000
     64          6.867468        6.867262   0.000000   0.000000
     65          7.061314        7.061258   0.000000   0.000000
     66          7.221655        7.221329   0.000000   0.000000
     67          7.730503        7.730416   0.000000   0.000000
     68          7.787428        7.787377   0.000000   0.000000
     69          7.879403        7.879212   0.000000   0.000000
     70          7.954279        7.953976   0.000000   0.000000
 
 -0.4000000E+00  0.1428571E+00 -0.4000000E+00  0.1142857E-01
      1        -33.837946      -33.838023   1.000000   1.000000
      2        -33.833228      -33.833239   1.000000   1.000000
      3        -33.827730      -33.827790   1.000000   1.000000
      4        -33.818111      -33.818138   1.000000   1.000000
      5        -20.352684      -20.352792   1.000000   1.000000
      6        -20.344654      -20.344748   1.000000   1.000000
      7        -20.223831      -20.224067   1.000000   1.000000
      8        -20.212446      -20.212682   1.000000   1.000000
      9        -18.805623      -18.805763   1.000000   1.000000
     10        -18.791528      -18.791671   1.000000   1.000000
     11        -18.647201      -18.647287   1.000000   1.000000
     12        -18.621701      -18.621804   1.000000   1.000000
     13        -15.221695      -15.221799   1.000000   1.000000
     14        -15.178243      -15.178303   1.000000   1.000000
     15        -15.129128      -15.129238   1.000000   1.000000
     16        -15.120964      -15.121011   1.000000   1.000000
     17        -15.038568      -15.038648   1.000000   1.000000
     18        -15.003977      -15.004076   1.000000   1.000000
     19        -14.985628      -14.985671   1.000000   1.000000
     20        -14.972435      -14.972529   1.000000   1.000000
     21        -14.965664      -14.965717   1.000000   1.000000
     22        -14.932009      -14.932051   1.000000   1.000000
     23        -14.878231      -14.878228   1.000000   1.000000
     24        -14.864051      -14.864131   1.000000   1.000000
     25         -6.465994       -6.466126   1.000000   1.000000
     26         -6.439000       -6.439131   1.000000   1.000000
     27         -6.404424       -6.404683   1.000000   1.000000
     28         -6.375452       -6.375810   1.000000   1.000000
     29         -5.386607       -5.386751   1.000000   1.000000
     30         -5.350437       -5.350488   1.000000   1.000000
     31         -5.032470       -5.032629   1.000000   1.000000
     32         -4.990524       -4.990581   1.000000   1.000000
     33         -4.331825       -4.332105   1.000000   1.000000
     34         -4.276091       -4.276507   1.000000   1.000000
     35         -4.095642       -4.095729   1.000000   1.000000
     36         -4.052004       -4.052673   1.000000   1.000000
     37         -3.847337       -3.847523   1.000000   1.000000
     38         -3.822980       -3.823165   1.000000   1.000000
     39         -3.718289       -3.718471   1.000000   1.000000
     40         -3.647218       -3.647414   1.000000   1.000000
     41         -1.795446       -1.795537   1.000000   1.000000
     42         -1.610753       -1.610813   1.000000   1.000000
     43         -1.528399       -1.528518   1.000000   1.000000
     44         -1.364666       -1.364770   1.000000   1.000000
     45         -1.232322       -1.232531   1.000000   1.000000
     46         -1.120463       -1.120758   1.000000   1.000000
     47         -1.088411       -1.088439   1.000000   1.000000
     48         -1.008050       -1.008233   1.000000   1.000000
     49          4.409128        4.408982   1.000000   1.000000
     50          4.519404        4.519031   1.000000   1.000000
     51          4.777249        4.776767   1.000000   1.000000
     52          4.817576        4.817426   1.000000   1.000000
     53          5.305442        5.304993   1.000000   1.000000
     54          5.387753        5.387511   0.998669   0.998699
     55          5.583617        5.583215   0.005614   0.005799
     56          5.655150        5.654647   0.000003   0.000003
     57          6.105307        6.105071   0.000000   0.000000
     58          6.162848        6.162521   0.000000   0.000000
     59          6.408819        6.408780   0.000000   0.000000
     60          6.473255        6.473239   0.000000   0.000000
     61          6.569176        6.568975   0.000000   0.000000
     62          6.664075        6.663815   0.000000   0.000000
     63          6.799431        6.799260   0.000000   0.000000
     64          6.867535        6.867196   0.000000   0.000000
     65          7.061341        7.061231   0.000000   0.000000
     66          7.221640        7.221343   0.000000   0.000000
     67          7.730501        7.730418   0.000000   0.000000
     68          7.787429        7.787375   0.000000   0.000000
     69          7.879436        7.879179   0.000000   0.000000
     70          7.954232        7.954023   0.000000   0.000000
 
 -0.4000000E+00  0.1428571E+00  0.4000000E+00  0.1142857E-01
      1        -33.841632      -33.841692   1.000000   1.000000
      2        -33.831972      -33.832000   1.000000   1.000000
      3        -33.824094      -33.824170   1.000000   1.000000
      4        -33.819301      -33.819312   1.000000   1.000000
      5        -20.352715      -20.352809   1.000000   1.000000
      6        -20.345032      -20.345141   1.000000   1.000000
      7        -20.224216      -20.224446   1.000000   1.000000
      8        -20.212828      -20.213070   1.000000   1.000000
      9        -18.801674      -18.801828   1.000000   1.000000
     10        -18.793311      -18.793440   1.000000   1.000000
     11        -18.649730      -18.649822   1.000000   1.000000
     12        -18.620006      -18.620102   1.000000   1.000000
     13        -15.206888      -15.206944   1.000000   1.000000
     14        -15.194510      -15.194615   1.000000   1.000000
     15        -15.150042      -15.150122   1.000000   1.000000
     16        -15.103396      -15.103485   1.000000   1.000000
     17        -15.023518      -15.023616   1.000000   1.000000
     18        -15.007196      -15.007247   1.000000   1.000000
     19        -14.989910      -14.990007   1.000000   1.000000
     20        -14.976644      -14.976677   1.000000   1.000000
     21        -14.960540      -14.960592   1.000000   1.000000
     22        -14.954635      -14.954706   1.000000   1.000000
     23        -14.883455      -14.883486   1.000000   1.000000
     24        -14.837521      -14.837566   1.000000   1.000000
     25         -6.486229       -6.486325   1.000000   1.000000
     26         -6.444208       -6.444472   1.000000   1.000000
     27         -6.430529       -6.430692   1.000000   1.000000
     28         -6.379694       -6.380040   1.000000   1.000000
     29         -5.342834       -5.342983   1.000000   1.000000
     30         -5.306962       -5.307020   1.000000   1.000000
     31         -5.032410       -5.032564   1.000000   1.000000
     32         -4.990434       -4.990491   1.000000   1.000000
     33         -4.336765       -4.336866   1.000000   1.000000
     34         -4.312000       -4.312606   1.000000   1.000000
     35         -4.090059       -4.090146   1.000000   1.000000
     36         -4.047164       -4.047832   1.000000   1.000000
     37         -3.867200       -3.867368   1.000000   1.000000
     38         -3.807217       -3.807404   1.000000   1.000000
     39         -3.692407       -3.692595   1.000000   1.000000
     40         -3.674369       -3.674562   1.000000   1.000000
     41         -1.770175       -1.770265   1.000000   1.000000
     42         -1.635682       -1.635738   1.000000   1.000000
     43         -1.555066       -1.555196   1.000000   1.000000
     44         -1.334009       -1.334113   1.000000   1.000000
     45         -1.213243       -1.213463   1.000000   1.000000
     46         -1.137540       -1.137805   1.000000   1.000000
     47         -1.098796       -1.098825   1.000000   1.000000
     48         -1.006824       -1.007023   1.000000   1.000000
     49          4.473611        4.473310   1.000000   1.000000
     50          4.489808        4.489680   1.000000   1.000000
     51          4.750739        4.750263   1.000000   1.000000
     52          4.795163        4.795051   1.000000   1.000000
     53          5.350697        5.350333   0.999975   0.999976
     54          5.387412        5.387106   0.998711   0.998747
     55          5.590526        5.589895   0.003158   0.003333
     56          5.643617        5.642977   0.000012   0.000013
     57          5.843337        5.843157   0.000000   0.000000
     58          6.092359        6.092255   0.000000   0.000000
     59          6.463932        6.463787   0.000000   0.000000
     60          6.495095        6.495007   0.000000   0.000000
     61          6.629150        6.628866   0.000000   0.000000
     62          6.667583        6.667435   0.000000   0.000000
     63          6.768227        6.767946   0.000000   0.000000
     64          7.083877        7.083596   0.000000   0.000000
     65          7.194398        7.194273   0.000000   0.000000
     66          7.220604        7.220456   0.000000   0.000000
     67          7.717256        7.717164   0.000000   0.000000
     68          7.769307        7.769243   0.000000   0.000000
     69          7.895399        7.895210   0.000000   0.000000
     70          7.998591        7.998383   0.000000   0.000000
 
  0.4000000E+00  0.1428571E+00 -0.4000000E+00  0.1142857E-01
      1        -33.841632      -33.841692   1.000000   1.000000
      2        -33.831972      -33.832000   1.000000   1.000000
      3        -33.824093      -33.824170   1.000000   1.000000
      4        -33.819301      -33.819312   1.000000   1.000000
      5        -20.352708      -20.352816   1.000000   1.000000
      6        -20.345039      -20.345134   1.000000   1.000000
      7        -20.224211      -20.224450   1.000000   1.000000
      8        -20.212833      -20.213066   1.000000   1.000000
      9        -18.801690      -18.801814   1.000000   1.000000
     10        -18.793294      -18.793454   1.000000   1.000000
     11        -18.649730      -18.649821   1.000000   1.000000
     12        -18.620005      -18.620103   1.000000   1.000000
     13        -15.206869      -15.206965   1.000000   1.000000
     14        -15.194523      -15.194603   1.000000   1.000000
     15        -15.150039      -15.150125   1.000000   1.000000
     16        -15.103410      -15.103470   1.000000   1.000000
     17        -15.023526      -15.023608   1.000000   1.000000
     18        -15.007169      -15.007274   1.000000   1.000000
     19        -14.989933      -14.989983   1.000000   1.000000
     20        -14.976643      -14.976678   1.000000   1.000000
     21        -14.960540      -14.960592   1.000000   1.000000
     22        -14.954631      -14.954711   1.000000   1.000000
     23        -14.883456      -14.883486   1.000000   1.000000
     24        -14.837517      -14.837570   1.000000   1.000000
     25         -6.486224       -6.486330   1.000000   1.000000
     26         -6.444196       -6.444483   1.000000   1.000000
     27         -6.430532       -6.430689   1.000000   1.000000
     28         -6.379708       -6.380026   1.000000   1.000000
     29         -5.342835       -5.342982   1.000000   1.000000
     30         -5.306963       -5.307020   1.000000   1.000000
     31         -5.032408       -5.032566   1.000000   1.000000
     32         -4.990433       -4.990492   1.000000   1.000000
     33         -4.336777       -4.336853   1.000000   1.000000
     34         -4.311990       -4.312616   1.000000   1.000000
     35         -4.090032       -4.090173   1.000000   1.000000
     36         -4.047186       -4.047809   1.000000   1.000000
     37         -3.867198       -3.867370   1.000000   1.000000
     38         -3.807212       -3.807408   1.000000   1.000000
     39         -3.692408       -3.692594   1.000000   1.000000
     40         -3.674376       -3.674555   1.000000   1.000000
     41         -1.770181       -1.770260   1.000000   1.000000
     42         -1.635679       -1.635741   1.000000   1.000000
     43         -1.555070       -1.555193   1.000000   1.000000
     44         -1.334011       -1.334111   1.000000   1.000000
     45         -1.213250       -1.213456   1.000000   1.000000
     46         -1.137516       -1.137828   1.000000   1.000000
     47         -1.098768       -1.098853   1.000000   1.000000
     48         -1.006860       -1.006987   1.000000   1.000000
     49          4.473527        4.473394   1.000000   1.000000
     50          4.489924        4.489564   1.000000   1.000000
     51          4.750655        4.750346   1.000000   1.000000
     52          4.795196        4.795018   1.000000   1.000000
     53          5.350709        5.350322   0.999975   0.999976
     54          5.387560        5.386957   0.998693   0.998764
     55          5.590506        5.589914   0.003163   0.003328
     56          5.643423        5.643172   0.000012   0.000012
     57          5.843383        5.843111   0.000000   0.000000
     58          6.092365        6.092248   0.000000   0.000000
     59          6.463940        6.463780   0.000000   0.000000
     60          6.495090        6.495012   0.000000   0.000000
     61          6.629097        6.628919   0.000000   0.000000
     62          6.667725        6.667290   0.000000   0.000000
     63          6.768149        6.768026   0.000000   0.000000
     64          7.083825        7.083648   0.000000   0.000000
     65          7.194382        7.194288   0.000000   0.000000
     66          7.220673        7.220387   0.000000   0.000000
     67          7.717252        7.717169   0.000000   0.000000
     68          7.769294        7.769256   0.000000   0.000000
     69          7.895417        7.895191   0.000000   0.000000
     70          7.998597        7.998351   0.000000   0.000000
 
 -0.2000000E+00  0.1428571E+00  0.4000000E+00  0.1142857E-01
      1        -33.842929      -33.842983   1.000000   1.000000
      2        -33.828779      -33.828818   1.000000   1.000000
      3        -33.825294      -33.825360   1.000000   1.000000
      4        -33.820017      -33.820033   1.000000   1.000000
      5        -20.346055      -20.346151   1.000000   1.000000
      6        -20.338921      -20.339028   1.000000   1.000000
      7        -20.215788      -20.216016   1.000000   1.000000
      8        -20.204992      -20.205236   1.000000   1.000000
      9        -18.831488      -18.831633   1.000000   1.000000
     10        -18.812463      -18.812601   1.000000   1.000000
     11        -18.673028      -18.673116   1.000000   1.000000
     12        -18.608655      -18.608757   1.000000   1.000000
     13        -15.183971      -15.184053   1.000000   1.000000
     14        -15.169416      -15.169506   1.000000   1.000000
     15        -15.154466      -15.154523   1.000000   1.000000
     16        -15.086778      -15.086880   1.000000   1.000000
     17        -15.039395      -15.039465   1.000000   1.000000
     18        -15.014608      -15.014685   1.000000   1.000000
     19        -14.993093      -14.993196   1.000000   1.000000
     20        -14.967683      -14.967714   1.000000   1.000000
     21        -14.955243      -14.955321   1.000000   1.000000
     22        -14.945399      -14.945444   1.000000   1.000000
     23        -14.900588      -14.900618   1.000000   1.000000
     24        -14.821031      -14.821070   1.000000   1.000000
     25         -6.626961       -6.627090   1.000000   1.000000
     26         -6.569622       -6.569915   1.000000   1.000000
     27         -6.518342       -6.518479   1.000000   1.000000
     28         -6.454846       -6.455157   1.000000   1.000000
     29         -5.155699       -5.155855   1.000000   1.000000
     30         -5.134060       -5.134129   1.000000   1.000000
     31         -4.996637       -4.996791   1.000000   1.000000
     32         -4.952007       -4.952064   1.000000   1.000000
     33         -4.258717       -4.259037   1.000000   1.000000
     34         -4.177653       -4.178037   1.000000   1.000000
     35         -4.060668       -4.060857   1.000000   1.000000
     36         -3.969235       -3.969761   1.000000   1.000000
     37         -3.880917       -3.881107   1.000000   1.000000
     38         -3.772276       -3.772495   1.000000   1.000000
     39         -3.714108       -3.714285   1.000000   1.000000
     40         -3.629618       -3.629814   1.000000   1.000000
     41         -1.930715       -1.930806   1.000000   1.000000
     42         -1.750308       -1.750395   1.000000   1.000000
     43         -1.506666       -1.506785   1.000000   1.000000
     44         -1.446616       -1.446808   1.000000   1.000000
     45         -1.328012       -1.328209   1.000000   1.000000
     46         -1.207071       -1.207159   1.000000   1.000000
     47         -1.130674       -1.130778   1.000000   1.000000
     48         -1.071449       -1.071668   1.000000   1.000000
     49          4.546997        4.546855   1.000000   1.000000
     50          4.629283        4.628885   1.000000   1.000000
     51          4.691923        4.691488   1.000000   1.000000
     52          4.729247        4.729181   1.000000   1.000000
     53          5.257124        5.256939   1.000000   1.000000
     54          5.482845        5.482384   0.623520   0.628454
     55          5.551529        5.551446   0.051769   0.052019
     56          5.767288        5.766637   0.000000   0.000000
     57          5.975161        5.974823   0.000000   0.000000
     58          6.046304        6.045888   0.000000   0.000000
     59          6.435699        6.435518   0.000000   0.000000
     60          6.510183        6.510078   0.000000   0.000000
     61          6.600253        6.599930   0.000000   0.000000
     62          6.699622        6.699469   0.000000   0.000000
     63          6.820066        6.819832   0.000000   0.000000
     64          7.042023        7.041684   0.000000   0.000000
     65          7.100785        7.100679   0.000000   0.000000
     66          7.383621        7.383420   0.000000   0.000000
     67          7.681040        7.680925   0.000000   0.000000
     68          7.752004        7.751790   0.000000   0.000000
     69          7.903274        7.903205   0.000000   0.000000
     70          7.967370        7.967268   0.000000   0.000000
 
  0.2000000E+00  0.1428571E+00 -0.4000000E+00  0.1142857E-01
      1        -33.842928      -33.842983   1.000000   1.000000
      2        -33.828780      -33.828818   1.000000   1.000000
      3        -33.825294      -33.825360   1.000000   1.000000
      4        -33.820017      -33.820033   1.000000   1.000000
      5        -20.346049      -20.346157   1.000000   1.000000
      6        -20.338927      -20.339022   1.000000   1.000000
      7        -20.215782      -20.216022   1.000000   1.000000
      8        -20.204999      -20.205230   1.000000   1.000000
      9        -18.831498      -18.831623   1.000000   1.000000
     10        -18.812452      -18.812610   1.000000   1.000000
     11        -18.673028      -18.673117   1.000000   1.000000
     12        -18.608656      -18.608757   1.000000   1.000000
     13        -15.183969      -15.184056   1.000000   1.000000
     14        -15.169423      -15.169499   1.000000   1.000000
     15        -15.154443      -15.154547   1.000000   1.000000
     16        -15.086803      -15.086854   1.000000   1.000000
     17        -15.039388      -15.039472   1.000000   1.000000
     18        -15.014607      -15.014686   1.000000   1.000000
     19        -14.993106      -14.993183   1.000000   1.000000
     20        -14.967678      -14.967720   1.000000   1.000000
     21        -14.955239      -14.955325   1.000000   1.000000
     22        -14.945403      -14.945439   1.000000   1.000000
     23        -14.900586      -14.900620   1.000000   1.000000
     24        -14.821026      -14.821074   1.000000   1.000000
     25         -6.626960       -6.627092   1.000000   1.000000
     26         -6.569615       -6.569922   1.000000   1.000000
     27         -6.518344       -6.518476   1.000000   1.000000
     28         -6.454855       -6.455149   1.000000   1.000000
     29         -5.155701       -5.155853   1.000000   1.000000
     30         -5.134063       -5.134126   1.000000   1.000000
     31         -4.996634       -4.996793   1.000000   1.000000
     32         -4.952004       -4.952067   1.000000   1.000000
     33         -4.258769       -4.258985   1.000000   1.000000
     34         -4.177604       -4.178086   1.000000   1.000000
     35         -4.060617       -4.060908   1.000000   1.000000
     36         -3.969277       -3.969719   1.000000   1.000000
     37         -3.880911       -3.881113   1.000000   1.000000
     38         -3.772281       -3.772490   1.000000   1.000000
     39         -3.714112       -3.714280   1.000000   1.000000
     40         -3.629623       -3.629810   1.000000   1.000000
     41         -1.930721       -1.930800   1.000000   1.000000
     42         -1.750312       -1.750391   1.000000   1.000000
     43         -1.506676       -1.506776   1.000000   1.000000
     44         -1.446601       -1.446823   1.000000   1.000000
     45         -1.328010       -1.328210   1.000000   1.000000
     46         -1.207044       -1.207186   1.000000   1.000000
     47         -1.130647       -1.130806   1.000000   1.000000
     48         -1.071500       -1.071618   1.000000   1.000000
     49          4.547148        4.546705   1.000000   1.000000
     50          4.629159        4.629010   1.000000   1.000000
     51          4.691722        4.691689   1.000000   1.000000
     52          4.729374        4.729054   1.000000   1.000000
     53          5.257231        5.256833   1.000000   1.000000
     54          5.482784        5.482444   0.624172   0.627816
     55          5.551684        5.551291   0.051305   0.052486
     56          5.767082        5.766842   0.000000   0.000000
     57          5.975256        5.974728   0.000000   0.000000
     58          6.046243        6.045950   0.000000   0.000000
     59          6.435695        6.435522   0.000000   0.000000
     60          6.510148        6.510114   0.000000   0.000000
     61          6.600169        6.600013   0.000000   0.000000
     62          6.699816        6.699273   0.000000   0.000000
     63          6.820093        6.819806   0.000000   0.000000
     64          7.041900        7.041805   0.000000   0.000000
     65          7.100764        7.100700   0.000000   0.000000
     66          7.383657        7.383384   0.000000   0.000000
     67          7.681023        7.680941   0.000000   0.000000
     68          7.752024        7.751771   0.000000   0.000000
     69          7.903314        7.903162   0.000000   0.000000
     70          7.967373        7.967265   0.000000   0.000000
 
  0.1183204E-17  0.2857143E+00  0.4000000E+00  0.1142857E-01
      1        -33.837040      -33.837098   1.000000   1.000000
      2        -33.829599      -33.829652   1.000000   1.000000
      3        -33.824041      -33.824092   1.000000   1.000000
      4        -33.821465      -33.821478   1.000000   1.000000
      5        -20.388850      -20.388941   1.000000   1.000000
      6        -20.382520      -20.382631   1.000000   1.000000
      7        -20.275860      -20.276090   1.000000   1.000000
      8        -20.264266      -20.264510   1.000000   1.000000
      9        -18.833960      -18.834120   1.000000   1.000000
     10        -18.830216      -18.830338   1.000000   1.000000
     11        -18.701589      -18.701680   1.000000   1.000000
     12        -18.649836      -18.649935   1.000000   1.000000
     13        -15.118218      -15.118272   1.000000   1.000000
     14        -15.114468      -15.114561   1.000000   1.000000
     15        -15.084164      -15.084238   1.000000   1.000000
     16        -15.065887      -15.065987   1.000000   1.000000
     17        -14.994028      -14.994072   1.000000   1.000000
     18        -14.979103      -14.979137   1.000000   1.000000
     19        -14.951063      -14.951126   1.000000   1.000000
     20        -14.920125      -14.920161   1.000000   1.000000
     21        -14.840328      -14.840441   1.000000   1.000000
     22        -14.825090      -14.825145   1.000000   1.000000
     23        -14.807874      -14.807939   1.000000   1.000000
     24        -14.794169      -14.794229   1.000000   1.000000
     25         -6.621587       -6.621695   1.000000   1.000000
     26         -6.572152       -6.572463   1.000000   1.000000
     27         -6.516515       -6.516634   1.000000   1.000000
     28         -6.464544       -6.464874   1.000000   1.000000
     29         -5.080923       -5.081086   1.000000   1.000000
     30         -5.068785       -5.068850   1.000000   1.000000
     31         -4.989685       -4.989844   1.000000   1.000000
     32         -4.941825       -4.941882   1.000000   1.000000
     33         -4.376042       -4.376293   1.000000   1.000000
     34         -4.303732       -4.303952   1.000000   1.000000
     35         -4.272868       -4.273053   1.000000   1.000000
     36         -4.216379       -4.216641   1.000000   1.000000
     37         -4.016066       -4.016136   1.000000   1.000000
     38         -4.003188       -4.003523   1.000000   1.000000
     39         -3.970659       -3.971118   1.000000   1.000000
     40         -3.910172       -3.910621   1.000000   1.000000
     41         -1.767778       -1.767863   1.000000   1.000000
     42         -1.659330       -1.659451   1.000000   1.000000
     43         -1.487103       -1.487278   1.000000   1.000000
     44         -1.432718       -1.432896   1.000000   1.000000
     45         -1.385883       -1.386032   1.000000   1.000000
     46         -1.299704       -1.299817   1.000000   1.000000
     47         -1.149258       -1.149431   1.000000   1.000000
     48         -1.053248       -1.053351   1.000000   1.000000
     49          4.265963        4.265755   1.000000   1.000000
     50          4.490442        4.490214   1.000000   1.000000
     51          4.555877        4.555606   1.000000   1.000000
     52          4.741987        4.741832   1.000000   1.000000
     53          5.115168        5.114723   1.000000   1.000000
     54          5.490594        5.490381   0.538069   0.540458
     55          5.594447        5.594039   0.002243   0.002325
     56          5.654444        5.653951   0.000003   0.000003
     57          5.916597        5.916116   0.000000   0.000000
     58          6.370939        6.370764   0.000000   0.000000
     59          6.652045        6.651818   0.000000   0.000000
     60          6.708654        6.708583   0.000000   0.000000
     61          6.755440        6.755332   0.000000   0.000000
     62          6.923496        6.923390   0.000000   0.000000
     63          7.014797        7.014734   0.000000   0.000000
     64          7.186873        7.186819   0.000000   0.000000
     65          7.354450        7.354193   0.000000   0.000000
     66          7.500342        7.500162   0.000000   0.000000
     67          7.548611        7.548534   0.000000   0.000000
     68          7.582428        7.582104   0.000000   0.000000
     69          7.667309        7.667045   0.000000   0.000000
     70          7.745632        7.745462   0.000000   0.000000
 
 -0.1183204E-17  0.2857143E+00 -0.4000000E+00  0.1142857E-01
      1        -33.837040      -33.837098   1.000000   1.000000
      2        -33.829599      -33.829652   1.000000   1.000000
      3        -33.824041      -33.824092   1.000000   1.000000
      4        -33.821465      -33.821478   1.000000   1.000000
      5        -20.388839      -20.388951   1.000000   1.000000
      6        -20.382531      -20.382620   1.000000   1.000000
      7        -20.275854      -20.276095   1.000000   1.000000
      8        -20.264272      -20.264506   1.000000   1.000000
      9        -18.833986      -18.834097   1.000000   1.000000
     10        -18.830190      -18.830362   1.000000   1.000000
     11        -18.701591      -18.701678   1.000000   1.000000
     12        -18.649835      -18.649936   1.000000   1.000000
     13        -15.118206      -15.118285   1.000000   1.000000
     14        -15.114478      -15.114549   1.000000   1.000000
     15        -15.084148      -15.084255   1.000000   1.000000
     16        -15.065904      -15.065970   1.000000   1.000000
     17        -14.994032      -14.994067   1.000000   1.000000
     18        -14.979092      -14.979148   1.000000   1.000000
     19        -14.951061      -14.951127   1.000000   1.000000
     20        -14.920136      -14.920151   1.000000   1.000000
     21        -14.840364      -14.840404   1.000000   1.000000
     22        -14.825065      -14.825171   1.000000   1.000000
     23        -14.807877      -14.807937   1.000000   1.000000
     24        -14.794155      -14.794243   1.000000   1.000000
     25         -6.621585       -6.621697   1.000000   1.000000
     26         -6.572147       -6.572467   1.000000   1.000000
     27         -6.516517       -6.516632   1.000000   1.000000
     28         -6.464549       -6.464869   1.000000   1.000000
     29         -5.080924       -5.081086   1.000000   1.000000
     30         -5.068788       -5.068847   1.000000   1.000000
     31         -4.989681       -4.989848   1.000000   1.000000
     32         -4.941823       -4.941883   1.000000   1.000000
     33         -4.376054       -4.376281   1.000000   1.000000
     34         -4.303730       -4.303955   1.000000   1.000000
     35         -4.272857       -4.273064   1.000000   1.000000
     36         -4.216391       -4.216630   1.000000   1.000000
     37         -4.015953       -4.016251   1.000000   1.000000
     38         -4.003282       -4.003428   1.000000   1.000000
     39         -3.970657       -3.971120   1.000000   1.000000
     40         -3.910186       -3.910608   1.000000   1.000000
     41         -1.767769       -1.767872   1.000000   1.000000
     42         -1.659350       -1.659431   1.000000   1.000000
     43         -1.487087       -1.487294   1.000000   1.000000
     44         -1.432715       -1.432899   1.000000   1.000000
     45         -1.385903       -1.386012   1.000000   1.000000
     46         -1.299665       -1.299855   1.000000   1.000000
     47         -1.149302       -1.149388   1.000000   1.000000
     48         -1.053229       -1.053369   1.000000   1.000000
     49          4.265971        4.265746   1.000000   1.000000
     50          4.490412        4.490246   1.000000   1.000000
     51          4.555885        4.555597   1.000000   1.000000
     52          4.742032        4.741787   1.000000   1.000000
     53          5.115150        5.114742   1.000000   1.000000
     54          5.490544        5.490431   0.538626   0.539900
     55          5.594500        5.593985   0.002232   0.002336
     56          5.654393        5.654003   0.000003   0.000003
     57          5.916652        5.916061   0.000000   0.000000
     58          6.370929        6.370774   0.000000   0.000000
     59          6.651974        6.651889   0.000000   0.000000
     60          6.708658        6.708579   0.000000   0.000000
     61          6.755413        6.755360   0.000000   0.000000
     62          6.923507        6.923379   0.000000   0.000000
     63          7.014787        7.014745   0.000000   0.000000
     64          7.187098        7.186594   0.000000   0.000000
     65          7.354282        7.354361   0.000000   0.000000
     66          7.500385        7.500120   0.000000   0.000000
     67          7.548667        7.548478   0.000000   0.000000
     68          7.582308        7.582223   0.000000   0.000000
     69          7.667257        7.667098   0.000000   0.000000
     70          7.745670        7.745440   0.000000   0.000000
 
  0.2000000E+00  0.2857143E+00  0.4000000E+00  0.1142857E-01
      1        -33.834224      -33.834301   1.000000   1.000000
      2        -33.831370      -33.831404   1.000000   1.000000
      3        -33.826904      -33.826940   1.000000   1.000000
      4        -33.819639      -33.819667   1.000000   1.000000
      5        -20.393345      -20.393434   1.000000   1.000000
      6        -20.386019      -20.386133   1.000000   1.000000
      7        -20.280768      -20.281001   1.000000   1.000000
      8        -20.269109      -20.269349   1.000000   1.000000
      9        -18.822124      -18.822250   1.000000   1.000000
     10        -18.815487      -18.815644   1.000000   1.000000
     11        -18.690925      -18.691020   1.000000   1.000000
     12        -18.648000      -18.648094   1.000000   1.000000
     13        -15.180457      -15.180518   1.000000   1.000000
     14        -15.136144      -15.136254   1.000000   1.000000
     15        -15.056319      -15.056395   1.000000   1.000000
     16        -15.041425      -15.041489   1.000000   1.000000
     17        -14.993526      -14.993557   1.000000   1.000000
     18        -14.981176      -14.981245   1.000000   1.000000
     19        -14.966298      -14.966360   1.000000   1.000000
     20        -14.926994      -14.927013   1.000000   1.000000
     21        -14.835204      -14.835306   1.000000   1.000000
     22        -14.823649      -14.823704   1.000000   1.000000
     23        -14.807529      -14.807610   1.000000   1.000000
     24        -14.782609      -14.782668   1.000000   1.000000
     25         -6.541029       -6.541135   1.000000   1.000000
     26         -6.489818       -6.490109   1.000000   1.000000
     27         -6.463103       -6.463239   1.000000   1.000000
     28         -6.417930       -6.418268   1.000000   1.000000
     29         -5.225337       -5.225487   1.000000   1.000000
     30         -5.199958       -5.200011   1.000000   1.000000
     31         -4.983459       -4.983625   1.000000   1.000000
     32         -4.941709       -4.941768   1.000000   1.000000
     33         -4.446282       -4.446489   1.000000   1.000000
     34         -4.388864       -4.389158   1.000000   1.000000
     35         -4.261691       -4.261954   1.000000   1.000000
     36         -4.179943       -4.180125   1.000000   1.000000
     37         -4.072451       -4.072565   1.000000   1.000000
     38         -4.033024       -4.033629   1.000000   1.000000
     39         -3.999954       -4.000159   1.000000   1.000000
     40         -3.896849       -3.897219   1.000000   1.000000
     41         -1.755581       -1.755663   1.000000   1.000000
     42         -1.586983       -1.587077   1.000000   1.000000
     43         -1.410952       -1.411066   1.000000   1.000000
     44         -1.347829       -1.348012   1.000000   1.000000
     45         -1.314142       -1.314277   1.000000   1.000000
     46         -1.301149       -1.301376   1.000000   1.000000
     47         -1.171067       -1.171218   1.000000   1.000000
     48         -0.967583       -0.967691   1.000000   1.000000
     49          4.229445        4.229249   1.000000   1.000000
     50          4.345391        4.345149   1.000000   1.000000
     51          4.586386        4.586102   1.000000   1.000000
     52          4.869585        4.869553   1.000000   1.000000
     53          5.023854        5.023249   1.000000   1.000000
     54          5.457660        5.456977   0.847810   0.852312
     55          5.534944        5.534741   0.123260   0.124433
     56          5.656862        5.656615   0.000002   0.000002
     57          6.004396        6.003874   0.000000   0.000000
     58          6.561790        6.561734   0.000000   0.000000
     59          6.612831        6.612616   0.000000   0.000000
     60          6.649160        6.648975   0.000000   0.000000
     61          6.801292        6.801221   0.000000   0.000000
     62          6.990880        6.990866   0.000000   0.000000
     63          7.026254        7.026202   0.000000   0.000000
     64          7.166814        7.166513   0.000000   0.000000
     65          7.227027        7.227002   0.000000   0.000000
     66          7.389836        7.389744   0.000000   0.000000
     67          7.430799        7.430719   0.000000   0.000000
     68          7.642458        7.642152   0.000000   0.000000
     69          7.743196        7.743014   0.000000   0.000000
     70          7.826690        7.826344   0.000000   0.000000
 
 -0.2000000E+00  0.2857143E+00 -0.4000000E+00  0.1142857E-01
      1        -33.834225      -33.834300   1.000000   1.000000
      2        -33.831369      -33.831405   1.000000   1.000000
      3        -33.826904      -33.826941   1.000000   1.000000
      4        -33.819640      -33.819667   1.000000   1.000000
      5        -20.393333      -20.393446   1.000000   1.000000
      6        -20.386032      -20.386120   1.000000   1.000000
      7        -20.280765      -20.281004   1.000000   1.000000
      8        -20.269110      -20.269348   1.000000   1.000000
      9        -18.822111      -18.822261   1.000000   1.000000
     10        -18.815499      -18.815634   1.000000   1.000000
     11        -18.690931      -18.691014   1.000000   1.000000
     12        -18.647995      -18.648099   1.000000   1.000000
     13        -15.180442      -15.180534   1.000000   1.000000
     14        -15.136164      -15.136234   1.000000   1.000000
     15        -15.056328      -15.056386   1.000000   1.000000
     16        -15.041411      -15.041502   1.000000   1.000000
     17        -14.993518      -14.993564   1.000000   1.000000
     18        -14.981185      -14.981235   1.000000   1.000000
     19        -14.966292      -14.966366   1.000000   1.000000
     20        -14.926993      -14.927014   1.000000   1.000000
     21        -14.835223      -14.835286   1.000000   1.000000
     22        -14.823630      -14.823724   1.000000   1.000000
     23        -14.807550      -14.807589   1.000000   1.000000
     24        -14.782591      -14.782686   1.000000   1.000000
     25         -6.541026       -6.541137   1.000000   1.000000
     26         -6.489821       -6.490106   1.000000   1.000000
     27         -6.463106       -6.463236   1.000000   1.000000
     28         -6.417926       -6.418272   1.000000   1.000000
     29         -5.225335       -5.225489   1.000000   1.000000
     30         -5.199958       -5.200011   1.000000   1.000000
     31         -4.983460       -4.983624   1.000000   1.000000
     32         -4.941710       -4.941767   1.000000   1.000000
     33         -4.446228       -4.446542   1.000000   1.000000
     34         -4.388924       -4.389098   1.000000   1.000000
     35         -4.261728       -4.261918   1.000000   1.000000
     36         -4.179928       -4.180139   1.000000   1.000000
     37         -4.072456       -4.072560   1.000000   1.000000
     38         -4.033026       -4.033628   1.000000   1.000000
     39         -3.999897       -4.000214   1.000000   1.000000
     40         -3.896871       -3.897197   1.000000   1.000000
     41         -1.755564       -1.755680   1.000000   1.000000
     42         -1.586992       -1.587069   1.000000   1.000000
     43         -1.410946       -1.411071   1.000000   1.000000
     44         -1.347803       -1.348037   1.000000   1.000000
     45         -1.314051       -1.314367   1.000000   1.000000
     46         -1.301292       -1.301235   1.000000   1.000000
     47         -1.171081       -1.171204   1.000000   1.000000
     48         -0.967557       -0.967717   1.000000   1.000000
     49          4.229468        4.229225   1.000000   1.000000
     50          4.345365        4.345175   1.000000   1.000000
     51          4.586361        4.586127   1.000000   1.000000
     52          4.869806        4.869332   1.000000   1.000000
     53          5.023653        5.023450   1.000000   1.000000
     54          5.457410        5.457226   0.849464   0.850679
     55          5.535183        5.534502   0.121886   0.125829
     56          5.656951        5.656527   0.000002   0.000002
     57          6.004300        6.003969   0.000000   0.000000
     58          6.561798        6.561725   0.000000   0.000000
     59          6.612786        6.612660   0.000000   0.000000
     60          6.649091        6.649045   0.000000   0.000000
     61          6.801313        6.801200   0.000000   0.000000
     62          6.990902        6.990843   0.000000   0.000000
     63          7.026311        7.026146   0.000000   0.000000
     64          7.166614        7.166715   0.000000   0.000000
     65          7.227261        7.226766   0.000000   0.000000
     66          7.389863        7.389716   0.000000   0.000000
     67          7.430925        7.430593   0.000000   0.000000
     68          7.642428        7.642184   0.000000   0.000000
     69          7.743209        7.743003   0.000000   0.000000
     70          7.826647        7.826391   0.000000   0.000000
 
  0.4000000E+00  0.2857143E+00  0.4000000E+00  0.1142857E-01
      1        -33.836631      -33.836708   1.000000   1.000000
      2        -33.832050      -33.832060   1.000000   1.000000
      3        -33.825422      -33.825486   1.000000   1.000000
      4        -33.818004      -33.818027   1.000000   1.000000
      5        -20.400476      -20.400565   1.000000   1.000000
      6        -20.392396      -20.392509   1.000000   1.000000
      7        -20.288852      -20.289084   1.000000   1.000000
      8        -20.277617      -20.277858   1.000000   1.000000
      9        -18.799330      -18.799467   1.000000   1.000000
     10        -18.792510      -18.792656   1.000000   1.000000
     11        -18.669310      -18.669414   1.000000   1.000000
     12        -18.650115      -18.650198   1.000000   1.000000
     13        -15.220725      -15.220782   1.000000   1.000000
     14        -15.191622      -15.191736   1.000000   1.000000
     15        -15.030870      -15.030934   1.000000   1.000000
     16        -15.026115      -15.026173   1.000000   1.000000
     17        -15.004564      -15.004593   1.000000   1.000000
     18        -14.977613      -14.977702   1.000000   1.000000
     19        -14.971409      -14.971509   1.000000   1.000000
     20        -14.964679      -14.964677   1.000000   1.000000
     21        -14.817197      -14.817304   1.000000   1.000000
     22        -14.807302      -14.807336   1.000000   1.000000
     23        -14.795821      -14.795922   1.000000   1.000000
     24        -14.779434      -14.779479   1.000000   1.000000
     25         -6.415902       -6.415978   1.000000   1.000000
     26         -6.389029       -6.389183   1.000000   1.000000
     27         -6.361646       -6.361935   1.000000   1.000000
     28         -6.326780       -6.327131   1.000000   1.000000
     29         -5.388195       -5.388338   1.000000   1.000000
     30         -5.348985       -5.349036   1.000000   1.000000
     31         -5.028456       -5.028615   1.000000   1.000000
     32         -4.985599       -4.985654   1.000000   1.000000
     33         -4.548720       -4.548940   1.000000   1.000000
     34         -4.529409       -4.529745   1.000000   1.000000
     35         -4.221908       -4.222120   1.000000   1.000000
     36         -4.195628       -4.195818   1.000000   1.000000
     37         -4.123627       -4.123729   1.000000   1.000000
     38         -4.085013       -4.085662   1.000000   1.000000
     39         -3.993721       -3.993918   1.000000   1.000000
     40         -3.927745       -3.928085   1.000000   1.000000
     41         -1.657570       -1.657648   1.000000   1.000000
     42         -1.501927       -1.501995   1.000000   1.000000
     43         -1.453988       -1.454123   1.000000   1.000000
     44         -1.388507       -1.388645   1.000000   1.000000
     45         -1.139767       -1.139956   1.000000   1.000000
     46         -1.108647       -1.108821   1.000000   1.000000
     47         -1.090049       -1.090248   1.000000   1.000000
     48         -0.926783       -0.926893   1.000000   1.000000
     49          4.201393        4.201199   1.000000   1.000000
     50          4.217434        4.217200   1.000000   1.000000
     51          4.689167        4.688853   1.000000   1.000000
     52          4.754861        4.754737   1.000000   1.000000
     53          5.134492        5.133986   1.000000   1.000000
     54          5.346288        5.345537   0.999985   0.999987
     55          5.425703        5.425478   0.973255   0.973647
     56          5.596940        5.596417   0.001794   0.001880
     57          6.198704        6.198612   0.000000   0.000000
     58          6.272463        6.272118   0.000000   0.000000
     59          6.606820        6.606768   0.000000   0.000000
     60          6.709267        6.709197   0.000000   0.000000
     61          6.872975        6.872698   0.000000   0.000000
     62          7.064490        7.064448   0.000000   0.000000
     63          7.081323        7.081277   0.000000   0.000000
     64          7.222882        7.222817   0.000000   0.000000
     65          7.253637        7.253601   0.000000   0.000000
     66          7.284619        7.284381   0.000000   0.000000
     67          7.389382        7.389259   0.000000   0.000000
     68          7.634637        7.634393   0.000000   0.000000
     69          7.773283        7.773151   0.000000   0.000000
     70          7.885784        7.885427   0.000000   0.000000
 
 -0.4000000E+00  0.2857143E+00 -0.4000000E+00  0.1142857E-01
      1        -33.836631      -33.836708   1.000000   1.000000
      2        -33.832050      -33.832060   1.000000   1.000000
      3        -33.825421      -33.825487   1.000000   1.000000
      4        -33.818005      -33.818027   1.000000   1.000000
      5        -20.400465      -20.400576   1.000000   1.000000
      6        -20.392408      -20.392498   1.000000   1.000000
      7        -20.288848      -20.289087   1.000000   1.000000
      8        -20.277619      -20.277856   1.000000   1.000000
      9        -18.799326      -18.799470   1.000000   1.000000
     10        -18.792512      -18.792654   1.000000   1.000000
     11        -18.669323      -18.669401   1.000000   1.000000
     12        -18.650103      -18.650209   1.000000   1.000000
     13        -15.220710      -15.220798   1.000000   1.000000
     14        -15.191638      -15.191718   1.000000   1.000000
     15        -15.030877      -15.030927   1.000000   1.000000
     16        -15.026108      -15.026181   1.000000   1.000000
     17        -15.004555      -15.004603   1.000000   1.000000
     18        -14.977622      -14.977693   1.000000   1.000000
     19        -14.971439      -14.971478   1.000000   1.000000
     20        -14.964646      -14.964710   1.000000   1.000000
     21        -14.817217      -14.817283   1.000000   1.000000
     22        -14.807274      -14.807365   1.000000   1.000000
     23        -14.795861      -14.795881   1.000000   1.000000
     24        -14.779403      -14.779509   1.000000   1.000000
     25         -6.415883       -6.415997   1.000000   1.000000
     26         -6.389050       -6.389161   1.000000   1.000000
     27         -6.361645       -6.361936   1.000000   1.000000
     28         -6.326777       -6.327133   1.000000   1.000000
     29         -5.388195       -5.388338   1.000000   1.000000
     30         -5.348985       -5.349036   1.000000   1.000000
     31         -5.028456       -5.028616   1.000000   1.000000
     32         -4.985599       -4.985654   1.000000   1.000000
     33         -4.548663       -4.548996   1.000000   1.000000
     34         -4.529471       -4.529683   1.000000   1.000000
     35         -4.221924       -4.222104   1.000000   1.000000
     36         -4.195625       -4.195820   1.000000   1.000000
     37         -4.123631       -4.123725   1.000000   1.000000
     38         -4.085009       -4.085667   1.000000   1.000000
     39         -3.993682       -3.993957   1.000000   1.000000
     40         -3.927768       -3.928063   1.000000   1.000000
     41         -1.657553       -1.657665   1.000000   1.000000
     42         -1.501929       -1.501993   1.000000   1.000000
     43         -1.453997       -1.454114   1.000000   1.000000
     44         -1.388524       -1.388629   1.000000   1.000000
     45         -1.139691       -1.140030   1.000000   1.000000
     46         -1.108615       -1.108856   1.000000   1.000000
     47         -1.090176       -1.090122   1.000000   1.000000
     48         -0.926755       -0.926920   1.000000   1.000000
     49          4.201408        4.201184   1.000000   1.000000
     50          4.217425        4.217209   1.000000   1.000000
     51          4.689129        4.688891   1.000000   1.000000
     52          4.754941        4.754657   1.000000   1.000000
     53          5.134459        5.134019   1.000000   1.000000
     54          5.346008        5.345818   0.999986   0.999986
     55          5.425976        5.425205   0.972775   0.974115
     56          5.596962        5.596395   0.001790   0.001884
     57          6.198660        6.198656   0.000000   0.000000
     58          6.272439        6.272141   0.000000   0.000000
     59          6.606807        6.606781   0.000000   0.000000
     60          6.709257        6.709207   0.000000   0.000000
     61          6.872933        6.872741   0.000000   0.000000
     62          7.064510        7.064427   0.000000   0.000000
     63          7.081344        7.081256   0.000000   0.000000
     64          7.222872        7.222828   0.000000   0.000000
     65          7.253699        7.253540   0.000000   0.000000
     66          7.284675        7.284324   0.000000   0.000000
     67          7.389371        7.389270   0.000000   0.000000
     68          7.634682        7.634350   0.000000   0.000000
     69          7.773231        7.773200   0.000000   0.000000
     70          7.885745        7.885465   0.000000   0.000000
 
 -0.4000000E+00  0.2857143E+00  0.4000000E+00  0.1142857E-01
      1        -33.839278      -33.839342   1.000000   1.000000
      2        -33.831854      -33.831877   1.000000   1.000000
      3        -33.822797      -33.822874   1.000000   1.000000
      4        -33.818157      -33.818167   1.000000   1.000000
      5        -20.400482      -20.400574   1.000000   1.000000
      6        -20.392912      -20.393021   1.000000   1.000000
      7        -20.289043      -20.289273   1.000000   1.000000
      8        -20.278150      -20.278395   1.000000   1.000000
      9        -18.798180      -18.798350   1.000000   1.000000
     10        -18.792129      -18.792243   1.000000   1.000000
     11        -18.670618      -18.670710   1.000000   1.000000
     12        -18.649261      -18.649353   1.000000   1.000000
     13        -15.214090      -15.214140   1.000000   1.000000
     14        -15.201387      -15.201504   1.000000   1.000000
     15        -15.028673      -15.028745   1.000000   1.000000
     16        -15.024281      -15.024329   1.000000   1.000000
     17        -14.999041      -14.999116   1.000000   1.000000
     18        -14.996258      -14.996251   1.000000   1.000000
     19        -14.973687      -14.973775   1.000000   1.000000
     20        -14.959392      -14.959463   1.000000   1.000000
     21        -14.808157      -14.808320   1.000000   1.000000
     22        -14.801687      -14.801685   1.000000   1.000000
     23        -14.794549      -14.794631   1.000000   1.000000
     24        -14.783859      -14.783898   1.000000   1.000000
     25         -6.440503       -6.440583   1.000000   1.000000
     26         -6.396358       -6.396650   1.000000   1.000000
     27         -6.384561       -6.384698   1.000000   1.000000
     28         -6.329890       -6.330242   1.000000   1.000000
     29         -5.341151       -5.341306   1.000000   1.000000
     30         -5.305904       -5.305959   1.000000   1.000000
     31         -5.027571       -5.027726   1.000000   1.000000
     32         -4.984524       -4.984579   1.000000   1.000000
     33         -4.560245       -4.560569   1.000000   1.000000
     34         -4.552268       -4.552504   1.000000   1.000000
     35         -4.231320       -4.231491   1.000000   1.000000
     36         -4.184101       -4.184306   1.000000   1.000000
     37         -4.121522       -4.121607   1.000000   1.000000
     38         -4.079833       -4.080501   1.000000   1.000000
     39         -3.975200       -3.975350   1.000000   1.000000
     40         -3.956452       -3.956855   1.000000   1.000000
     41         -1.620620       -1.620714   1.000000   1.000000
     42         -1.549636       -1.549703   1.000000   1.000000
     43         -1.516962       -1.517112   1.000000   1.000000
     44         -1.310384       -1.310485   1.000000   1.000000
     45         -1.185822       -1.186045   1.000000   1.000000
     46         -1.057217       -1.057242   1.000000   1.000000
     47         -1.034088       -1.034396   1.000000   1.000000
     48         -0.997710       -0.997837   1.000000   1.000000
     49          4.238601        4.238370   1.000000   1.000000
     50          4.253548        4.253338   1.000000   1.000000
     51          4.541413        4.541254   1.000000   1.000000
     52          4.787993        4.787709   1.000000   1.000000
     53          5.277701        5.277308   1.000000   1.000000
     54          5.380431        5.380085   0.999340   0.999362
     55          5.490872        5.490060   0.534941   0.544055
     56          5.538027        5.537367   0.106374   0.109840
     57          5.793555        5.793480   0.000000   0.000000
     58          6.226503        6.226407   0.000000   0.000000
     59          6.595339        6.595233   0.000000   0.000000
     60          6.647630        6.647595   0.000000   0.000000
     61          7.044909        7.044801   0.000000   0.000000
     62          7.065577        7.065564   0.000000   0.000000
     63          7.204539        7.204362   0.000000   0.000000
     64          7.236041        7.235880   0.000000   0.000000
     65          7.283460        7.283291   0.000000   0.000000
     66          7.454239        7.453991   0.000000   0.000000
     67          7.518428        7.518274   0.000000   0.000000
     68          7.559748        7.559527   0.000000   0.000000
     69          7.679253        7.679102   0.000000   0.000000
     70          7.793613        7.793453   0.000000   0.000000
 
  0.4000000E+00  0.2857143E+00 -0.4000000E+00  0.1142857E-01
      1        -33.839277      -33.839343   1.000000   1.000000
      2        -33.831854      -33.831876   1.000000   1.000000
      3        -33.822796      -33.822874   1.000000   1.000000
      4        -33.818157      -33.818167   1.000000   1.000000
      5        -20.400473      -20.400582   1.000000   1.000000
      6        -20.392920      -20.393013   1.000000   1.000000
      7        -20.289037      -20.289279   1.000000   1.000000
      8        -20.278157      -20.278390   1.000000   1.000000
      9        -18.798211      -18.798323   1.000000   1.000000
     10        -18.792097      -18.792271   1.000000   1.000000
     11        -18.670620      -18.670708   1.000000   1.000000
     12        -18.649259      -18.649355   1.000000   1.000000
     13        -15.214082      -15.214148   1.000000   1.000000
     14        -15.201392      -15.201499   1.000000   1.000000
     15        -15.028684      -15.028733   1.000000   1.000000
     16        -15.024265      -15.024345   1.000000   1.000000
     17        -14.999039      -14.999118   1.000000   1.000000
     18        -14.996257      -14.996252   1.000000   1.000000
     19        -14.973703      -14.973758   1.000000   1.000000
     20        -14.959386      -14.959469   1.000000   1.000000
     21        -14.808225      -14.808249   1.000000   1.000000
     22        -14.801623      -14.801751   1.000000   1.000000
     23        -14.794574      -14.794606   1.000000   1.000000
     24        -14.783830      -14.783927   1.000000   1.000000
     25         -6.440492       -6.440593   1.000000   1.000000
     26         -6.396349       -6.396659   1.000000   1.000000
     27         -6.384564       -6.384695   1.000000   1.000000
     28         -6.329907       -6.330225   1.000000   1.000000
     29         -5.341153       -5.341305   1.000000   1.000000
     30         -5.305906       -5.305957   1.000000   1.000000
     31         -5.027569       -5.027728   1.000000   1.000000
     32         -4.984522       -4.984581   1.000000   1.000000
     33         -4.560312       -4.560503   1.000000   1.000000
     34         -4.552204       -4.552568   1.000000   1.000000
     35         -4.231308       -4.231503   1.000000   1.000000
     36         -4.184112       -4.184295   1.000000   1.000000
     37         -4.121499       -4.121631   1.000000   1.000000
     38         -4.079847       -4.080487   1.000000   1.000000
     39         -3.975199       -3.975351   1.000000   1.000000
     40         -3.956462       -3.956845   1.000000   1.000000
     41         -1.620633       -1.620703   1.000000   1.000000
     42         -1.549626       -1.549712   1.000000   1.000000
     43         -1.516968       -1.517106   1.000000   1.000000
     44         -1.310386       -1.310484   1.000000   1.000000
     45         -1.185823       -1.186044   1.000000   1.000000
     46         -1.057074       -1.057381   1.000000   1.000000
     47         -1.034160       -1.034327   1.000000   1.000000
     48         -0.997769       -0.997779   1.000000   1.000000
     49          4.238573        4.238399   1.000000   1.000000
     50          4.253573        4.253312   1.000000   1.000000
     51          4.541460        4.541207   1.000000   1.000000
     52          4.787920        4.787783   1.000000   1.000000
     53          5.277754        5.277255   1.000000   1.000000
     54          5.380598        5.379918   0.999329   0.999372
     55          5.490778        5.490154   0.535993   0.543007
     56          5.537849        5.537545   0.107302   0.108897
     57          5.793642        5.793394   0.000000   0.000000
     58          6.226485        6.226425   0.000000   0.000000
     59          6.595343        6.595229   0.000000   0.000000
     60          6.647626        6.647599   0.000000   0.000000
     61          7.044890        7.044820   0.000000   0.000000
     62          7.065605        7.065535   0.000000   0.000000
     63          7.204558        7.204344   0.000000   0.000000
     64          7.236073        7.235848   0.000000   0.000000
     65          7.283410        7.283343   0.000000   0.000000
     66          7.454214        7.454016   0.000000   0.000000
     67          7.518448        7.518253   0.000000   0.000000
     68          7.559715        7.559560   0.000000   0.000000
     69          7.679214        7.679140   0.000000   0.000000
     70          7.793701        7.793367   0.000000   0.000000
 
 -0.2000000E+00  0.2857143E+00  0.4000000E+00  0.1142857E-01
      1        -33.839682      -33.839741   1.000000   1.000000
      2        -33.829210      -33.829241   1.000000   1.000000
      3        -33.824105      -33.824178   1.000000   1.000000
      4        -33.819113      -33.819126   1.000000   1.000000
      5        -20.393283      -20.393376   1.000000   1.000000
      6        -20.386829      -20.386937   1.000000   1.000000
      7        -20.281089      -20.281317   1.000000   1.000000
      8        -20.269918      -20.270165   1.000000   1.000000
      9        -18.819677      -18.819874   1.000000   1.000000
     10        -18.815511      -18.815598   1.000000   1.000000
     11        -18.691830      -18.691918   1.000000   1.000000
     12        -18.647486      -18.647585   1.000000   1.000000
     13        -15.172573      -15.172651   1.000000   1.000000
     14        -15.153729      -15.153812   1.000000   1.000000
     15        -15.054904      -15.054968   1.000000   1.000000
     16        -15.030625      -15.030699   1.000000   1.000000
     17        -15.005533      -15.005580   1.000000   1.000000
     18        -14.980589      -14.980608   1.000000   1.000000
     19        -14.954883      -14.954998   1.000000   1.000000
     20        -14.949816      -14.949846   1.000000   1.000000
     21        -14.824749      -14.824867   1.000000   1.000000
     22        -14.809058      -14.809118   1.000000   1.000000
     23        -14.798991      -14.799036   1.000000   1.000000
     24        -14.792157      -14.792214   1.000000   1.000000
     25         -6.575509       -6.575603   1.000000   1.000000
     26         -6.531122       -6.531440   1.000000   1.000000
     27         -6.464670       -6.464782   1.000000   1.000000
     28         -6.410889       -6.411224   1.000000   1.000000
     29         -5.152170       -5.152340   1.000000   1.000000
     30         -5.132869       -5.132928   1.000000   1.000000
     31         -4.993574       -4.993728   1.000000   1.000000
     32         -4.949090       -4.949145   1.000000   1.000000
     33         -4.478055       -4.478379   1.000000   1.000000
     34         -4.422251       -4.422449   1.000000   1.000000
     35         -4.264304       -4.264480   1.000000   1.000000
     36         -4.174786       -4.175006   1.000000   1.000000
     37         -4.057498       -4.057593   1.000000   1.000000
     38         -4.003710       -4.004236   1.000000   1.000000
     39         -3.989320       -3.989687   1.000000   1.000000
     40         -3.942311       -3.942639   1.000000   1.000000
     41         -1.719551       -1.719649   1.000000   1.000000
     42         -1.639595       -1.639705   1.000000   1.000000
     43         -1.483123       -1.483256   1.000000   1.000000
     44         -1.392948       -1.393146   1.000000   1.000000
     45         -1.232501       -1.232648   1.000000   1.000000
     46         -1.214009       -1.214120   1.000000   1.000000
     47         -1.124662       -1.124760   1.000000   1.000000
     48         -1.057777       -1.057983   1.000000   1.000000
     49          4.331018        4.330736   1.000000   1.000000
     50          4.396991        4.396858   1.000000   1.000000
     51          4.436167        4.435961   1.000000   1.000000
     52          4.754692        4.754409   1.000000   1.000000
     53          5.105594        5.105295   1.000000   1.000000
     54          5.538336        5.538259   0.104777   0.105175
     55          5.595433        5.594676   0.002054   0.002198
     56          5.663793        5.663043   0.000001   0.000001
     57          5.811235        5.810973   0.000000   0.000000
     58          6.187192        6.187110   0.000000   0.000000
     59          6.725275        6.725193   0.000000   0.000000
     60          6.771592        6.771476   0.000000   0.000000
     61          6.876443        6.876308   0.000000   0.000000
     62          6.946268        6.946147   0.000000   0.000000
     63          7.092776        7.092757   0.000000   0.000000
     64          7.114859        7.114633   0.000000   0.000000
     65          7.276966        7.276585   0.000000   0.000000
     66          7.505288        7.505147   0.000000   0.000000
     67          7.587327        7.586920   0.000000   0.000000
     68          7.628917        7.628831   0.000000   0.000000
     69          7.667497        7.667494   0.000000   0.000000
     70          7.806783        7.806707   0.000000   0.000000
 
  0.2000000E+00  0.2857143E+00 -0.4000000E+00  0.1142857E-01
      1        -33.839682      -33.839741   1.000000   1.000000
      2        -33.829210      -33.829240   1.000000   1.000000
      3        -33.824105      -33.824178   1.000000   1.000000
      4        -33.819113      -33.819126   1.000000   1.000000
      5        -20.393275      -20.393383   1.000000   1.000000
      6        -20.386837      -20.386930   1.000000   1.000000
      7        -20.281080      -20.281324   1.000000   1.000000
      8        -20.269927      -20.270158   1.000000   1.000000
      9        -18.819740      -18.819818   1.000000   1.000000
     10        -18.815448      -18.815654   1.000000   1.000000
     11        -18.691830      -18.691919   1.000000   1.000000
     12        -18.647487      -18.647585   1.000000   1.000000
     13        -15.172584      -15.172640   1.000000   1.000000
     14        -15.153713      -15.153829   1.000000   1.000000
     15        -15.054893      -15.054979   1.000000   1.000000
     16        -15.030632      -15.030692   1.000000   1.000000
     17        -15.005542      -15.005571   1.000000   1.000000
     18        -14.980571      -14.980626   1.000000   1.000000
     19        -14.954900      -14.954981   1.000000   1.000000
     20        -14.949822      -14.949841   1.000000   1.000000
     21        -14.824783      -14.824831   1.000000   1.000000
     22        -14.809049      -14.809128   1.000000   1.000000
     23        -14.798971      -14.799058   1.000000   1.000000
     24        -14.792148      -14.792223   1.000000   1.000000
     25         -6.575505       -6.575607   1.000000   1.000000
     26         -6.531112       -6.531450   1.000000   1.000000
     27         -6.464673       -6.464779   1.000000   1.000000
     28         -6.410900       -6.411214   1.000000   1.000000
     29         -5.152175       -5.152335   1.000000   1.000000
     30         -5.132873       -5.132925   1.000000   1.000000
     31         -4.993568       -4.993733   1.000000   1.000000
     32         -4.949086       -4.949149   1.000000   1.000000
     33         -4.478111       -4.478323   1.000000   1.000000
     34         -4.422197       -4.422503   1.000000   1.000000
     35         -4.264280       -4.264504   1.000000   1.000000
     36         -4.174804       -4.174989   1.000000   1.000000
     37         -4.057418       -4.057674   1.000000   1.000000
     38         -4.003743       -4.004201   1.000000   1.000000
     39         -3.989410       -3.989599   1.000000   1.000000
     40         -3.942275       -3.942675   1.000000   1.000000
     41         -1.719562       -1.719638   1.000000   1.000000
     42         -1.639605       -1.639694   1.000000   1.000000
     43         -1.483124       -1.483256   1.000000   1.000000
     44         -1.392937       -1.393156   1.000000   1.000000
     45         -1.232489       -1.232659   1.000000   1.000000
     46         -1.213983       -1.214144   1.000000   1.000000
     47         -1.124608       -1.124814   1.000000   1.000000
     48         -1.057855       -1.057907   1.000000   1.000000
     49          4.330958        4.330797   1.000000   1.000000
     50          4.397054        4.396795   1.000000   1.000000
     51          4.436206        4.435923   1.000000   1.000000
     52          4.754603        4.754497   1.000000   1.000000
     53          5.105678        5.105211   1.000000   1.000000
     54          5.538666        5.537928   0.103093   0.106889
     55          5.595098        5.595012   0.002117   0.002133
     56          5.663516        5.663320   0.000001   0.000001
     57          5.811504        5.810705   0.000000   0.000000
     58          6.187188        6.187114   0.000000   0.000000
     59          6.725232        6.725236   0.000000   0.000000
     60          6.771612        6.771454   0.000000   0.000000
     61          6.876444        6.876308   0.000000   0.000000
     62          6.946265        6.946149   0.000000   0.000000
     63          7.092930        7.092603   0.000000   0.000000
     64          7.114796        7.114697   0.000000   0.000000
     65          7.276840        7.276713   0.000000   0.000000
     66          7.505293        7.505141   0.000000   0.000000
     67          7.587037        7.587210   0.000000   0.000000
     68          7.628937        7.628811   0.000000   0.000000
     69          7.667706        7.667282   0.000000   0.000000
     70          7.806912        7.806580   0.000000   0.000000
 
  0.1183204E-17  0.4285714E+00  0.4000000E+00  0.1142857E-01
      1        -33.833403      -33.833475   1.000000   1.000000
      2        -33.828337      -33.828362   1.000000   1.000000
      3        -33.825327      -33.825396   1.000000   1.000000
      4        -33.821149      -33.821159   1.000000   1.000000
      5        -20.425655      -20.425748   1.000000   1.000000
      6        -20.420488      -20.420594   1.000000   1.000000
      7        -20.327539      -20.327776   1.000000   1.000000
      8        -20.314425      -20.314667   1.000000   1.000000
      9        -18.831087      -18.831236   1.000000   1.000000
     10        -18.810073      -18.810214   1.000000   1.000000
     11        -18.715659      -18.715750   1.000000   1.000000
     12        -18.690355      -18.690444   1.000000   1.000000
     13        -15.106710      -15.106755   1.000000   1.000000
     14        -15.093053      -15.093157   1.000000   1.000000
     15        -15.077695      -15.077759   1.000000   1.000000
     16        -15.067210      -15.067318   1.000000   1.000000
     17        -15.003549      -15.003616   1.000000   1.000000
     18        -14.995435      -14.995442   1.000000   1.000000
     19        -14.952064      -14.952107   1.000000   1.000000
     20        -14.935380      -14.935413   1.000000   1.000000
     21        -14.687384      -14.687502   1.000000   1.000000
     22        -14.676230      -14.676285   1.000000   1.000000
     23        -14.668371      -14.668445   1.000000   1.000000
     24        -14.660780      -14.660839   1.000000   1.000000
     25         -6.570407       -6.570491   1.000000   1.000000
     26         -6.526177       -6.526510   1.000000   1.000000
     27         -6.462217       -6.462309   1.000000   1.000000
     28         -6.415177       -6.415525   1.000000   1.000000
     29         -5.081330       -5.081504   1.000000   1.000000
     30         -5.070536       -5.070596   1.000000   1.000000
     31         -4.994225       -4.994390   1.000000   1.000000
     32         -4.944621       -4.944682   1.000000   1.000000
     33         -4.626298       -4.626509   1.000000   1.000000
     34         -4.591373       -4.591595   1.000000   1.000000
     35         -4.579761       -4.579919   1.000000   1.000000
     36         -4.562556       -4.562750   1.000000   1.000000
     37         -4.111453       -4.111562   1.000000   1.000000
     38         -4.074087       -4.074683   1.000000   1.000000
     39         -4.051213       -4.051364   1.000000   1.000000
     40         -4.001175       -4.001779   1.000000   1.000000
     41         -1.557841       -1.557978   1.000000   1.000000
     42         -1.510077       -1.510207   1.000000   1.000000
     43         -1.459306       -1.459460   1.000000   1.000000
     44         -1.404777       -1.404947   1.000000   1.000000
     45         -1.317267       -1.317390   1.000000   1.000000
     46         -1.248929       -1.249093   1.000000   1.000000
     47         -1.147767       -1.147902   1.000000   1.000000
     48         -1.119831       -1.119925   1.000000   1.000000
     49          4.130425        4.130238   1.000000   1.000000
     50          4.242185        4.241969   1.000000   1.000000
     51          4.408485        4.408263   1.000000   1.000000
     52          4.493030        4.492832   1.000000   1.000000
     53          5.318254        5.317820   1.000000   1.000000
     54          5.433894        5.433402   0.955365   0.956662
     55          5.649519        5.649301   0.000005   0.000006
     56          5.677830        5.677073   0.000000   0.000000
     57          6.183690        6.183451   0.000000   0.000000
     58          6.457079        6.456994   0.000000   0.000000
     59          6.687994        6.687878   0.000000   0.000000
     60          6.727662        6.727600   0.000000   0.000000
     61          6.823518        6.823476   0.000000   0.000000
     62          6.931260        6.931186   0.000000   0.000000
     63          6.997210        6.997134   0.000000   0.000000
     64          7.124847        7.124678   0.000000   0.000000
     65          7.197417        7.197222   0.000000   0.000000
     66          7.312702        7.312579   0.000000   0.000000
     67          7.500535        7.500491   0.000000   0.000000
     68          7.638776        7.638624   0.000000   0.000000
     69          7.808895        7.808651   0.000000   0.000000
     70          7.970657        7.971294   0.000000   0.000000
 
 -0.1183204E-17  0.4285714E+00 -0.4000000E+00  0.1142857E-01
      1        -33.833403      -33.833475   1.000000   1.000000
      2        -33.828337      -33.828362   1.000000   1.000000
      3        -33.825327      -33.825396   1.000000   1.000000
      4        -33.821149      -33.821159   1.000000   1.000000
      5        -20.425649      -20.425754   1.000000   1.000000
      6        -20.420495      -20.420588   1.000000   1.000000
      7        -20.327536      -20.327778   1.000000   1.000000
      8        -20.314427      -20.314665   1.000000   1.000000
      9        -18.831089      -18.831233   1.000000   1.000000
     10        -18.810070      -18.810217   1.000000   1.000000
     11        -18.715661      -18.715748   1.000000   1.000000
     12        -18.690353      -18.690446   1.000000   1.000000
     13        -15.106712      -15.106754   1.000000   1.000000
     14        -15.093050      -15.093159   1.000000   1.000000
     15        -15.077686      -15.077768   1.000000   1.000000
     16        -15.067219      -15.067309   1.000000   1.000000
     17        -15.003551      -15.003614   1.000000   1.000000
     18        -14.995431      -14.995447   1.000000   1.000000
     19        -14.952064      -14.952107   1.000000   1.000000
     20        -14.935383      -14.935410   1.000000   1.000000
     21        -14.687411      -14.687474   1.000000   1.000000
     22        -14.676194      -14.676323   1.000000   1.000000
     23        -14.668388      -14.668427   1.000000   1.000000
     24        -14.660772      -14.660847   1.000000   1.000000
     25         -6.570406       -6.570492   1.000000   1.000000
     26         -6.526175       -6.526512   1.000000   1.000000
     27         -6.462219       -6.462308   1.000000   1.000000
     28         -6.415179       -6.415523   1.000000   1.000000
     29         -5.081329       -5.081505   1.000000   1.000000
     30         -5.070540       -5.070592   1.000000   1.000000
     31         -4.994223       -4.994392   1.000000   1.000000
     32         -4.944620       -4.944684   1.000000   1.000000
     33         -4.626297       -4.626511   1.000000   1.000000
     34         -4.591377       -4.591591   1.000000   1.000000
     35         -4.579755       -4.579924   1.000000   1.000000
     36         -4.562562       -4.562745   1.000000   1.000000
     37         -4.111450       -4.111565   1.000000   1.000000
     38         -4.074079       -4.074691   1.000000   1.000000
     39         -4.051213       -4.051364   1.000000   1.000000
     40         -4.001185       -4.001769   1.000000   1.000000
     41         -1.557842       -1.557977   1.000000   1.000000
     42         -1.510077       -1.510206   1.000000   1.000000
     43         -1.459308       -1.459458   1.000000   1.000000
     44         -1.404772       -1.404952   1.000000   1.000000
     45         -1.317266       -1.317391   1.000000   1.000000
     46         -1.248926       -1.249097   1.000000   1.000000
     47         -1.147786       -1.147884   1.000000   1.000000
     48         -1.119817       -1.119938   1.000000   1.000000
     49          4.130425        4.130238   1.000000   1.000000
     50          4.242181        4.241973   1.000000   1.000000
     51          4.408498        4.408250   1.000000   1.000000
     52          4.493027        4.492836   1.000000   1.000000
     53          5.318233        5.317841   1.000000   1.000000
     54          5.433901        5.433395   0.955347   0.956681
     55          5.649521        5.649300   0.000005   0.000006
     56          5.677839        5.677063   0.000000   0.000000
     57          6.183688        6.183453   0.000000   0.000000
     58          6.457095        6.456977   0.000000   0.000000
     59          6.687966        6.687906   0.000000   0.000000
     60          6.727653        6.727610   0.000000   0.000000
     61          6.823530        6.823462   0.000000   0.000000
     62          6.931249        6.931196   0.000000   0.000000
     63          6.997207        6.997136   0.000000   0.000000
     64          7.124876        7.124648   0.000000   0.000000
     65          7.197397        7.197243   0.000000   0.000000
     66          7.312695        7.312586   0.000000   0.000000
     67          7.500577        7.500448   0.000000   0.000000
     68          7.638753        7.638647   0.000000   0.000000
     69          7.808877        7.808669   0.000000   0.000000
     70          7.970605        7.972452   0.000000   0.000000
 
  0.2000000E+00  0.4285714E+00  0.4000000E+00  0.1142857E-01
      1        -33.832831      -33.832910   1.000000   1.000000
      2        -33.828651      -33.828667   1.000000   1.000000
      3        -33.825884      -33.825949   1.000000   1.000000
      4        -33.820833      -33.820848   1.000000   1.000000
      5        -20.430739      -20.430831   1.000000   1.000000
      6        -20.423632      -20.423739   1.000000   1.000000
      7        -20.332248      -20.332486   1.000000   1.000000
      8        -20.319429      -20.319670   1.000000   1.000000
      9        -18.818509      -18.818652   1.000000   1.000000
     10        -18.800562      -18.800707   1.000000   1.000000
     11        -18.704780      -18.704876   1.000000   1.000000
     12        -18.682766      -18.682851   1.000000   1.000000
     13        -15.163035      -15.163085   1.000000   1.000000
     14        -15.143375      -15.143495   1.000000   1.000000
     15        -15.044088      -15.044126   1.000000   1.000000
     16        -15.035330      -15.035426   1.000000   1.000000
     17        -14.997405      -14.997459   1.000000   1.000000
     18        -14.987331      -14.987376   1.000000   1.000000
     19        -14.968251      -14.968300   1.000000   1.000000
     20        -14.958790      -14.958814   1.000000   1.000000
     21        -14.683863      -14.683958   1.000000   1.000000
     22        -14.674122      -14.674171   1.000000   1.000000
     23        -14.662770      -14.662874   1.000000   1.000000
     24        -14.642531      -14.642586   1.000000   1.000000
     25         -6.489480       -6.489566   1.000000   1.000000
     26         -6.439577       -6.439908   1.000000   1.000000
     27         -6.414370       -6.414464   1.000000   1.000000
     28         -6.365582       -6.365932   1.000000   1.000000
     29         -5.227955       -5.228106   1.000000   1.000000
     30         -5.200792       -5.200846   1.000000   1.000000
     31         -4.983467       -4.983640   1.000000   1.000000
     32         -4.939748       -4.939807   1.000000   1.000000
     33         -4.697463       -4.697680   1.000000   1.000000
     34         -4.676421       -4.676632   1.000000   1.000000
     35         -4.554874       -4.555090   1.000000   1.000000
     36         -4.530758       -4.530923   1.000000   1.000000
     37         -4.129125       -4.129235   1.000000   1.000000
     38         -4.090650       -4.091315   1.000000   1.000000
     39         -4.086716       -4.086854   1.000000   1.000000
     40         -4.039522       -4.040062   1.000000   1.000000
     41         -1.583371       -1.583474   1.000000   1.000000
     42         -1.461524       -1.461677   1.000000   1.000000
     43         -1.403687       -1.403780   1.000000   1.000000
     44         -1.329782       -1.329927   1.000000   1.000000
     45         -1.280638       -1.280861   1.000000   1.000000
     46         -1.210245       -1.210337   1.000000   1.000000
     47         -1.136710       -1.136903   1.000000   1.000000
     48         -0.986681       -0.986779   1.000000   1.000000
     49          4.089976        4.089788   1.000000   1.000000
     50          4.154904        4.154688   1.000000   1.000000
     51          4.490640        4.490414   1.000000   1.000000
     52          4.590969        4.590759   1.000000   1.000000
     53          5.122846        5.122436   1.000000   1.000000
     54          5.243660        5.243147   1.000000   1.000000
     55          5.581898        5.581534   0.006443   0.006632
     56          5.649406        5.648775   0.000006   0.000006
     57          6.464428        6.464219   0.000000   0.000000
     58          6.642389        6.642268   0.000000   0.000000
     59          6.706602        6.706581   0.000000   0.000000
     60          6.770675        6.770512   0.000000   0.000000
     61          6.875531        6.875484   0.000000   0.000000
     62          6.892997        6.892950   0.000000   0.000000
     63          6.944740        6.944655   0.000000   0.000000
     64          7.158453        7.158344   0.000000   0.000000
     65          7.306881        7.306755   0.000000   0.000000
     66          7.391400        7.391242   0.000000   0.000000
     67          7.470083        7.469849   0.000000   0.000000
     68          7.580778        7.580667   0.000000   0.000000
     69          7.645380        7.645134   0.000000   0.000000
     70          7.848095        7.847765   0.000000   0.000000
 
 -0.2000000E+00  0.4285714E+00 -0.4000000E+00  0.1142857E-01
      1        -33.832831      -33.832910   1.000000   1.000000
      2        -33.828651      -33.828668   1.000000   1.000000
      3        -33.825883      -33.825950   1.000000   1.000000
      4        -33.820833      -33.820847   1.000000   1.000000
      5        -20.430732      -20.430837   1.000000   1.000000
      6        -20.423639      -20.423732   1.000000   1.000000
      7        -20.332247      -20.332487   1.000000   1.000000
      8        -20.319430      -20.319670   1.000000   1.000000
      9        -18.818507      -18.818654   1.000000   1.000000
     10        -18.800563      -18.800706   1.000000   1.000000
     11        -18.704787      -18.704869   1.000000   1.000000
     12        -18.682760      -18.682857   1.000000   1.000000
     13        -15.163025      -15.163096   1.000000   1.000000
     14        -15.143387      -15.143483   1.000000   1.000000
     15        -15.044090      -15.044124   1.000000   1.000000
     16        -15.035327      -15.035429   1.000000   1.000000
     17        -14.997399      -14.997465   1.000000   1.000000
     18        -14.987338      -14.987368   1.000000   1.000000
     19        -14.968251      -14.968300   1.000000   1.000000
     20        -14.958788      -14.958817   1.000000   1.000000
     21        -14.683859      -14.683961   1.000000   1.000000
     22        -14.674121      -14.674172   1.000000   1.000000
     23        -14.662789      -14.662855   1.000000   1.000000
     24        -14.642517      -14.642601   1.000000   1.000000
     25         -6.489480       -6.489567   1.000000   1.000000
     26         -6.439577       -6.439908   1.000000   1.000000
     27         -6.414371       -6.414462   1.000000   1.000000
     28         -6.365581       -6.365933   1.000000   1.000000
     29         -5.227953       -5.228107   1.000000   1.000000
     30         -5.200792       -5.200846   1.000000   1.000000
     31         -4.983469       -4.983639   1.000000   1.000000
     32         -4.939748       -4.939807   1.000000   1.000000
     33         -4.697426       -4.697716   1.000000   1.000000
     34         -4.676461       -4.676592   1.000000   1.000000
     35         -4.554894       -4.555070   1.000000   1.000000
     36         -4.530739       -4.530941   1.000000   1.000000
     37         -4.129136       -4.129225   1.000000   1.000000
     38         -4.090652       -4.091317   1.000000   1.000000
     39         -4.086686       -4.086881   1.000000   1.000000
     40         -4.039537       -4.040048   1.000000   1.000000
     41         -1.583355       -1.583490   1.000000   1.000000
     42         -1.461533       -1.461666   1.000000   1.000000
     43         -1.403688       -1.403780   1.000000   1.000000
     44         -1.329795       -1.329915   1.000000   1.000000
     45         -1.280626       -1.280872   1.000000   1.000000
     46         -1.210236       -1.210346   1.000000   1.000000
     47         -1.136748       -1.136865   1.000000   1.000000
     48         -0.986657       -0.986802   1.000000   1.000000
     49          4.089981        4.089783   1.000000   1.000000
     50          4.154901        4.154691   1.000000   1.000000
     51          4.490640        4.490414   1.000000   1.000000
     52          4.590977        4.590751   1.000000   1.000000
     53          5.122851        5.122431   1.000000   1.000000
     54          5.243612        5.243194   1.000000   1.000000
     55          5.581939        5.581492   0.006422   0.006654
     56          5.649411        5.648770   0.000006   0.000006
     57          6.464396        6.464250   0.000000   0.000000
     58          6.642349        6.642307   0.000000   0.000000
     59          6.706634        6.706551   0.000000   0.000000
     60          6.770656        6.770530   0.000000   0.000000
     61          6.875534        6.875482   0.000000   0.000000
     62          6.893013        6.892931   0.000000   0.000000
     63          6.944723        6.944673   0.000000   0.000000
     64          7.158446        7.158352   0.000000   0.000000
     65          7.306953        7.306684   0.000000   0.000000
     66          7.391424        7.391218   0.000000   0.000000
     67          7.470065        7.469866   0.000000   0.000000
     68          7.580794        7.580651   0.000000   0.000000
     69          7.645398        7.645117   0.000000   0.000000
     70          7.848012        7.847848   0.000000   0.000000
 
  0.4000000E+00  0.4285714E+00  0.4000000E+00  0.1142857E-01
      1        -33.835568      -33.835647   1.000000   1.000000
      2        -33.831105      -33.831114   1.000000   1.000000
      3        -33.823232      -33.823307   1.000000   1.000000
      4        -33.818257      -33.818269   1.000000   1.000000
      5        -20.438307      -20.438400   1.000000   1.000000
      6        -20.430043      -20.430148   1.000000   1.000000
      7        -20.339747      -20.339984   1.000000   1.000000
      8        -20.328419      -20.328661   1.000000   1.000000
      9        -18.796157      -18.796300   1.000000   1.000000
     10        -18.785866      -18.786011   1.000000   1.000000
     11        -18.685771      -18.685869   1.000000   1.000000
     12        -18.671410      -18.671492   1.000000   1.000000
     13        -15.213881      -15.213928   1.000000   1.000000
     14        -15.197775      -15.197899   1.000000   1.000000
     15        -15.019364      -15.019395   1.000000   1.000000
     16        -15.015483      -15.015550   1.000000   1.000000
     17        -15.012336      -15.012371   1.000000   1.000000
     18        -14.996968      -14.997006   1.000000   1.000000
     19        -14.975084      -14.975187   1.000000   1.000000
     20        -14.971959      -14.971999   1.000000   1.000000
     21        -14.675404      -14.675503   1.000000   1.000000
     22        -14.666961      -14.667000   1.000000   1.000000
     23        -14.643198      -14.643310   1.000000   1.000000
     24        -14.629028      -14.629076   1.000000   1.000000
     25         -6.366274       -6.366354   1.000000   1.000000
     26         -6.335516       -6.335618   1.000000   1.000000
     27         -6.313118       -6.313444   1.000000   1.000000
     28         -6.271326       -6.271680   1.000000   1.000000
     29         -5.391995       -5.392138   1.000000   1.000000
     30         -5.348964       -5.349016   1.000000   1.000000
     31         -5.024881       -5.025042   1.000000   1.000000
     32         -4.977438       -4.977492   1.000000   1.000000
     33         -4.790031       -4.790357   1.000000   1.000000
     34         -4.779206       -4.779353   1.000000   1.000000
     35         -4.546221       -4.546416   1.000000   1.000000
     36         -4.533362       -4.533545   1.000000   1.000000
     37         -4.157151       -4.157292   1.000000   1.000000
     38         -4.126473       -4.126676   1.000000   1.000000
     39         -4.122105       -4.122651   1.000000   1.000000
     40         -4.089947       -4.090484   1.000000   1.000000
     41         -1.542164       -1.542245   1.000000   1.000000
     42         -1.466879       -1.467039   1.000000   1.000000
     43         -1.368448       -1.368507   1.000000   1.000000
     44         -1.352835       -1.352969   1.000000   1.000000
     45         -1.135474       -1.135774   1.000000   1.000000
     46         -1.100636       -1.100681   1.000000   1.000000
     47         -0.965755       -0.965978   1.000000   1.000000
     48         -0.881054       -0.881144   1.000000   1.000000
     49          4.076807        4.076617   1.000000   1.000000
     50          4.097888        4.097667   1.000000   1.000000
     51          4.523247        4.523055   1.000000   1.000000
     52          4.549375        4.549186   1.000000   1.000000
     53          5.126878        5.126384   1.000000   1.000000
     54          5.189217        5.188623   1.000000   1.000000
     55          5.456514        5.456191   0.855313   0.857378
     56          5.520548        5.519832   0.226122   0.232261
     57          6.460758        6.460712   0.000000   0.000000
     58          6.508321        6.508179   0.000000   0.000000
     59          6.670376        6.670340   0.000000   0.000000
     60          6.754985        6.754918   0.000000   0.000000
     61          6.828647        6.828504   0.000000   0.000000
     62          6.934545        6.934382   0.000000   0.000000
     63          7.048711        7.048558   0.000000   0.000000
     64          7.189131        7.189077   0.000000   0.000000
     65          7.437728        7.437547   0.000000   0.000000
     66          7.469496        7.469377   0.000000   0.000000
     67          7.611869        7.611585   0.000000   0.000000
     68          7.638893        7.638769   0.000000   0.000000
     69          7.749448        7.749427   0.000000   0.000000
     70          7.997028        7.996779   0.000000   0.000000
 
 -0.4000000E+00  0.4285714E+00 -0.4000000E+00  0.1142857E-01
      1        -33.835568      -33.835647   1.000000   1.000000
      2        -33.831105      -33.831114   1.000000   1.000000
      3        -33.823231      -33.823307   1.000000   1.000000
      4        -33.818258      -33.818269   1.000000   1.000000
      5        -20.438301      -20.438405   1.000000   1.000000
      6        -20.430049      -20.430142   1.000000   1.000000
      7        -20.339745      -20.339985   1.000000   1.000000
      8        -20.328420      -20.328659   1.000000   1.000000
      9        -18.796156      -18.796301   1.000000   1.000000
     10        -18.785866      -18.786012   1.000000   1.000000
     11        -18.685780      -18.685860   1.000000   1.000000
     12        -18.671402      -18.671500   1.000000   1.000000
     13        -15.213872      -15.213937   1.000000   1.000000
     14        -15.197785      -15.197890   1.000000   1.000000
     15        -15.019369      -15.019390   1.000000   1.000000
     16        -15.015477      -15.015556   1.000000   1.000000
     17        -15.012331      -15.012376   1.000000   1.000000
     18        -14.996976      -14.996998   1.000000   1.000000
     19        -14.975088      -14.975184   1.000000   1.000000
     20        -14.971952      -14.972006   1.000000   1.000000
     21        -14.675409      -14.675498   1.000000   1.000000
     22        -14.666953      -14.667008   1.000000   1.000000
     23        -14.643217      -14.643291   1.000000   1.000000
     24        -14.629012      -14.629092   1.000000   1.000000
     25         -6.366268       -6.366360   1.000000   1.000000
     26         -6.335522       -6.335612   1.000000   1.000000
     27         -6.313117       -6.313445   1.000000   1.000000
     28         -6.271327       -6.271680   1.000000   1.000000
     29         -5.391995       -5.392138   1.000000   1.000000
     30         -5.348964       -5.349016   1.000000   1.000000
     31         -5.024881       -5.025042   1.000000   1.000000
     32         -4.977438       -4.977493   1.000000   1.000000
     33         -4.790022       -4.790366   1.000000   1.000000
     34         -4.779218       -4.779341   1.000000   1.000000
     35         -4.546225       -4.546413   1.000000   1.000000
     36         -4.533360       -4.533547   1.000000   1.000000
     37         -4.157187       -4.157256   1.000000   1.000000
     38         -4.126488       -4.126659   1.000000   1.000000
     39         -4.122010       -4.122749   1.000000   1.000000
     40         -4.089989       -4.090442   1.000000   1.000000
     41         -1.542144       -1.542266   1.000000   1.000000
     42         -1.466898       -1.467020   1.000000   1.000000
     43         -1.368453       -1.368503   1.000000   1.000000
     44         -1.352837       -1.352967   1.000000   1.000000
     45         -1.135466       -1.135782   1.000000   1.000000
     46         -1.100626       -1.100691   1.000000   1.000000
     47         -0.965791       -0.965942   1.000000   1.000000
     48         -0.881031       -0.881168   1.000000   1.000000
     49          4.076813        4.076611   1.000000   1.000000
     50          4.097885        4.097671   1.000000   1.000000
     51          4.523241        4.523061   1.000000   1.000000
     52          4.549389        4.549172   1.000000   1.000000
     53          5.126892        5.126369   1.000000   1.000000
     54          5.189149        5.188690   1.000000   1.000000
     55          5.456580        5.456125   0.854885   0.857803
     56          5.520537        5.519844   0.226222   0.232158
     57          6.460732        6.460738   0.000000   0.000000
     58          6.508306        6.508194   0.000000   0.000000
     59          6.670395        6.670322   0.000000   0.000000
     60          6.754975        6.754928   0.000000   0.000000
     61          6.828638        6.828510   0.000000   0.000000
     62          6.934512        6.934415   0.000000   0.000000
     63          7.048739        7.048532   0.000000   0.000000
     64          7.189150        7.189058   0.000000   0.000000
     65          7.437754        7.437521   0.000000   0.000000
     66          7.469541        7.469332   0.000000   0.000000
     67          7.611821        7.611633   0.000000   0.000000
     68          7.638882        7.638780   0.000000   0.000000
     69          7.749460        7.749414   0.000000   0.000000
     70          7.997001        7.996805   0.000000   0.000000
 
 -0.4000000E+00  0.4285714E+00  0.4000000E+00  0.1142857E-01
      1        -33.837042      -33.837118   1.000000   1.000000
      2        -33.832107      -33.832119   1.000000   1.000000
      3        -33.821757      -33.821836   1.000000   1.000000
      4        -33.817244      -33.817253   1.000000   1.000000
      5        -20.438199      -20.438293   1.000000   1.000000
      6        -20.430661      -20.430765   1.000000   1.000000
      7        -20.339744      -20.339979   1.000000   1.000000
      8        -20.329047      -20.329291   1.000000   1.000000
      9        -18.795258      -18.795412   1.000000   1.000000
     10        -18.786006      -18.786141   1.000000   1.000000
     11        -18.685387      -18.685478   1.000000   1.000000
     12        -18.671517      -18.671606   1.000000   1.000000
     13        -15.214049      -15.214097   1.000000   1.000000
     14        -15.201210      -15.201332   1.000000   1.000000
     15        -15.024569      -15.024623   1.000000   1.000000
     16        -15.019808      -15.019827   1.000000   1.000000
     17        -15.008674      -15.008696   1.000000   1.000000
     18        -15.002396      -15.002473   1.000000   1.000000
     19        -14.968658      -14.968759   1.000000   1.000000
     20        -14.964164      -14.964209   1.000000   1.000000
     21        -14.675599      -14.675701   1.000000   1.000000
     22        -14.664277      -14.664316   1.000000   1.000000
     23        -14.639933      -14.640046   1.000000   1.000000
     24        -14.631841      -14.631883   1.000000   1.000000
     25         -6.393007       -6.393087   1.000000   1.000000
     26         -6.342858       -6.343175   1.000000   1.000000
     27         -6.336120       -6.336230   1.000000   1.000000
     28         -6.275586       -6.275930   1.000000   1.000000
     29         -5.341910       -5.342065   1.000000   1.000000
     30         -5.303992       -5.304048   1.000000   1.000000
     31         -5.023200       -5.023357   1.000000   1.000000
     32         -4.975043       -4.975096   1.000000   1.000000
     33         -4.802133       -4.802493   1.000000   1.000000
     34         -4.790906       -4.791023   1.000000   1.000000
     35         -4.552956       -4.553129   1.000000   1.000000
     36         -4.533198       -4.533401   1.000000   1.000000
     37         -4.147610       -4.147730   1.000000   1.000000
     38         -4.136694       -4.136814   1.000000   1.000000
     39         -4.118417       -4.119003   1.000000   1.000000
     40         -4.099444       -4.100042   1.000000   1.000000
     41         -1.518375       -1.518431   1.000000   1.000000
     42         -1.499951       -1.500147   1.000000   1.000000
     43         -1.410647       -1.410725   1.000000   1.000000
     44         -1.306994       -1.307094   1.000000   1.000000
     45         -1.152182       -1.152442   1.000000   1.000000
     46         -1.095216       -1.095309   1.000000   1.000000
     47         -0.934493       -0.934747   1.000000   1.000000
     48         -0.900749       -0.900810   1.000000   1.000000
     49          4.133769        4.133585   1.000000   1.000000
     50          4.141335        4.141092   1.000000   1.000000
     51          4.381914        4.381755   1.000000   1.000000
     52          4.469311        4.469116   1.000000   1.000000
     53          5.359829        5.359554   0.999926   0.999928
     54          5.386371        5.384916   0.998830   0.998981
     55          5.408966        5.409303   0.991899   0.991686
     56          5.450033        5.449157   0.893027   0.897526
     57          6.189103        6.189009   0.000000   0.000000
     58          6.415125        6.415060   0.000000   0.000000
     59          6.577839        6.577763   0.000000   0.000000
     60          6.669869        6.669769   0.000000   0.000000
     61          6.729480        6.729426   0.000000   0.000000
     62          6.789433        6.789379   0.000000   0.000000
     63          7.109771        7.109654   0.000000   0.000000
     64          7.161551        7.161504   0.000000   0.000000
     65          7.574092        7.573863   0.000000   0.000000
     66          7.671332        7.671115   0.000000   0.000000
     67          7.694098        7.693990   0.000000   0.000000
     68          7.761824        7.761643   0.000000   0.000000
     69          7.981288        7.981040   0.000000   0.000000
     70          7.990102        7.989975   0.000000   0.000000
 
  0.4000000E+00  0.4285714E+00 -0.4000000E+00  0.1142857E-01
      1        -33.837042      -33.837118   1.000000   1.000000
      2        -33.832107      -33.832119   1.000000   1.000000
      3        -33.821757      -33.821836   1.000000   1.000000
      4        -33.817244      -33.817253   1.000000   1.000000
      5        -20.438195      -20.438297   1.000000   1.000000
      6        -20.430666      -20.430761   1.000000   1.000000
      7        -20.339740      -20.339982   1.000000   1.000000
      8        -20.329050      -20.329288   1.000000   1.000000
      9        -18.795269      -18.795403   1.000000   1.000000
     10        -18.785995      -18.786151   1.000000   1.000000
     11        -18.685388      -18.685476   1.000000   1.000000
     12        -18.671516      -18.671607   1.000000   1.000000
     13        -15.214046      -15.214099   1.000000   1.000000
     14        -15.201212      -15.201330   1.000000   1.000000
     15        -15.024569      -15.024624   1.000000   1.000000
     16        -15.019811      -15.019824   1.000000   1.000000
     17        -15.008673      -15.008697   1.000000   1.000000
     18        -15.002392      -15.002477   1.000000   1.000000
     19        -14.968664      -14.968753   1.000000   1.000000
     20        -14.964161      -14.964211   1.000000   1.000000
     21        -14.675615      -14.675685   1.000000   1.000000
     22        -14.664263      -14.664331   1.000000   1.000000
     23        -14.639940      -14.640040   1.000000   1.000000
     24        -14.631833      -14.631891   1.000000   1.000000
     25         -6.393000       -6.393094   1.000000   1.000000
     26         -6.342860       -6.343174   1.000000   1.000000
     27         -6.336118       -6.336232   1.000000   1.000000
     28         -6.275594       -6.275922   1.000000   1.000000
     29         -5.341911       -5.342064   1.000000   1.000000
     30         -5.303993       -5.304047   1.000000   1.000000
     31         -5.023198       -5.023358   1.000000   1.000000
     32         -4.975041       -4.975098   1.000000   1.000000
     33         -4.802155       -4.802471   1.000000   1.000000
     34         -4.790885       -4.791043   1.000000   1.000000
     35         -4.552939       -4.553145   1.000000   1.000000
     36         -4.533215       -4.533385   1.000000   1.000000
     37         -4.147608       -4.147732   1.000000   1.000000
     38         -4.136688       -4.136821   1.000000   1.000000
     39         -4.118396       -4.119023   1.000000   1.000000
     40         -4.099474       -4.100013   1.000000   1.000000
     41         -1.518381       -1.518425   1.000000   1.000000
     42         -1.499954       -1.500145   1.000000   1.000000
     43         -1.410643       -1.410728   1.000000   1.000000
     44         -1.306995       -1.307094   1.000000   1.000000
     45         -1.152182       -1.152442   1.000000   1.000000
     46         -1.095199       -1.095325   1.000000   1.000000
     47         -0.934499       -0.934741   1.000000   1.000000
     48         -0.900754       -0.900805   1.000000   1.000000
     49          4.133760        4.133594   1.000000   1.000000
     50          4.141341        4.141085   1.000000   1.000000
     51          4.381932        4.381738   1.000000   1.000000
     52          4.469299        4.469127   1.000000   1.000000
     53          5.359967        5.359413   0.999925   0.999929
     54          5.385697        5.385589   0.998902   0.998914
     55          5.409714        5.408557   0.991418   0.992152
     56          5.449816        5.449377   0.894155   0.896411
     57          6.189113        6.189000   0.000000   0.000000
     58          6.415104        6.415080   0.000000   0.000000
     59          6.577857        6.577745   0.000000   0.000000
     60          6.669865        6.669771   0.000000   0.000000
     61          6.729484        6.729423   0.000000   0.000000
     62          6.789422        6.789390   0.000000   0.000000
     63          7.109774        7.109651   0.000000   0.000000
     64          7.161549        7.161506   0.000000   0.000000
     65          7.574143        7.573811   0.000000   0.000000
     66          7.671258        7.671188   0.000000   0.000000
     67          7.694111        7.693977   0.000000   0.000000
     68          7.761818        7.761650   0.000000   0.000000
     69          7.981220        7.981024   0.000000   0.000000
     70          7.990123        7.989959   0.000000   0.000000
 
 -0.2000000E+00  0.4285714E+00  0.4000000E+00  0.1142857E-01
      1        -33.836199      -33.836270   1.000000   1.000000
      2        -33.830575      -33.830592   1.000000   1.000000
      3        -33.822990      -33.823068   1.000000   1.000000
      4        -33.818419      -33.818428   1.000000   1.000000
      5        -20.430377      -20.430472   1.000000   1.000000
      6        -20.424831      -20.424934   1.000000   1.000000
      7        -20.332294      -20.332529   1.000000   1.000000
      8        -20.320398      -20.320642   1.000000   1.000000
      9        -18.817505      -18.817659   1.000000   1.000000
     10        -18.800278      -18.800415   1.000000   1.000000
     11        -18.704326      -18.704414   1.000000   1.000000
     12        -18.682708      -18.682800   1.000000   1.000000
     13        -15.165936      -15.165993   1.000000   1.000000
     14        -15.152402      -15.152511   1.000000   1.000000
     15        -15.030706      -15.030750   1.000000   1.000000
     16        -15.023706      -15.023792   1.000000   1.000000
     17        -15.019395      -15.019439   1.000000   1.000000
     18        -15.006040      -15.006077   1.000000   1.000000
     19        -14.954448      -14.954515   1.000000   1.000000
     20        -14.945865      -14.945902   1.000000   1.000000
     21        -14.686245      -14.686353   1.000000   1.000000
     22        -14.669550      -14.669590   1.000000   1.000000
     23        -14.655661      -14.655754   1.000000   1.000000
     24        -14.647308      -14.647369   1.000000   1.000000
     25         -6.527403       -6.527485   1.000000   1.000000
     26         -6.482923       -6.483255   1.000000   1.000000
     27         -6.411623       -6.411715   1.000000   1.000000
     28         -6.360295       -6.360639   1.000000   1.000000
     29         -5.151614       -5.151785   1.000000   1.000000
     30         -5.131129       -5.131187   1.000000   1.000000
     31         -4.993675       -4.993838   1.000000   1.000000
     32         -4.948125       -4.948184   1.000000   1.000000
     33         -4.713914       -4.714215   1.000000   1.000000
     34         -4.690072       -4.690204   1.000000   1.000000
     35         -4.565194       -4.565363   1.000000   1.000000
     36         -4.534437       -4.534645   1.000000   1.000000
     37         -4.127961       -4.128073   1.000000   1.000000
     38         -4.100432       -4.100898   1.000000   1.000000
     39         -4.082637       -4.082847   1.000000   1.000000
     40         -4.042353       -4.043008   1.000000   1.000000
     41         -1.556210       -1.556347   1.000000   1.000000
     42         -1.501367       -1.501501   1.000000   1.000000
     43         -1.447184       -1.447273   1.000000   1.000000
     44         -1.320137       -1.320376   1.000000   1.000000
     45         -1.277475       -1.277569   1.000000   1.000000
     46         -1.204628       -1.204743   1.000000   1.000000
     47         -1.085431       -1.085598   1.000000   1.000000
     48         -1.009640       -1.009773   1.000000   1.000000
     49          4.200362        4.200153   1.000000   1.000000
     50          4.273589        4.273402   1.000000   1.000000
     51          4.293937        4.293702   1.000000   1.000000
     52          4.382918        4.382753   1.000000   1.000000
     53          5.377073        5.376515   0.999528   0.999553
     54          5.478936        5.478673   0.664694   0.667400
     55          5.568716        5.568029   0.017254   0.018101
     56          5.591155        5.590575   0.002991   0.003144
     57          6.122304        6.122145   0.000000   0.000000
     58          6.361929        6.361859   0.000000   0.000000
     59          6.602926        6.602856   0.000000   0.000000
     60          6.714714        6.714718   0.000000   0.000000
     61          6.809257        6.809066   0.000000   0.000000
     62          6.877792        6.877730   0.000000   0.000000
     63          7.063752        7.063614   0.000000   0.000000
     64          7.160379        7.160255   0.000000   0.000000
     65          7.316983        7.316720   0.000000   0.000000
     66          7.386806        7.386713   0.000000   0.000000
     67          7.680458        7.680271   0.000000   0.000000
     68          7.774265        7.774129   0.000000   0.000000
     69          7.794705        7.794576   0.000000   0.000000
     70          7.939507        7.939343   0.000000   0.000000
 
  0.2000000E+00  0.4285714E+00 -0.4000000E+00  0.1142857E-01
      1        -33.836199      -33.836270   1.000000   1.000000
      2        -33.830575      -33.830591   1.000000   1.000000
      3        -33.822990      -33.823068   1.000000   1.000000
      4        -33.818419      -33.818428   1.000000   1.000000
      5        -20.430374      -20.430476   1.000000   1.000000
      6        -20.424835      -20.424931   1.000000   1.000000
      7        -20.332290      -20.332533   1.000000   1.000000
      8        -20.320402      -20.320639   1.000000   1.000000
      9        -18.817513      -18.817652   1.000000   1.000000
     10        -18.800270      -18.800422   1.000000   1.000000
     11        -18.704325      -18.704415   1.000000   1.000000
     12        -18.682709      -18.682799   1.000000   1.000000
     13        -15.165941      -15.165988   1.000000   1.000000
     14        -15.152395      -15.152518   1.000000   1.000000
     15        -15.030708      -15.030748   1.000000   1.000000
     16        -15.023698      -15.023800   1.000000   1.000000
     17        -15.019402      -15.019432   1.000000   1.000000
     18        -15.006038      -15.006079   1.000000   1.000000
     19        -14.954446      -14.954517   1.000000   1.000000
     20        -14.945871      -14.945896   1.000000   1.000000
     21        -14.686267      -14.686330   1.000000   1.000000
     22        -14.669529      -14.669613   1.000000   1.000000
     23        -14.655654      -14.655761   1.000000   1.000000
     24        -14.647314      -14.647362   1.000000   1.000000
     25         -6.527401       -6.527488   1.000000   1.000000
     26         -6.482919       -6.483258   1.000000   1.000000
     27         -6.411625       -6.411713   1.000000   1.000000
     28         -6.360300       -6.360635   1.000000   1.000000
     29         -5.151619       -5.151781   1.000000   1.000000
     30         -5.131130       -5.131187   1.000000   1.000000
     31         -4.993670       -4.993842   1.000000   1.000000
     32         -4.948122       -4.948186   1.000000   1.000000
     33         -4.713949       -4.714181   1.000000   1.000000
     34         -4.690038       -4.690239   1.000000   1.000000
     35         -4.565172       -4.565384   1.000000   1.000000
     36         -4.534459       -4.534624   1.000000   1.000000
     37         -4.127941       -4.128094   1.000000   1.000000
     38         -4.100452       -4.100879   1.000000   1.000000
     39         -4.082623       -4.082860   1.000000   1.000000
     40         -4.042368       -4.042993   1.000000   1.000000
     41         -1.556233       -1.556324   1.000000   1.000000
     42         -1.501355       -1.501514   1.000000   1.000000
     43         -1.447185       -1.447272   1.000000   1.000000
     44         -1.320135       -1.320378   1.000000   1.000000
     45         -1.277463       -1.277581   1.000000   1.000000
     46         -1.204621       -1.204749   1.000000   1.000000
     47         -1.085409       -1.085619   1.000000   1.000000
     48         -1.009669       -1.009744   1.000000   1.000000
     49          4.200340        4.200175   1.000000   1.000000
     50          4.273598        4.273394   1.000000   1.000000
     51          4.293967        4.293673   1.000000   1.000000
     52          4.382905        4.382766   1.000000   1.000000
     53          5.376989        5.376599   0.999532   0.999550
     54          5.479187        5.478421   0.662101   0.669980
     55          5.568453        5.568294   0.017575   0.017771
     56          5.591227        5.590502   0.002973   0.003164
     57          6.122336        6.122114   0.000000   0.000000
     58          6.361927        6.361861   0.000000   0.000000
     59          6.602937        6.602845   0.000000   0.000000
     60          6.714736        6.714696   0.000000   0.000000
     61          6.809233        6.809091   0.000000   0.000000
     62          6.877778        6.877744   0.000000   0.000000
     63          7.063743        7.063622   0.000000   0.000000
     64          7.160360        7.160275   0.000000   0.000000
     65          7.317007        7.316696   0.000000   0.000000
     66          7.386804        7.386714   0.000000   0.000000
     67          7.680467        7.680261   0.000000   0.000000
     68          7.774230        7.774164   0.000000   0.000000
     69          7.794653        7.794629   0.000000   0.000000
     70          7.939557        7.939249   0.000000   0.000000
