       N       E                     dE             d eps       ncg     rms          rms(c)
DAV:   1     0.915907896042E+03    0.91591E+03   -0.55500E+04 24640   0.147E+03
DAV:   2    -0.263558329210E+02   -0.94226E+03   -0.91554E+03 29530   0.378E+02
DAV:   3    -0.105630380477E+03   -0.79275E+02   -0.77572E+02 34220   0.106E+02
DAV:   4    -0.109754301288E+03   -0.41239E+01   -0.40760E+01 40210   0.193E+01
DAV:   5    -0.109896388005E+03   -0.14209E+00   -0.14174E+00 34040   0.309E+00    0.241E+01
DAV:   6    -0.102235220447E+03    0.76612E+01   -0.56596E+01 31240   0.232E+01    0.115E+01
DAV:   7    -0.102284665481E+03   -0.49445E-01   -0.50800E+00 32820   0.753E+00    0.610E+00
DAV:   8    -0.102336306343E+03   -0.51641E-01   -0.69005E-01 33690   0.339E+00    0.202E+00
DAV:   9    -0.102366848941E+03   -0.30543E-01   -0.15293E-01 32380   0.154E+00    0.705E-01
DAV:  10    -0.102369755770E+03   -0.29068E-02   -0.45129E-02 35510   0.664E-01    0.369E-01
DAV:  11    -0.102372263833E+03   -0.25081E-02   -0.12850E-02 32580   0.344E-01    0.237E-01
DAV:  12    -0.102374061806E+03   -0.17980E-02   -0.42922E-03 32220   0.211E-01    0.157E-01
DAV:  13    -0.102375249472E+03   -0.11877E-02   -0.27913E-03 33660   0.159E-01    0.134E-01
DAV:  14    -0.102375948843E+03   -0.69937E-03   -0.15274E-03 33130   0.117E-01    0.112E-01
DAV:  15    -0.102377226348E+03   -0.12775E-02   -0.24403E-03 33370   0.148E-01    0.109E-01
DAV:  16    -0.102377939547E+03   -0.71320E-03   -0.88071E-04 34690   0.851E-02    0.111E-01
DAV:  17    -0.102377146453E+03    0.79309E-03   -0.98936E-04 32420   0.931E-02    0.111E-01
DAV:  18    -0.102375759723E+03    0.13867E-02   -0.29936E-03 33770   0.155E-01    0.112E-01
DAV:  19    -0.102375062466E+03    0.69726E-03   -0.86263E-04 34980   0.833E-02    0.115E-01
DAV:  20    -0.102378781210E+03   -0.37187E-02   -0.20661E-02 32560   0.419E-01    0.112E-01
DAV:  21    -0.102381193718E+03   -0.24125E-02   -0.13366E-01 33570   0.104E+00    0.208E-01
DAV:  22    -0.102382603859E+03   -0.14101E-02   -0.59302E-03 30170   0.258E-01    0.155E-01
DAV:  23    -0.102382810711E+03   -0.20685E-03   -0.37508E-04 37750   0.545E-02    0.135E-01
DAV:  24    -0.102383398287E+03   -0.58758E-03   -0.60319E-03 32330   0.221E-01    0.554E-02
DAV:  25    -0.102383313240E+03    0.85047E-04   -0.10310E-03 31140   0.101E-01    0.663E-02
DAV:  26    -0.102383404717E+03   -0.91478E-04   -0.27968E-03 32140   0.151E-01    0.264E-02
DAV:  27    -0.102383385641E+03    0.19076E-04   -0.14400E-03 31720   0.116E-01    0.401E-02
DAV:  28    -0.102383410696E+03   -0.25055E-04   -0.18454E-03 31780   0.124E-01    0.214E-02
DAV:  29    -0.102383461154E+03   -0.50458E-04   -0.30200E-04 30500   0.548E-02    0.682E-03
DAV:  30    -0.102383461587E+03   -0.43257E-06   -0.36832E-05 33370   0.170E-02    0.537E-03
DAV:  31    -0.102383463097E+03   -0.15101E-05   -0.72105E-06 30040   0.805E-03    0.288E-03
DAV:  32    -0.102383463404E+03   -0.30706E-06   -0.19567E-06 20070   0.327E-03
   1 F= -.10238346E+03 E0= -.10237628E+03  d E =-.143752E-01  mag=    -0.0014
