 vasp.6.3.1 04May22 (build Oct 09 2023 22:45:39) complex                        
  
 executed on             LinuxIFC date 2026.09.14  00:33:08
 running on   20 total cores
 distrk:  each k-point on   20 cores,    1 groups
 distr:  one band on NCORE=   4 cores,    5 groups


--------------------------------------------------------------------------------------------------------


 INCAR:
   ADDGRID = True
   ALGO = Normal
   EDIFF = 1e-06
   EDIFFG = -0.02
   ENCUT = 520.0
   IBRION = -1
   ISIF = 3
   ISMEAR = 0
   ISPIN = 2
   ISYM = 0
   LASPH = True
   LCHARG = False
   LMAXMIX = 6
   LORBIT = 11
   LREAL = False
   LWAVE = False
   MAGMOM = 16*0.6
   NCORE = 4
   NELM = 200
   NSW = 0
   POTIM = 0.3
   PREC = Accurate
   SIGMA = 0.05

 POTCAR:    PAW_PBE Nd_3 06Sep2000                
 POTCAR:    PAW_PBE C 08Apr2002                   
 POTCAR:    PAW_PBE O 08Apr2002                   
 POTCAR:    PAW_PBE Nd_3 06Sep2000                
   SHA256 =  90782177844a5d17e05a83442c3981b109958f4399d5595472847236a982ac31 Nd_3/POTCAR           
   COPYR  = (c) Copyright 06Sep2000 Georg Kresse                                                    
   COPYR  = This file is part of the software VASP. Any use, copying, and all other rights are regul
   COPYR  = If you do not have a valid VASP license, you may not use, copy or distribute this file. 
   VRHFIN =Nd : [core=Xe4]                                                                          
   LEXCH  = PE                                                                                      
   EATOM  =   934.1494 eV,   68.6580 Ry                                                             
                                                                                                    
   TITEL  = PAW_PBE Nd_3 06Sep2000                                                                  
   LULTRA =        F    use ultrasoft PP ?                                                          
   IUNSCR =        1    unscreen: 0-lin 1-nonlin 2-no                                               
   RPACOR =    2.400    partial core radius                                                         
   POMASS =  144.240; ZVAL   =   11.000    mass and valenz                                          
   RCORE  =    2.800    outmost cutoff radius                                                       
   RWIGS  =    3.000; RWIGS  =    1.588    wigner-seitz radius (au A)                               
   ENMAX  =  182.619; ENMIN  =  136.964 eV                                                          
   RCLOC  =    2.418    cutoff for local pot                                                        
   LCOR   =        T    correct aug charges                                                         
   LPAW   =        T    paw PP                                                                      
   EAUG   =  299.021                                                                                
   DEXC   =    0.000                                                                                
   RMAX   =    2.866    core radius for proj-oper                                                   
   RAUG   =    1.300    factor for augmentation sphere                                              
   RDEP   =    2.838    radius for radial grids                                                     
   RDEPT  =    2.433    core radius for aug-charge                                                  
                                                                                                    
   Atomic configuration                                                                             
   14 entries                                                                                       
     n  l   j            E        occ.                                                              
     1  0  0.50    -43395.8286   2.0000                                                             
     2  0  0.50     -7023.8781   2.0000                                                             
     2  1  1.50     -6278.5294   6.0000                                                             
     3  0  0.50     -1529.8925   2.0000                                                             
     3  1  1.50     -1294.9660   6.0000                                                             
     3  2  2.50      -969.3626  10.0000                                                             
     4  0  0.50      -309.7145   2.0000                                                             
     4  1  1.50      -232.6371   6.0000                                                             
     4  2  2.50      -123.0912  10.0000                                                             
     4  3  2.50        -6.9199   3.0000                                                             
     5  0  0.50       -43.6910   2.0000                                                             
     6  0  0.50        -3.8688   2.0000                                                             
     5  1  1.50       -24.6661   6.0000                                                             
     5  2  2.50        -2.9249   1.0000                                                             
   Description                                                                                      
     l       E           TYP  RCUT    TYP  RCUT                                                     
     0    -43.6910211     23  2.800                                                                 
     0     -3.8687565     23  2.800                                                                 
     1    -24.6660554     23  2.800                                                                 
     1     13.6058260     23  2.800                                                                 
     2     -2.9249058     23  2.800                                                                 
     2      0.2001824     23  2.800                                                                 
  local pseudopotential read in
  partial core-charges read in
  partial kinetic energy density read in
  atomic valenz-charges read in
  non local Contribution for L=           0  read in
    real space projection operators read in
  non local Contribution for L=           0  read in
    real space projection operators read in
  non local Contribution for L=           1  read in
    real space projection operators read in
  non local Contribution for L=           1  read in
    real space projection operators read in
  non local Contribution for L=           2  read in
    real space projection operators read in
  non local Contribution for L=           2  read in
    real space projection operators read in
    PAW grid and wavefunctions read in
 
   number of l-projection  operators is LMAX  =           6
   number of lm-projection operators is LMMAX =          18
 
 POTCAR:    PAW_PBE C 08Apr2002                   
   SHA256 =  253f7b50bb8d59471dbedb8285d89021f4a42ed1a2c5d38a03a736e69125dd95 C/POTCAR              
   COPYR  = (c) Copyright 08Apr2002 Georg Kresse                                                    
   COPYR  = This file is part of the software VASP. Any use, copying, and all other rights are regul
   COPYR  = If you do not have a valid VASP license, you may not use, copy or distribute this file. 
   VRHFIN =C: s2p2                                                                                  
   LEXCH  = PE                                                                                      
   EATOM  =   147.1560 eV,   10.8157 Ry                                                             
                                                                                                    
   TITEL  = PAW_PBE C 08Apr2002                                                                     
   LULTRA =        F    use ultrasoft PP ?                                                          
   IUNSCR =        1    unscreen: 0-lin 1-nonlin 2-no                                               
   RPACOR =    1.200    partial core radius                                                         
   POMASS =   12.011; ZVAL   =    4.000    mass and valenz                                          
   RCORE  =    1.500    outmost cutoff radius                                                       
   RWIGS  =    1.630; RWIGS  =    0.863    wigner-seitz radius (au A)                               
   ENMAX  =  400.000; ENMIN  =  300.000 eV                                                          
   ICORE  =        2    local potential                                                             
   LCOR   =        T    correct aug charges                                                         
   LPAW   =        T    paw PP                                                                      
   EAUG   =  644.873                                                                                
   DEXC   =    0.000                                                                                
   RMAX   =    1.529    core radius for proj-oper                                                   
   RAUG   =    1.300    factor for augmentation sphere                                              
   RDEP   =    1.501    radius for radial grids                                                     
   RDEPT  =    1.300    core radius for aug-charge                                                  
                                                                                                    
   Atomic configuration                                                                             
    4 entries                                                                                       
     n  l   j            E        occ.                                                              
     1  0  0.50      -273.3789   2.0000                                                             
     2  0  0.50       -13.7508   2.0000                                                             
     2  1  0.50        -5.2854   2.0000                                                             
     3  2  1.50        -5.4423   0.0000                                                             
   Description                                                                                      
     l       E           TYP  RCUT    TYP  RCUT                                                     
     0    -13.7508458     23  1.200                                                                 
     0     -8.2022199     23  1.200                                                                 
     1     -5.2854383     23  1.500                                                                 
     1     34.0145650     23  1.500                                                                 
     2     -5.4423304      7  1.500                                                                 
  local pseudopotential read in
  partial core-charges read in
  partial kinetic energy density read in
  atomic valenz-charges read in
  non local Contribution for L=           0  read in
    real space projection operators read in
  non local Contribution for L=           0  read in
    real space projection operators read in
  non local Contribution for L=           1  read in
    real space projection operators read in
  non local Contribution for L=           1  read in
    real space projection operators read in
    PAW grid and wavefunctions read in
 
   number of l-projection  operators is LMAX  =           4
   number of lm-projection operators is LMMAX =           8
 
 POTCAR:    PAW_PBE O 08Apr2002                   
   SHA256 =  818f92134a0a090dccd8ba1447fa70422a3b330e708bb4f08108d8ae51209ddf O/POTCAR              
   COPYR  = (c) Copyright 08Apr2002 Georg Kresse                                                    
   COPYR  = This file is part of the software VASP. Any use, copying, and all other rights are regul
   COPYR  = If you do not have a valid VASP license, you may not use, copy or distribute this file. 
   VRHFIN =O: s2p4                                                                                  
   LEXCH  = PE                                                                                      
   EATOM  =   432.3788 eV,   31.7789 Ry                                                             
                                                                                                    
   TITEL  = PAW_PBE O 08Apr2002                                                                     
   LULTRA =        F    use ultrasoft PP ?                                                          
   IUNSCR =        1    unscreen: 0-lin 1-nonlin 2-no                                               
   RPACOR =    1.200    partial core radius                                                         
   POMASS =   16.000; ZVAL   =    6.000    mass and valenz                                          
   RCORE  =    1.520    outmost cutoff radius                                                       
   RWIGS  =    1.550; RWIGS  =    0.820    wigner-seitz radius (au A)                               
   ENMAX  =  400.000; ENMIN  =  300.000 eV                                                          
   ICORE  =        2    local potential                                                             
   LCOR   =        T    correct aug charges                                                         
   LPAW   =        T    paw PP                                                                      
   EAUG   =  605.392                                                                                
   DEXC   =    0.000                                                                                
   RMAX   =    1.553    core radius for proj-oper                                                   
   RAUG   =    1.300    factor for augmentation sphere                                              
   RDEP   =    1.550    radius for radial grids                                                     
   RDEPT  =    1.329    core radius for aug-charge                                                  
                                                                                                    
   Atomic configuration                                                                             
    4 entries                                                                                       
     n  l   j            E        occ.                                                              
     1  0  0.50      -514.6923   2.0000                                                             
     2  0  0.50       -23.9615   2.0000                                                             
     2  1  0.50        -9.0305   4.0000                                                             
     3  2  1.50        -9.5241   0.0000                                                             
   Description                                                                                      
     l       E           TYP  RCUT    TYP  RCUT                                                     
     0    -23.9615318     23  1.200                                                                 
     0     -9.5240782     23  1.200                                                                 
     1     -9.0304911     23  1.520                                                                 
     1      8.1634956     23  1.520                                                                 
     2     -9.5240782      7  1.500                                                                 
  local pseudopotential read in
  partial core-charges read in
  partial kinetic energy density read in
  kinetic energy density of atom read in
  atomic valenz-charges read in
  non local Contribution for L=           0  read in
    real space projection operators read in
  non local Contribution for L=           0  read in
    real space projection operators read in
  non local Contribution for L=           1  read in
    real space projection operators read in
  non local Contribution for L=           1  read in
    real space projection operators read in
    PAW grid and wavefunctions read in
 
   number of l-projection  operators is LMAX  =           4
   number of lm-projection operators is LMMAX =           8
 
  PAW_PBE Nd_3 06Sep2000                :
 energy of atom  1       EATOM= -934.1494
 kinetic energy error for atom=    0.0006 (will be added to EATOM!!)
  PAW_PBE C 08Apr2002                   :
 energy of atom  2       EATOM= -147.1560
 kinetic energy error for atom=    0.0071 (will be added to EATOM!!)
  PAW_PBE O 08Apr2002                   :
 energy of atom  3       EATOM= -432.3788
 kinetic energy error for atom=    0.0208 (will be added to EATOM!!)
 
 
 POSCAR: Nd4 C4 O8
  positions in direct lattice
  No initial velocities read in
 exchange correlation table for  LEXCH =        8
   RHO(1)=    0.500       N(1)  =     2000
   RHO(2)=  100.500       N(2)  =     4000
 


--------------------------------------------------------------------------------------------------------


 ion  position               nearest neighbor table
   1  0.253  0.248  0.012-  11 2.48   6 2.51   6 2.57  13 2.64  12 2.65  14 2.68  16 2.78  16 2.83
                            10 2.84  10 2.85
   2  0.747  0.248  0.488-  12 2.48   5 2.51   5 2.57  14 2.64  11 2.65  13 2.68  15 2.78  15 2.83
                             9 2.84   9 2.85
   3  0.747  0.752  0.988-   9 2.48   8 2.49   8 2.58  15 2.64  10 2.65  16 2.68  14 2.78  14 2.83
                            12 2.84  12 2.85
   4  0.253  0.752  0.512-  10 2.48   7 2.49   7 2.58  16 2.64   9 2.65  15 2.68  13 2.78  13 2.83
                            11 2.84  11 2.85
   5  0.754  0.743  0.512-   9 1.21  15 1.29   2 2.51   2 2.57
   6  0.246  0.743  0.988-  10 1.21  16 1.29   1 2.51   1 2.57
   7  0.254  0.243  0.512-  13 1.21  11 1.29   4 2.49   4 2.58
   8  0.746  0.243  0.988-  14 1.21  12 1.29   3 2.49   3 2.58
   9  0.641  0.747  0.608-   5 1.21   3 2.48   4 2.65   2 2.84   2 2.85
  10  0.359  0.747  0.892-   6 1.21   4 2.48   3 2.65   1 2.84   1 2.85
  11  0.359  0.253  0.392-   7 1.29   1 2.48   2 2.65   4 2.84   4 2.85
  12  0.641  0.253  0.108-   8 1.29   2 2.48   1 2.65   3 2.84   3 2.85
  13  0.141  0.247  0.608-   7 1.21   1 2.64   2 2.68   4 2.78   4 2.83
  14  0.859  0.247  0.892-   8 1.21   2 2.64   1 2.68   3 2.78   3 2.83
  15  0.859  0.753  0.392-   5 1.29   3 2.64   4 2.68   2 2.78   2 2.83
  16  0.141  0.753  0.108-   6 1.29   4 2.64   3 2.68   1 2.78   1 2.83
 

IMPORTANT INFORMATION: All symmetrisations will be switched off!
NOSYMM: (Re-)initialisation of all symmetry stuff for point group C_1.


----------------------------------------------------------------------------------------

                                     Primitive cell                                     

  volume of cell :     238.2078

  direct lattice vectors                    reciprocal lattice vectors
     7.096318245  0.000000000 -1.163181305     0.144979172  0.000000000  0.024775451
     0.000000000  5.073762894  0.000000000     0.000000000  0.197092379  0.000000000
    -1.163181305  0.000000000  6.806619167     0.024775451  0.000000000  0.151149685

  length of vectors
     7.191016853  5.073762894  6.905291829     0.147080873  0.197092379  0.153166740

  position of ions in fractional coordinates (direct lattice)
     0.252909839  0.248285726  0.012184566
     0.747090161  0.248285726  0.487815440
     0.747090161  0.751714289  0.987815440
     0.252909839  0.751714289  0.512184560
     0.754370332  0.742973506  0.511824906
     0.245629668  0.742973506  0.988175094
     0.254370332  0.242973566  0.511824906
     0.745629668  0.242973566  0.988175094
     0.641360581  0.747239947  0.608245611
     0.358639419  0.747239947  0.891754389
     0.358639419  0.252760053  0.391754389
     0.641360581  0.252760053  0.108245611
     0.141360521  0.247239947  0.608245611
     0.858639419  0.247239947  0.891754389
     0.858639419  0.752760053  0.391754389
     0.141360521  0.752760053  0.108245611

  ion indices of the primitive-cell ions
   primitive index   ion index
                 1           1
                 2           2
                 3           3
                 4           4
                 5           5
                 6           6
                 7           7
                 8           8
                 9           9
                10          10
                11          11
                12          12
                13          13
                14          14
                15          15
                16          16

----------------------------------------------------------------------------------------

 
 
 KPOINTS: pymatgen with grid density = 3000 / numb

Automatic generation of k-mesh.
 Grid dimensions read from file:
 generate k-points for:    5    7    5

 Generating k-lattice:

  Cartesian coordinates                     Fractional coordinates (reciprocal lattice)
     0.028995834  0.000000000  0.004955090     0.200000000  0.000000000 -0.000000000
     0.000000000  0.028156054  0.000000000     0.000000000  0.142857143  0.000000000
     0.004955090  0.000000000  0.030229937    -0.000000000  0.000000000  0.200000000

  Length of vectors
     0.029416175  0.028156054  0.030633348

  Shift w.r.t. Gamma in fractional coordinates (k-lattice)
     0.000000000  0.000000000  0.000000000

 
 Subroutine IBZKPT returns following result:
 ===========================================
 
 Found     88 irreducible k-points:
 
 Following reciprocal coordinates:
            Coordinates               Weight
  0.000000  0.000000  0.000000      1.000000
  0.200000  0.000000  0.000000      2.000000
  0.400000  0.000000 -0.000000      2.000000
  0.000000  0.142857  0.000000      2.000000
  0.200000  0.142857  0.000000      2.000000
 -0.200000  0.142857 -0.000000      2.000000
  0.400000  0.142857 -0.000000      2.000000
 -0.400000  0.142857  0.000000      2.000000
  0.000000  0.285714  0.000000      2.000000
  0.200000  0.285714  0.000000      2.000000
 -0.200000  0.285714 -0.000000      2.000000
  0.400000  0.285714 -0.000000      2.000000
 -0.400000  0.285714  0.000000      2.000000
  0.000000  0.428571  0.000000      2.000000
  0.200000  0.428571  0.000000      2.000000
 -0.200000  0.428571 -0.000000      2.000000
  0.400000  0.428571 -0.000000      2.000000
 -0.400000  0.428571  0.000000      2.000000
 -0.000000  0.000000  0.200000      2.000000
  0.200000  0.000000  0.200000      2.000000
  0.400000  0.000000  0.200000      2.000000
 -0.400000  0.000000  0.200000      2.000000
 -0.200000  0.000000  0.200000      2.000000
 -0.000000  0.142857  0.200000      2.000000
  0.000000  0.142857 -0.200000      2.000000
  0.200000  0.142857  0.200000      2.000000
 -0.200000  0.142857 -0.200000      2.000000
  0.400000  0.142857  0.200000      2.000000
 -0.400000  0.142857 -0.200000      2.000000
 -0.400000  0.142857  0.200000      2.000000
  0.400000  0.142857 -0.200000      2.000000
 -0.200000  0.142857  0.200000      2.000000
  0.200000  0.142857 -0.200000      2.000000
 -0.000000  0.285714  0.200000      2.000000
  0.000000  0.285714 -0.200000      2.000000
  0.200000  0.285714  0.200000      2.000000
 -0.200000  0.285714 -0.200000      2.000000
  0.400000  0.285714  0.200000      2.000000
 -0.400000  0.285714 -0.200000      2.000000
 -0.400000  0.285714  0.200000      2.000000
  0.400000  0.285714 -0.200000      2.000000
 -0.200000  0.285714  0.200000      2.000000
  0.200000  0.285714 -0.200000      2.000000
 -0.000000  0.428571  0.200000      2.000000
  0.000000  0.428571 -0.200000      2.000000
  0.200000  0.428571  0.200000      2.000000
 -0.200000  0.428571 -0.200000      2.000000
  0.400000  0.428571  0.200000      2.000000
 -0.400000  0.428571 -0.200000      2.000000
 -0.400000  0.428571  0.200000      2.000000
  0.400000  0.428571 -0.200000      2.000000
 -0.200000  0.428571  0.200000      2.000000
  0.200000  0.428571 -0.200000      2.000000
  0.000000  0.000000  0.400000      2.000000
  0.200000  0.000000  0.400000      2.000000
  0.400000  0.000000  0.400000      2.000000
 -0.400000  0.000000  0.400000      2.000000
 -0.200000  0.000000  0.400000      2.000000
  0.000000  0.142857  0.400000      2.000000
 -0.000000  0.142857 -0.400000      2.000000
  0.200000  0.142857  0.400000      2.000000
 -0.200000  0.142857 -0.400000      2.000000
  0.400000  0.142857  0.400000      2.000000
 -0.400000  0.142857 -0.400000      2.000000
 -0.400000  0.142857  0.400000      2.000000
  0.400000  0.142857 -0.400000      2.000000
 -0.200000  0.142857  0.400000      2.000000
  0.200000  0.142857 -0.400000      2.000000
  0.000000  0.285714  0.400000      2.000000
 -0.000000  0.285714 -0.400000      2.000000
  0.200000  0.285714  0.400000      2.000000
 -0.200000  0.285714 -0.400000      2.000000
  0.400000  0.285714  0.400000      2.000000
 -0.400000  0.285714 -0.400000      2.000000
 -0.400000  0.285714  0.400000      2.000000
  0.400000  0.285714 -0.400000      2.000000
 -0.200000  0.285714  0.400000      2.000000
  0.200000  0.285714 -0.400000      2.000000
  0.000000  0.428571  0.400000      2.000000
 -0.000000  0.428571 -0.400000      2.000000
  0.200000  0.428571  0.400000      2.000000
 -0.200000  0.428571 -0.400000      2.000000
  0.400000  0.428571  0.400000      2.000000
 -0.400000  0.428571 -0.400000      2.000000
 -0.400000  0.428571  0.400000      2.000000
  0.400000  0.428571 -0.400000      2.000000
 -0.200000  0.428571  0.400000      2.000000
  0.200000  0.428571 -0.400000      2.000000
 
 Following cartesian coordinates:
            Coordinates               Weight
  0.000000  0.000000  0.000000      1.000000
  0.028996  0.000000  0.004955      2.000000
  0.057992  0.000000  0.009910      2.000000
  0.000000  0.028156  0.000000      2.000000
  0.028996  0.028156  0.004955      2.000000
 -0.028996  0.028156 -0.004955      2.000000
  0.057992  0.028156  0.009910      2.000000
 -0.057992  0.028156 -0.009910      2.000000
  0.000000  0.056312  0.000000      2.000000
  0.028996  0.056312  0.004955      2.000000
 -0.028996  0.056312 -0.004955      2.000000
  0.057992  0.056312  0.009910      2.000000
 -0.057992  0.056312 -0.009910      2.000000
  0.000000  0.084468  0.000000      2.000000
  0.028996  0.084468  0.004955      2.000000
 -0.028996  0.084468 -0.004955      2.000000
  0.057992  0.084468  0.009910      2.000000
 -0.057992  0.084468 -0.009910      2.000000
  0.004955  0.000000  0.030230      2.000000
  0.033951  0.000000  0.035185      2.000000
  0.062947  0.000000  0.040140      2.000000
 -0.053037  0.000000  0.020320      2.000000
 -0.024041  0.000000  0.025275      2.000000
  0.004955  0.028156  0.030230      2.000000
 -0.004955  0.028156 -0.030230      2.000000
  0.033951  0.028156  0.035185      2.000000
 -0.033951  0.028156 -0.035185      2.000000
  0.062947  0.028156  0.040140      2.000000
 -0.062947  0.028156 -0.040140      2.000000
 -0.053037  0.028156  0.020320      2.000000
  0.053037  0.028156 -0.020320      2.000000
 -0.024041  0.028156  0.025275      2.000000
  0.024041  0.028156 -0.025275      2.000000
  0.004955  0.056312  0.030230      2.000000
 -0.004955  0.056312 -0.030230      2.000000
  0.033951  0.056312  0.035185      2.000000
 -0.033951  0.056312 -0.035185      2.000000
  0.062947  0.056312  0.040140      2.000000
 -0.062947  0.056312 -0.040140      2.000000
 -0.053037  0.056312  0.020320      2.000000
  0.053037  0.056312 -0.020320      2.000000
 -0.024041  0.056312  0.025275      2.000000
  0.024041  0.056312 -0.025275      2.000000
  0.004955  0.084468  0.030230      2.000000
 -0.004955  0.084468 -0.030230      2.000000
  0.033951  0.084468  0.035185      2.000000
 -0.033951  0.084468 -0.035185      2.000000
  0.062947  0.084468  0.040140      2.000000
 -0.062947  0.084468 -0.040140      2.000000
 -0.053037  0.084468  0.020320      2.000000
  0.053037  0.084468 -0.020320      2.000000
 -0.024041  0.084468  0.025275      2.000000
  0.024041  0.084468 -0.025275      2.000000
  0.009910  0.000000  0.060460      2.000000
  0.038906  0.000000  0.065415      2.000000
  0.067902  0.000000  0.070370      2.000000
 -0.048081  0.000000  0.050550      2.000000
 -0.019086  0.000000  0.055505      2.000000
  0.009910  0.028156  0.060460      2.000000
 -0.009910  0.028156 -0.060460      2.000000
  0.038906  0.028156  0.065415      2.000000
 -0.038906  0.028156 -0.065415      2.000000
  0.067902  0.028156  0.070370      2.000000
 -0.067902  0.028156 -0.070370      2.000000
 -0.048081  0.028156  0.050550      2.000000
  0.048081  0.028156 -0.050550      2.000000
 -0.019086  0.028156  0.055505      2.000000
  0.019086  0.028156 -0.055505      2.000000
  0.009910  0.056312  0.060460      2.000000
 -0.009910  0.056312 -0.060460      2.000000
  0.038906  0.056312  0.065415      2.000000
 -0.038906  0.056312 -0.065415      2.000000
  0.067902  0.056312  0.070370      2.000000
 -0.067902  0.056312 -0.070370      2.000000
 -0.048081  0.056312  0.050550      2.000000
  0.048081  0.056312 -0.050550      2.000000
 -0.019086  0.056312  0.055505      2.000000
  0.019086  0.056312 -0.055505      2.000000
  0.009910  0.084468  0.060460      2.000000
 -0.009910  0.084468 -0.060460      2.000000
  0.038906  0.084468  0.065415      2.000000
 -0.038906  0.084468 -0.065415      2.000000
  0.067902  0.084468  0.070370      2.000000
 -0.067902  0.084468 -0.070370      2.000000
 -0.048081  0.084468  0.050550      2.000000
  0.048081  0.084468 -0.050550      2.000000
 -0.019086  0.084468  0.055505      2.000000
  0.019086  0.084468 -0.055505      2.000000
 


--------------------------------------------------------------------------------------------------------




 Dimension of arrays:
   k-points           NKPTS =     88   k-points in BZ     NKDIM =     88   number of bands    NBANDS=     70
   number of dos      NEDOS =    301   number of ions     NIONS =     16
   non local maximal  LDIM  =      6   non local SUM 2l+1 LMDIM =     18
   total plane-waves  NPLWV = 116640
   max r-space proj   IRMAX =      1   max aug-charges    IRDMAX= 312230
   dimension x,y,z NGX =    54 NGY =   40 NGZ =   54
   dimension x,y,z NGXF=   108 NGYF=   80 NGZF=  108
   support grid    NGXF=   216 NGYF=  160 NGZF=  216
   ions per type =               4   4   8
   NGX,Y,Z   is equivalent  to a cutoff of  12.48, 13.11, 13.00 a.u.
   NGXF,Y,Z  is equivalent  to a cutoff of  24.97, 26.21, 26.00 a.u.

 SYSTEM =  unknown system                          
 POSCAR =  Nd4 C4 O8                               

 Startparameter for this run:
   NWRITE =      2    write-flag & timer
   PREC   = accura    normal or accurate (medium, high low for compatibility)
   ISTART =      0    job   : 0-new  1-cont  2-samecut
   ICHARG =      2    charge: 1-file 2-atom 10-const
   ISPIN  =      2    spin polarized calculation?
   LNONCOLLINEAR =      F non collinear calculations
   LSORBIT =      F    spin-orbit coupling
   INIWAV =      1    electr: 0-lowe 1-rand  2-diag
   LASPH  =      T    aspherical Exc in radial PAW
 Electronic Relaxation 1
   ENCUT  =  520.0 eV  38.22 Ry    6.18 a.u.  13.37  9.43 12.84*2*pi/ulx,y,z
   ENINI  =  520.0     initial cutoff
   ENAUG  =  644.9 eV  augmentation charge cutoff
   NELM   =    200;   NELMIN=  2; NELMDL= -5     # of ELM steps 
   EDIFF  = 0.1E-05   stopping-criterion for ELM
   LREAL  =      F    real-space projection
   NLSPLINE    = F    spline interpolate recip. space projectors
   LCOMPAT=      F    compatible to vasp.4.4
   GGA_COMPAT  = T    GGA compatible to vasp.4.4-vasp.4.6
   LMAXPAW     = -100 max onsite density
   LMAXMIX     =    6 max onsite mixed and CHGCAR
   VOSKOWN=      0    Vosko Wilk Nusair interpolation
   ROPT   =    0.00000   0.00000   0.00000
 Ionic relaxation
   EDIFFG = -.2E-01   stopping-criterion for IOM
   NSW    =      0    number of steps for IOM
   NBLOCK =      1;   KBLOCK =      1    inner block; outer block 
   IBRION =     -1    ionic relax: 0-MD 1-quasi-New 2-CG
   NFREE  =      0    steps in history (QN), initial steepest desc. (CG)
   ISIF   =      3    stress and relaxation
   IWAVPR =     10    prediction:  0-non 1-charg 2-wave 3-comb
   ISYM   =      0    0-nonsym 1-usesym 2-fastsym
   LCORR  =      T    Harris-Foulkes like correction to forces

   POTIM  = 0.3000    time-step for ionic-motion
   TEIN   =    0.0    initial temperature
   TEBEG  =    0.0;   TEEND  =   0.0 temperature during run
   SMASS  =  -3.00    Nose mass-parameter (am)
   estimated Nose-frequenzy (Omega)   =  0.10E-29 period in steps = 0.21E+47 mass=  -0.118E-26a.u.
   SCALEE = 1.0000    scale energy and forces
   NPACO  =    256;   APACO  = 10.0  distance and # of slots for P.C.
   PSTRESS=    0.0 pullay stress

  Mass of Ions in am
   POMASS = 144.24 12.01 16.00
  Ionic Valenz
   ZVAL   =  11.00  4.00  6.00
  Atomic Wigner-Seitz radii
   RWIGS  =  -1.00 -1.00 -1.00
  virtual crystal weights 
   VCA    =   1.00  1.00  1.00
   NELECT =     108.0000    total number of electrons
   NUPDOWN=      -1.0000    fix difference up-down

 DOS related values:
   EMIN   =  10.00;   EMAX   =-10.00  energy-range for DOS
   EFERMI =   0.00
   ISMEAR =     0;   SIGMA  =   0.05  broadening in eV -4-tet -1-fermi 0-gaus

 Electronic relaxation 2 (details)
   IALGO  =     38    algorithm
   LDIAG  =      T    sub-space diagonalisation (order eigenvalues)
   LSUBROT=      F    optimize rotation matrix (better conditioning)
   TURBO    =      0    0=normal 1=particle mesh
   IRESTART =      0    0=no restart 2=restart with 2 vectors
   NREBOOT  =      0    no. of reboots
   NMIN     =      0    reboot dimension
   EREF     =   0.00    reference energy to select bands
   IMIX   =      4    mixing-type and parameters
     AMIX     =   0.40;   BMIX     =  1.00
     AMIX_MAG =   1.60;   BMIX_MAG =  1.00
     AMIN     =   0.10
     WC   =   100.;   INIMIX=   1;  MIXPRE=   1;  MAXMIX= -45

 Intra band minimization:
   WEIMIN = 0.0000     energy-eigenvalue tresh-hold
   EBREAK =  0.36E-08  absolut break condition
   DEPER  =   0.30     relativ break condition  

   TIME   =   0.40     timestep for ELM

  volume/ion in A,a.u.               =      14.89       100.47
  Fermi-wavevector in a.u.,A,eV,Ry     =   1.257662  2.376637 21.520536  1.581715
  Thomas-Fermi vector in A             =   2.391310
 
 Write flags
   LWAVE        =      F    write WAVECAR
   LDOWNSAMPLE  =      F    k-point downsampling of WAVECAR
   LCHARG       =      F    write CHGCAR
   LVTOT        =      F    write LOCPOT, total local potential
   LVHAR        =      F    write LOCPOT, Hartree potential only
   LELF         =      F    write electronic localiz. function (ELF)
   LORBIT       =     11    0 simple, 1 ext, 2 COOP (PROOUT), +10 PAW based schemes


 Dipole corrections
   LMONO  =      F    monopole corrections only (constant potential shift)
   LDIPOL =      F    correct potential (dipole corrections)
   IDIPOL =      0    1-x, 2-y, 3-z, 4-all directions 
   EPSILON=  1.0000000 bulk dielectric constant

 Exchange correlation treatment:
   GGA     =    --    GGA type
   LEXCH   =     8    internal setting for exchange type
   LIBXC   =     F    Libxc                    
   VOSKOWN =     0    Vosko Wilk Nusair interpolation
   LHFCALC =     F    Hartree Fock is set to
   LHFONE  =     F    Hartree Fock one center treatment
   AEXX    =    0.0000 exact exchange contribution

 Linear response parameters
   LEPSILON=     F    determine dielectric tensor
   LRPA    =     F    only Hartree local field effects (RPA)
   LNABLA  =     F    use nabla operator in PAW spheres
   LVEL    =     F    velocity operator in full k-point grid
   CSHIFT  =0.1000    complex shift for real part using Kramers Kronig
   OMEGAMAX=  -1.0    maximum frequency
   DEG_THRESHOLD= 0.2000000E-02 threshold for treating states as degnerate
   RTIME   =   -0.100 relaxation time in fs
  (WPLASMAI=    0.000 imaginary part of plasma frequency in eV, 0.658/RTIME)
   DFIELD  = 0.0000000 0.0000000 0.0000000 field for delta impulse in time
 
  Optional k-point grid parameters
   LKPOINTS_OPT  =     F    use optional k-point grid
   KPOINTS_OPT_MODE=     1    mode for optional k-point grid
 
 Orbital magnetization related:
   ORBITALMAG=     F  switch on orbital magnetization
   LCHIMAG   =     F  perturbation theory with respect to B field
   DQ        =  0.001000  dq finite difference perturbation B field
   LLRAUG    =     F  two centre corrections for induced B field



--------------------------------------------------------------------------------------------------------


 Static calculation
 charge density and potential will be updated during run
 spin polarized calculation
 Variant of blocked Davidson
 Davidson routine will perform the subspace rotation
 perform sub-space diagonalisation
    after iterative eigenvector-optimisation
 modified Broyden-mixing scheme, WC =      100.0
 initial mixing is a Kerker type mixing with AMIX =  0.4000 and BMIX =      1.0000
 Hartree-type preconditioning will be used
 using additional bands           16
 reciprocal scheme for non local part
 use partial core corrections
 calculate Harris-corrections to forces 
   (improved forces if not selfconsistent)
 use gradient corrections 
 use of overlap-Matrix (Vanderbilt PP)
 Gauss-broadening in eV      SIGMA  =   0.05


--------------------------------------------------------------------------------------------------------


  energy-cutoff  :      520.00
  volume of cell :      238.21
      direct lattice vectors                 reciprocal lattice vectors
     7.096318245  0.000000000 -1.163181305     0.144979172  0.000000000  0.024775451
     0.000000000  5.073762894  0.000000000     0.000000000  0.197092379  0.000000000
    -1.163181305  0.000000000  6.806619167     0.024775451  0.000000000  0.151149685

  length of vectors
     7.191016853  5.073762894  6.905291829     0.147080873  0.197092379  0.153166740


 
 k-points in units of 2pi/SCALE and weight: pymatgen with grid density = 3000 / numb
   0.00000000  0.00000000  0.00000000       0.006
   0.02899583  0.00000000  0.00495509       0.011
   0.05799167  0.00000000  0.00991018       0.011
   0.00000000  0.02815605  0.00000000       0.011
   0.02899583  0.02815605  0.00495509       0.011
  -0.02899583  0.02815605 -0.00495509       0.011
   0.05799167  0.02815605  0.00991018       0.011
  -0.05799167  0.02815605 -0.00991018       0.011
   0.00000000  0.05631211  0.00000000       0.011
   0.02899583  0.05631211  0.00495509       0.011
  -0.02899583  0.05631211 -0.00495509       0.011
   0.05799167  0.05631211  0.00991018       0.011
  -0.05799167  0.05631211 -0.00991018       0.011
   0.00000000  0.08446816  0.00000000       0.011
   0.02899583  0.08446816  0.00495509       0.011
  -0.02899583  0.08446816 -0.00495509       0.011
   0.05799167  0.08446816  0.00991018       0.011
  -0.05799167  0.08446816 -0.00991018       0.011
   0.00495509  0.00000000  0.03022994       0.011
   0.03395092  0.00000000  0.03518503       0.011
   0.06294676  0.00000000  0.04014012       0.011
  -0.05303658  0.00000000  0.02031976       0.011
  -0.02404074  0.00000000  0.02527485       0.011
   0.00495509  0.02815605  0.03022994       0.011
  -0.00495509  0.02815605 -0.03022994       0.011
   0.03395092  0.02815605  0.03518503       0.011
  -0.03395092  0.02815605 -0.03518503       0.011
   0.06294676  0.02815605  0.04014012       0.011
  -0.06294676  0.02815605 -0.04014012       0.011
  -0.05303658  0.02815605  0.02031976       0.011
   0.05303658  0.02815605 -0.02031976       0.011
  -0.02404074  0.02815605  0.02527485       0.011
   0.02404074  0.02815605 -0.02527485       0.011
   0.00495509  0.05631211  0.03022994       0.011
  -0.00495509  0.05631211 -0.03022994       0.011
   0.03395092  0.05631211  0.03518503       0.011
  -0.03395092  0.05631211 -0.03518503       0.011
   0.06294676  0.05631211  0.04014012       0.011
  -0.06294676  0.05631211 -0.04014012       0.011
  -0.05303658  0.05631211  0.02031976       0.011
   0.05303658  0.05631211 -0.02031976       0.011
  -0.02404074  0.05631211  0.02527485       0.011
   0.02404074  0.05631211 -0.02527485       0.011
   0.00495509  0.08446816  0.03022994       0.011
  -0.00495509  0.08446816 -0.03022994       0.011
   0.03395092  0.08446816  0.03518503       0.011
  -0.03395092  0.08446816 -0.03518503       0.011
   0.06294676  0.08446816  0.04014012       0.011
  -0.06294676  0.08446816 -0.04014012       0.011
  -0.05303658  0.08446816  0.02031976       0.011
   0.05303658  0.08446816 -0.02031976       0.011
  -0.02404074  0.08446816  0.02527485       0.011
   0.02404074  0.08446816 -0.02527485       0.011
   0.00991018  0.00000000  0.06045987       0.011
   0.03890601  0.00000000  0.06541496       0.011
   0.06790185  0.00000000  0.07037005       0.011
  -0.04808149  0.00000000  0.05054969       0.011
  -0.01908565  0.00000000  0.05550478       0.011
   0.00991018  0.02815605  0.06045987       0.011
  -0.00991018  0.02815605 -0.06045987       0.011
   0.03890601  0.02815605  0.06541496       0.011
  -0.03890601  0.02815605 -0.06541496       0.011
   0.06790185  0.02815605  0.07037005       0.011
  -0.06790185  0.02815605 -0.07037005       0.011
  -0.04808149  0.02815605  0.05054969       0.011
   0.04808149  0.02815605 -0.05054969       0.011
  -0.01908565  0.02815605  0.05550478       0.011
   0.01908565  0.02815605 -0.05550478       0.011
   0.00991018  0.05631211  0.06045987       0.011
  -0.00991018  0.05631211 -0.06045987       0.011
   0.03890601  0.05631211  0.06541496       0.011
  -0.03890601  0.05631211 -0.06541496       0.011
   0.06790185  0.05631211  0.07037005       0.011
  -0.06790185  0.05631211 -0.07037005       0.011
  -0.04808149  0.05631211  0.05054969       0.011
   0.04808149  0.05631211 -0.05054969       0.011
  -0.01908565  0.05631211  0.05550478       0.011
   0.01908565  0.05631211 -0.05550478       0.011
   0.00991018  0.08446816  0.06045987       0.011
  -0.00991018  0.08446816 -0.06045987       0.011
   0.03890601  0.08446816  0.06541496       0.011
  -0.03890601  0.08446816 -0.06541496       0.011
   0.06790185  0.08446816  0.07037005       0.011
  -0.06790185  0.08446816 -0.07037005       0.011
  -0.04808149  0.08446816  0.05054969       0.011
   0.04808149  0.08446816 -0.05054969       0.011
  -0.01908565  0.08446816  0.05550478       0.011
   0.01908565  0.08446816 -0.05550478       0.011
 
 k-points in reciprocal lattice and weights: pymatgen with grid density = 3000 / numb
   0.00000000  0.00000000  0.00000000       0.006
   0.20000000  0.00000000  0.00000000       0.011
   0.40000000  0.00000000 -0.00000000       0.011
   0.00000000  0.14285714  0.00000000       0.011
   0.20000000  0.14285714  0.00000000       0.011
  -0.20000000  0.14285714 -0.00000000       0.011
   0.40000000  0.14285714 -0.00000000       0.011
  -0.40000000  0.14285714  0.00000000       0.011
   0.00000000  0.28571429  0.00000000       0.011
   0.20000000  0.28571429  0.00000000       0.011
  -0.20000000  0.28571429 -0.00000000       0.011
   0.40000000  0.28571429 -0.00000000       0.011
  -0.40000000  0.28571429  0.00000000       0.011
   0.00000000  0.42857143  0.00000000       0.011
   0.20000000  0.42857143  0.00000000       0.011
  -0.20000000  0.42857143 -0.00000000       0.011
   0.40000000  0.42857143 -0.00000000       0.011
  -0.40000000  0.42857143  0.00000000       0.011
  -0.00000000  0.00000000  0.20000000       0.011
   0.20000000  0.00000000  0.20000000       0.011
   0.40000000  0.00000000  0.20000000       0.011
  -0.40000000  0.00000000  0.20000000       0.011
  -0.20000000  0.00000000  0.20000000       0.011
  -0.00000000  0.14285714  0.20000000       0.011
   0.00000000  0.14285714 -0.20000000       0.011
   0.20000000  0.14285714  0.20000000       0.011
  -0.20000000  0.14285714 -0.20000000       0.011
   0.40000000  0.14285714  0.20000000       0.011
  -0.40000000  0.14285714 -0.20000000       0.011
  -0.40000000  0.14285714  0.20000000       0.011
   0.40000000  0.14285714 -0.20000000       0.011
  -0.20000000  0.14285714  0.20000000       0.011
   0.20000000  0.14285714 -0.20000000       0.011
  -0.00000000  0.28571429  0.20000000       0.011
   0.00000000  0.28571429 -0.20000000       0.011
   0.20000000  0.28571429  0.20000000       0.011
  -0.20000000  0.28571429 -0.20000000       0.011
   0.40000000  0.28571429  0.20000000       0.011
  -0.40000000  0.28571429 -0.20000000       0.011
  -0.40000000  0.28571429  0.20000000       0.011
   0.40000000  0.28571429 -0.20000000       0.011
  -0.20000000  0.28571429  0.20000000       0.011
   0.20000000  0.28571429 -0.20000000       0.011
  -0.00000000  0.42857143  0.20000000       0.011
   0.00000000  0.42857143 -0.20000000       0.011
   0.20000000  0.42857143  0.20000000       0.011
  -0.20000000  0.42857143 -0.20000000       0.011
   0.40000000  0.42857143  0.20000000       0.011
  -0.40000000  0.42857143 -0.20000000       0.011
  -0.40000000  0.42857143  0.20000000       0.011
   0.40000000  0.42857143 -0.20000000       0.011
  -0.20000000  0.42857143  0.20000000       0.011
   0.20000000  0.42857143 -0.20000000       0.011
   0.00000000  0.00000000  0.40000000       0.011
   0.20000000  0.00000000  0.40000000       0.011
   0.40000000  0.00000000  0.40000000       0.011
  -0.40000000  0.00000000  0.40000000       0.011
  -0.20000000  0.00000000  0.40000000       0.011
   0.00000000  0.14285714  0.40000000       0.011
  -0.00000000  0.14285714 -0.40000000       0.011
   0.20000000  0.14285714  0.40000000       0.011
  -0.20000000  0.14285714 -0.40000000       0.011
   0.40000000  0.14285714  0.40000000       0.011
  -0.40000000  0.14285714 -0.40000000       0.011
  -0.40000000  0.14285714  0.40000000       0.011
   0.40000000  0.14285714 -0.40000000       0.011
  -0.20000000  0.14285714  0.40000000       0.011
   0.20000000  0.14285714 -0.40000000       0.011
   0.00000000  0.28571429  0.40000000       0.011
  -0.00000000  0.28571429 -0.40000000       0.011
   0.20000000  0.28571429  0.40000000       0.011
  -0.20000000  0.28571429 -0.40000000       0.011
   0.40000000  0.28571429  0.40000000       0.011
  -0.40000000  0.28571429 -0.40000000       0.011
  -0.40000000  0.28571429  0.40000000       0.011
   0.40000000  0.28571429 -0.40000000       0.011
  -0.20000000  0.28571429  0.40000000       0.011
   0.20000000  0.28571429 -0.40000000       0.011
   0.00000000  0.42857143  0.40000000       0.011
  -0.00000000  0.42857143 -0.40000000       0.011
   0.20000000  0.42857143  0.40000000       0.011
  -0.20000000  0.42857143 -0.40000000       0.011
   0.40000000  0.42857143  0.40000000       0.011
  -0.40000000  0.42857143 -0.40000000       0.011
  -0.40000000  0.42857143  0.40000000       0.011
   0.40000000  0.42857143 -0.40000000       0.011
  -0.20000000  0.42857143  0.40000000       0.011
   0.20000000  0.42857143 -0.40000000       0.011
 
 position of ions in fractional coordinates (direct lattice) 
   0.25290984  0.24828573  0.01218457
   0.74709016  0.24828573  0.48781544
   0.74709016  0.75171429  0.98781544
   0.25290984  0.75171429  0.51218456
   0.75437033  0.74297351  0.51182491
   0.24562967  0.74297351  0.98817509
   0.25437033  0.24297357  0.51182491
   0.74562967  0.24297357  0.98817509
   0.64136058  0.74723995  0.60824561
   0.35863942  0.74723995  0.89175439
   0.35863942  0.25276005  0.39175439
   0.64136058  0.25276005  0.10824561
   0.14136052  0.24723995  0.60824561
   0.85863942  0.24723995  0.89175439
   0.85863942  0.75276005  0.39175439
   0.14136052  0.75276005  0.10824561
 
 position of ions in cartesian coordinates  (Angst):
   1.78055585  1.25974290 -0.21124430
   4.73417174  1.25974290  2.45137261
   4.15258109  3.81402007  5.85468220
   1.19896520  3.81402007  3.19206525
   4.75790679  3.76967141  2.60632775
   0.59363950  3.76967141  6.44041970
   1.20974766  1.23279026  3.18791840
   4.14179862  1.23279026  5.85882905
   3.84379887  3.79131832  3.39407760
   1.50774742  3.79131832  5.65266985
   2.08933807  1.28244458  2.24936026
   4.42538952  1.28244458 -0.00923199
   0.29563932  1.25443687  3.97566832
   5.05590654  1.25443687  5.07107920
   5.63749719  3.81932602  1.66776961
   0.87722998  3.81932602  0.57235874
 


--------------------------------------------------------------------------------------------------------


 k-point   1 :   0.0000 0.0000 0.0000  plane waves:    6419
 k-point   2 :   0.2000 0.0000 0.0000  plane waves:    6420
 k-point   3 :   0.4000 0.0000-0.0000  plane waves:    6399
 k-point   4 :   0.0000 0.1429 0.0000  plane waves:    6425
 k-point   5 :   0.2000 0.1429 0.0000  plane waves:    6418
 k-point   6 :  -0.2000 0.1429-0.0000  plane waves:    6418
 k-point   7 :   0.4000 0.1429-0.0000  plane waves:    6409
 k-point   8 :  -0.4000 0.1429 0.0000  plane waves:    6409
 k-point   9 :   0.0000 0.2857 0.0000  plane waves:    6419
 k-point  10 :   0.2000 0.2857 0.0000  plane waves:    6424
 k-point  11 :  -0.2000 0.2857-0.0000  plane waves:    6424
 k-point  12 :   0.4000 0.2857-0.0000  plane waves:    6410
 k-point  13 :  -0.4000 0.2857 0.0000  plane waves:    6410
 k-point  14 :   0.0000 0.4286 0.0000  plane waves:    6403
 k-point  15 :   0.2000 0.4286 0.0000  plane waves:    6401
 k-point  16 :  -0.2000 0.4286-0.0000  plane waves:    6401
 k-point  17 :   0.4000 0.4286-0.0000  plane waves:    6400
 k-point  18 :  -0.4000 0.4286 0.0000  plane waves:    6400
 k-point  19 :  -0.0000 0.0000 0.2000  plane waves:    6412
 k-point  20 :   0.2000 0.0000 0.2000  plane waves:    6439
 k-point  21 :   0.4000 0.0000 0.2000  plane waves:    6427
 k-point  22 :  -0.4000 0.0000 0.2000  plane waves:    6405
 k-point  23 :  -0.2000 0.0000 0.2000  plane waves:    6404
 k-point  24 :  -0.0000 0.1429 0.2000  plane waves:    6423
 k-point  25 :   0.0000 0.1429-0.2000  plane waves:    6423
 k-point  26 :   0.2000 0.1429 0.2000  plane waves:    6414
 k-point  27 :  -0.2000 0.1429-0.2000  plane waves:    6414
 k-point  28 :   0.4000 0.1429 0.2000  plane waves:    6420
 k-point  29 :  -0.4000 0.1429-0.2000  plane waves:    6420
 k-point  30 :  -0.4000 0.1429 0.2000  plane waves:    6411
 k-point  31 :   0.4000 0.1429-0.2000  plane waves:    6411
 k-point  32 :  -0.2000 0.1429 0.2000  plane waves:    6406
 k-point  33 :   0.2000 0.1429-0.2000  plane waves:    6406
 k-point  34 :  -0.0000 0.2857 0.2000  plane waves:    6407
 k-point  35 :   0.0000 0.2857-0.2000  plane waves:    6407
 k-point  36 :   0.2000 0.2857 0.2000  plane waves:    6408
 k-point  37 :  -0.2000 0.2857-0.2000  plane waves:    6408
 k-point  38 :   0.4000 0.2857 0.2000  plane waves:    6403
 k-point  39 :  -0.4000 0.2857-0.2000  plane waves:    6403
 k-point  40 :  -0.4000 0.2857 0.2000  plane waves:    6397
 k-point  41 :   0.4000 0.2857-0.2000  plane waves:    6397
 k-point  42 :  -0.2000 0.2857 0.2000  plane waves:    6408
 k-point  43 :   0.2000 0.2857-0.2000  plane waves:    6408
 k-point  44 :  -0.0000 0.4286 0.2000  plane waves:    6402
 k-point  45 :   0.0000 0.4286-0.2000  plane waves:    6402
 k-point  46 :   0.2000 0.4286 0.2000  plane waves:    6402
 k-point  47 :  -0.2000 0.4286-0.2000  plane waves:    6402
 k-point  48 :   0.4000 0.4286 0.2000  plane waves:    6406
 k-point  49 :  -0.4000 0.4286-0.2000  plane waves:    6406
 k-point  50 :  -0.4000 0.4286 0.2000  plane waves:    6403
 k-point  51 :   0.4000 0.4286-0.2000  plane waves:    6403
 k-point  52 :  -0.2000 0.4286 0.2000  plane waves:    6409
 k-point  53 :   0.2000 0.4286-0.2000  plane waves:    6409
 k-point  54 :   0.0000 0.0000 0.4000  plane waves:    6439
 k-point  55 :   0.2000 0.0000 0.4000  plane waves:    6453
 k-point  56 :   0.4000 0.0000 0.4000  plane waves:    6429
 k-point  57 :  -0.4000 0.0000 0.4000  plane waves:    6435
 k-point  58 :  -0.2000 0.0000 0.4000  plane waves:    6416
 k-point  59 :   0.0000 0.1429 0.4000  plane waves:    6435
 k-point  60 :  -0.0000 0.1429-0.4000  plane waves:    6435
 k-point  61 :   0.2000 0.1429 0.4000  plane waves:    6431
 k-point  62 :  -0.2000 0.1429-0.4000  plane waves:    6431
 k-point  63 :   0.4000 0.1429 0.4000  plane waves:    6421
 k-point  64 :  -0.4000 0.1429-0.4000  plane waves:    6421
 k-point  65 :  -0.4000 0.1429 0.4000  plane waves:    6417
 k-point  66 :   0.4000 0.1429-0.4000  plane waves:    6417
 k-point  67 :  -0.2000 0.1429 0.4000  plane waves:    6421
 k-point  68 :   0.2000 0.1429-0.4000  plane waves:    6421
 k-point  69 :   0.0000 0.2857 0.4000  plane waves:    6424
 k-point  70 :  -0.0000 0.2857-0.4000  plane waves:    6424
 k-point  71 :   0.2000 0.2857 0.4000  plane waves:    6422
 k-point  72 :  -0.2000 0.2857-0.4000  plane waves:    6422
 k-point  73 :   0.4000 0.2857 0.4000  plane waves:    6401
 k-point  74 :  -0.4000 0.2857-0.4000  plane waves:    6401
 k-point  75 :  -0.4000 0.2857 0.4000  plane waves:    6411
 k-point  76 :   0.4000 0.2857-0.4000  plane waves:    6411
 k-point  77 :  -0.2000 0.2857 0.4000  plane waves:    6420
 k-point  78 :   0.2000 0.2857-0.4000  plane waves:    6420
 k-point  79 :   0.0000 0.4286 0.4000  plane waves:    6392
 k-point  80 :  -0.0000 0.4286-0.4000  plane waves:    6392
 k-point  81 :   0.2000 0.4286 0.4000  plane waves:    6389
 k-point  82 :  -0.2000 0.4286-0.4000  plane waves:    6389
 k-point  83 :   0.4000 0.4286 0.4000  plane waves:    6398
 k-point  84 :  -0.4000 0.4286-0.4000  plane waves:    6398
 k-point  85 :  -0.4000 0.4286 0.4000  plane waves:    6411
 k-point  86 :   0.4000 0.4286-0.4000  plane waves:    6411
 k-point  87 :  -0.2000 0.4286 0.4000  plane waves:    6405
 k-point  88 :   0.2000 0.4286-0.4000  plane waves:    6405

 maximum and minimum number of plane-waves per node :      1640     1569

 maximum number of plane-waves:      6453
 maximum index in each direction: 
   IXMAX=   13   IYMAX=    9   IZMAX=   13
   IXMIN=  -13   IYMIN=   -9   IZMIN=  -13


 parallel 3D FFT for wavefunctions:
    minimum data exchange during FFTs selected (reduces bandwidth)
 parallel 3D FFT for charge:
    minimum data exchange during FFTs selected (reduces bandwidth)


 total amount of memory used by VASP MPI-rank0   174294. kBytes
=======================================================================

   base      :      30000. kBytes
   nonl-proj :      62766. kBytes
   fftplans  :       7907. kBytes
   grid      :       7068. kBytes
   one-center:        124. kBytes
   wavefun   :      66429. kBytes
 
     INWAV:  cpu time      0.0000: real time      0.0002
 Broyden mixing: mesh for mixing (old mesh)
   NGX = 27   NGY = 19   NGZ = 25
  (NGX  =108   NGY  = 80   NGZ  =108)
  gives a total of  12825 points

 initial charge density was supplied:
 charge density of overlapping atoms calculated
 number of electron     108.0000000 magnetization       9.6000000
 keeping initial charge density in first step


--------------------------------------------------------------------------------------------------------


 Maximum index for augmentation-charges        15239 (set IRDMAX)


--------------------------------------------------------------------------------------------------------


 First call to EWALD:  gamma=   0.286
 Maximum number of real-space cells 3x 3x 3
 Maximum number of reciprocal cells 3x 2x 3

    FEWALD:  cpu time      0.0016: real time      0.0016


--------------------------------------- Iteration      1(   1)  ---------------------------------------


    POTLOK:  cpu time      0.0536: real time      0.0568
    SETDIJ:  cpu time      0.5388: real time      0.5418
     EDDAV:  cpu time     12.2623: real time     12.3407
       DOS:  cpu time      0.0057: real time      0.0057
    --------------------------------------------
      LOOP:  cpu time     12.8604: real time     12.9451

 eigenvalue-minimisations  : 24640
 total energy-change (2. order) : 0.9159079E+03  (-0.5550027E+04)
 number of electron     108.0000000 magnetization       9.6000000
 augmentation part      108.0000000 magnetization       9.6000000

 Free energy of the ion-electron system (eV)
  ---------------------------------------------------
  alpha Z        PSCENC =       562.18399917
  Ewald energy   TEWEN  =     -5884.71831606
  -Hartree energ DENC   =     -1862.52530265
  -exchange      EXHF   =         0.00000000
  -V(xc)+E(xc)   XCENC  =       385.44164278
  PAW double counting   =      6087.35749088    -5974.92191794
  entropy T*S    EENTRO =        -0.00418441
  eigenvalues    EBANDS =      -180.96031173
  atomic energy  EATOM  =      7784.05479601
  Solvation  Ediel_sol  =         0.00000000
  ---------------------------------------------------
  free energy    TOTEN  =       915.90789604 eV

  energy without entropy =      915.91208046  energy(sigma->0) =      915.90998825


--------------------------------------------------------------------------------------------------------




--------------------------------------- Iteration      1(   2)  ---------------------------------------


     EDDAV:  cpu time     14.8012: real time     14.8967
       DOS:  cpu time      0.0054: real time      0.0054
    --------------------------------------------
      LOOP:  cpu time     14.8065: real time     14.9021

 eigenvalue-minimisations  : 29530
 total energy-change (2. order) :-0.9422637E+03  (-0.9155418E+03)
 number of electron     108.0000000 magnetization       9.6000000
 augmentation part      108.0000000 magnetization       9.6000000

 Free energy of the ion-electron system (eV)
  ---------------------------------------------------
  alpha Z        PSCENC =       562.18399917
  Ewald energy   TEWEN  =     -5884.71831606
  -Hartree energ DENC   =     -1862.52530265
  -exchange      EXHF   =         0.00000000
  -V(xc)+E(xc)   XCENC  =       385.44164278
  PAW double counting   =      6087.35749088    -5974.92191794
  entropy T*S    EENTRO =        -0.00966500
  eigenvalues    EBANDS =     -1123.21856011
  atomic energy  EATOM  =      7784.05479601
  Solvation  Ediel_sol  =         0.00000000
  ---------------------------------------------------
  free energy    TOTEN  =       -26.35583292 eV

  energy without entropy =      -26.34616792  energy(sigma->0) =      -26.35100042


--------------------------------------------------------------------------------------------------------




--------------------------------------- Iteration      1(   3)  ---------------------------------------


     EDDAV:  cpu time     16.2118: real time     16.3158
       DOS:  cpu time      0.0062: real time      0.0062
    --------------------------------------------
      LOOP:  cpu time     16.2179: real time     16.3220

 eigenvalue-minimisations  : 34220
 total energy-change (2. order) :-0.7927455E+02  (-0.7757176E+02)
 number of electron     108.0000000 magnetization       9.6000000
 augmentation part      108.0000000 magnetization       9.6000000

 Free energy of the ion-electron system (eV)
  ---------------------------------------------------
  alpha Z        PSCENC =       562.18399917
  Ewald energy   TEWEN  =     -5884.71831606
  -Hartree energ DENC   =     -1862.52530265
  -exchange      EXHF   =         0.00000000
  -V(xc)+E(xc)   XCENC  =       385.44164278
  PAW double counting   =      6087.35749088    -5974.92191794
  entropy T*S    EENTRO =        -0.01031704
  eigenvalues    EBANDS =     -1202.49245562
  atomic energy  EATOM  =      7784.05479601
  Solvation  Ediel_sol  =         0.00000000
  ---------------------------------------------------
  free energy    TOTEN  =      -105.63038048 eV

  energy without entropy =     -105.62006344  energy(sigma->0) =     -105.62522196


--------------------------------------------------------------------------------------------------------




--------------------------------------- Iteration      1(   4)  ---------------------------------------


     EDDAV:  cpu time     18.1379: real time     18.2492
       DOS:  cpu time      0.0061: real time      0.0062
    --------------------------------------------
      LOOP:  cpu time     18.1439: real time     18.2553

 eigenvalue-minimisations  : 40210
 total energy-change (2. order) :-0.4123921E+01  (-0.4075966E+01)
 number of electron     108.0000000 magnetization       9.6000000
 augmentation part      108.0000000 magnetization       9.6000000

 Free energy of the ion-electron system (eV)
  ---------------------------------------------------
  alpha Z        PSCENC =       562.18399917
  Ewald energy   TEWEN  =     -5884.71831606
  -Hartree energ DENC   =     -1862.52530265
  -exchange      EXHF   =         0.00000000
  -V(xc)+E(xc)   XCENC  =       385.44164278
  PAW double counting   =      6087.35749088    -5974.92191794
  entropy T*S    EENTRO =        -0.01033131
  eigenvalues    EBANDS =     -1206.61636217
  atomic energy  EATOM  =      7784.05479601
  Solvation  Ediel_sol  =         0.00000000
  ---------------------------------------------------
  free energy    TOTEN  =      -109.75430129 eV

  energy without entropy =     -109.74396998  energy(sigma->0) =     -109.74913563


--------------------------------------------------------------------------------------------------------




--------------------------------------- Iteration      1(   5)  ---------------------------------------


     EDDAV:  cpu time     16.3775: real time     16.4804
       DOS:  cpu time      0.0056: real time      0.0056
    CHARGE:  cpu time      0.6525: real time      0.6556
    MIXING:  cpu time      0.0030: real time      0.0030
    --------------------------------------------
      LOOP:  cpu time     17.0386: real time     17.1446

 eigenvalue-minimisations  : 34040
 total energy-change (2. order) :-0.1420867E+00  (-0.1417427E+00)
 number of electron     108.0000002 magnetization       5.3353660
 augmentation part       10.0831677 magnetization       2.0336172

 Broyden mixing:
  rms(total) = 0.24143E+01    rms(broyden)= 0.24131E+01
  rms(prec ) = 0.35901E+01
  weight for this iteration     100.00

 Free energy of the ion-electron system (eV)
  ---------------------------------------------------
  alpha Z        PSCENC =       562.18399917
  Ewald energy   TEWEN  =     -5884.71831606
  -Hartree energ DENC   =     -1862.52530265
  -exchange      EXHF   =         0.00000000
  -V(xc)+E(xc)   XCENC  =       385.44164278
  PAW double counting   =      6087.35749088    -5974.92191794
  entropy T*S    EENTRO =        -0.01023909
  eigenvalues    EBANDS =     -1206.75854110
  atomic energy  EATOM  =      7784.05479601
  Solvation  Ediel_sol  =         0.00000000
  ---------------------------------------------------
  free energy    TOTEN  =      -109.89638800 eV

  energy without entropy =     -109.88614891  energy(sigma->0) =     -109.89126846


--------------------------------------------------------------------------------------------------------




--------------------------------------- Iteration      1(   6)  ---------------------------------------


    POTLOK:  cpu time      0.0490: real time      0.0539
    SETDIJ:  cpu time      0.5442: real time      0.5469
     EDDAV:  cpu time     15.3570: real time     15.4511
       DOS:  cpu time      0.0054: real time      0.0055
    CHARGE:  cpu time      0.6686: real time      0.6720
    MIXING:  cpu time      0.0030: real time      0.0030
    --------------------------------------------
      LOOP:  cpu time     16.6271: real time     16.7323

 eigenvalue-minimisations  : 31240
 total energy-change (2. order) : 0.7661168E+01  (-0.5659625E+01)
 number of electron     108.0000002 magnetization       4.2912045
 augmentation part        9.0557352 magnetization       0.7706756

 Broyden mixing:
  rms(total) = 0.11510E+01    rms(broyden)= 0.11504E+01
  rms(prec ) = 0.13761E+01
  weight for this iteration     100.00

 eigenvalues of (default mixing * dielectric matrix)
  average eigenvalue GAMMA=   0.8226
  0.8226

 Free energy of the ion-electron system (eV)
  ---------------------------------------------------
  alpha Z        PSCENC =       562.18399917
  Ewald energy   TEWEN  =     -5884.71831606
  -Hartree energ DENC   =     -1982.67359732
  -exchange      EXHF   =         0.00000000
  -V(xc)+E(xc)   XCENC  =       392.49290679
  PAW double counting   =      7244.78316734    -7153.08737278
  entropy T*S    EENTRO =        -0.01021951
  eigenvalues    EBANDS =     -1065.26058407
  atomic energy  EATOM  =      7784.05479601
  Solvation  Ediel_sol  =         0.00000000
  ---------------------------------------------------
  free energy    TOTEN  =      -102.23522045 eV

  energy without entropy =     -102.22500093  energy(sigma->0) =     -102.23011069


--------------------------------------------------------------------------------------------------------




--------------------------------------- Iteration      1(   7)  ---------------------------------------


    POTLOK:  cpu time      0.0475: real time      0.0490
    SETDIJ:  cpu time      0.5425: real time      0.5450
     EDDAV:  cpu time     15.2160: real time     15.3057
       DOS:  cpu time      0.0063: real time      0.0064
    CHARGE:  cpu time      0.6555: real time      0.6591
    MIXING:  cpu time      0.0047: real time      0.0049
    --------------------------------------------
      LOOP:  cpu time     16.4726: real time     16.5701

 eigenvalue-minimisations  : 32820
 total energy-change (2. order) :-0.4944503E-01  (-0.5080013E+00)
 number of electron     108.0000002 magnetization       2.5955969
 augmentation part        8.8686763 magnetization      -0.2183859

 Broyden mixing:
  rms(total) = 0.61009E+00    rms(broyden)= 0.61007E+00
  rms(prec ) = 0.69633E+00
  weight for this iteration     100.00

 eigenvalues of (default mixing * dielectric matrix)
  average eigenvalue GAMMA=   1.1694
  0.7930  1.5458

 Free energy of the ion-electron system (eV)
  ---------------------------------------------------
  alpha Z        PSCENC =       562.18399917
  Ewald energy   TEWEN  =     -5884.71831606
  -Hartree energ DENC   =     -1964.16174085
  -exchange      EXHF   =         0.00000000
  -V(xc)+E(xc)   XCENC  =       391.09933984
  PAW double counting   =      7924.38796379    -7840.25447055
  entropy T*S    EENTRO =        -0.01090398
  eigenvalues    EBANDS =     -1074.86533284
  atomic energy  EATOM  =      7784.05479601
  Solvation  Ediel_sol  =         0.00000000
  ---------------------------------------------------
  free energy    TOTEN  =      -102.28466548 eV

  energy without entropy =     -102.27376150  energy(sigma->0) =     -102.27921349


--------------------------------------------------------------------------------------------------------




--------------------------------------- Iteration      1(   8)  ---------------------------------------


    POTLOK:  cpu time      0.0520: real time      0.0525
    SETDIJ:  cpu time      0.6009: real time      0.6040
     EDDAV:  cpu time     16.0217: real time     16.1201
       DOS:  cpu time      0.0057: real time      0.0058
    CHARGE:  cpu time      0.6486: real time      0.6517
    MIXING:  cpu time      0.0032: real time      0.0033
    --------------------------------------------
      LOOP:  cpu time     17.3321: real time     17.4372

 eigenvalue-minimisations  : 33690
 total energy-change (2. order) :-0.5164086E-01  (-0.6900482E-01)
 number of electron     108.0000002 magnetization       2.0419676
 augmentation part        8.8385289 magnetization       0.0137736

 Broyden mixing:
  rms(total) = 0.20196E+00    rms(broyden)= 0.20194E+00
  rms(prec ) = 0.24923E+00
  weight for this iteration     100.00

 eigenvalues of (default mixing * dielectric matrix)
  average eigenvalue GAMMA=   1.2544
  2.1985  0.7824  0.7824

 Free energy of the ion-electron system (eV)
  ---------------------------------------------------
  alpha Z        PSCENC =       562.18399917
  Ewald energy   TEWEN  =     -5884.71831606
  -Hartree energ DENC   =     -1961.56732100
  -exchange      EXHF   =         0.00000000
  -V(xc)+E(xc)   XCENC  =       390.86153960
  PAW double counting   =      8914.83478309    -8839.32037719
  entropy T*S    EENTRO =        -0.01281792
  eigenvalues    EBANDS =     -1068.65259204
  atomic energy  EATOM  =      7784.05479601
  Solvation  Ediel_sol  =         0.00000000
  ---------------------------------------------------
  free energy    TOTEN  =      -102.33630634 eV

  energy without entropy =     -102.32348843  energy(sigma->0) =     -102.32989738


--------------------------------------------------------------------------------------------------------




--------------------------------------- Iteration      1(   9)  ---------------------------------------


    POTLOK:  cpu time      0.0451: real time      0.0464
    SETDIJ:  cpu time      0.5652: real time      0.5678
     EDDAV:  cpu time     15.8787: real time     15.9543
       DOS:  cpu time      0.0058: real time      0.0058
    CHARGE:  cpu time      0.6492: real time      0.6522
    MIXING:  cpu time      0.0038: real time      0.0038
    --------------------------------------------
      LOOP:  cpu time     17.1478: real time     17.2304

 eigenvalue-minimisations  : 32380
 total energy-change (2. order) :-0.3054260E-01  (-0.1529322E-01)
 number of electron     108.0000002 magnetization       1.8664460
 augmentation part        8.7931274 magnetization       0.2241085

 Broyden mixing:
  rms(total) = 0.70479E-01    rms(broyden)= 0.70446E-01
  rms(prec ) = 0.10491E+00
  weight for this iteration     100.00

 eigenvalues of (default mixing * dielectric matrix)
  average eigenvalue GAMMA=   1.1636
  2.3679  0.7979  0.7979  0.6909

 Free energy of the ion-electron system (eV)
  ---------------------------------------------------
  alpha Z        PSCENC =       562.18399917
  Ewald energy   TEWEN  =     -5884.71831606
  -Hartree energ DENC   =     -1963.78441773
  -exchange      EXHF   =         0.00000000
  -V(xc)+E(xc)   XCENC  =       390.99751842
  PAW double counting   =      9243.56156418    -9170.76678215
  entropy T*S    EENTRO =        -0.01407326
  eigenvalues    EBANDS =     -1063.88113751
  atomic energy  EATOM  =      7784.05479601
  Solvation  Ediel_sol  =         0.00000000
  ---------------------------------------------------
  free energy    TOTEN  =      -102.36684894 eV

  energy without entropy =     -102.35277568  energy(sigma->0) =     -102.35981231


--------------------------------------------------------------------------------------------------------




--------------------------------------- Iteration      1(  10)  ---------------------------------------


    POTLOK:  cpu time      0.0479: real time      0.0483
    SETDIJ:  cpu time      0.5594: real time      0.5614
     EDDAV:  cpu time     16.4276: real time     16.4963
       DOS:  cpu time      0.0062: real time      0.0063
    CHARGE:  cpu time      0.6478: real time      0.6502
    MIXING:  cpu time      0.0052: real time      0.0052
    --------------------------------------------
      LOOP:  cpu time     17.6941: real time     17.7676

 eigenvalue-minimisations  : 35510
 total energy-change (2. order) :-0.2906829E-02  (-0.4512867E-02)
 number of electron     108.0000002 magnetization       1.6831384
 augmentation part        8.7702806 magnetization       0.1464668

 Broyden mixing:
  rms(total) = 0.36933E-01    rms(broyden)= 0.36920E-01
  rms(prec ) = 0.55343E-01
  weight for this iteration     100.00

 eigenvalues of (default mixing * dielectric matrix)
  average eigenvalue GAMMA=   1.1291
  2.4164  0.8645  0.8645  0.8898  0.6103

 Free energy of the ion-electron system (eV)
  ---------------------------------------------------
  alpha Z        PSCENC =       562.18399917
  Ewald energy   TEWEN  =     -5884.71831606
  -Hartree energ DENC   =     -1963.80678313
  -exchange      EXHF   =         0.00000000
  -V(xc)+E(xc)   XCENC  =       391.00437798
  PAW double counting   =      9292.95746937    -9220.43492307
  entropy T*S    EENTRO =        -0.01451432
  eigenvalues    EBANDS =     -1063.59586171
  atomic energy  EATOM  =      7784.05479601
  Solvation  Ediel_sol  =         0.00000000
  ---------------------------------------------------
  free energy    TOTEN  =      -102.36975577 eV

  energy without entropy =     -102.35524145  energy(sigma->0) =     -102.36249861


--------------------------------------------------------------------------------------------------------




--------------------------------------- Iteration      1(  11)  ---------------------------------------


    POTLOK:  cpu time      0.0508: real time      0.0576
    SETDIJ:  cpu time      0.5620: real time      0.5640
     EDDAV:  cpu time     15.4785: real time     15.5433
       DOS:  cpu time      0.0053: real time      0.0053
    CHARGE:  cpu time      0.6432: real time      0.6457
    MIXING:  cpu time      0.0044: real time      0.0044
    --------------------------------------------
      LOOP:  cpu time     16.7443: real time     16.8202

 eigenvalue-minimisations  : 32580
 total energy-change (2. order) :-0.2508063E-02  (-0.1285011E-02)
 number of electron     108.0000002 magnetization       1.5299141
 augmentation part        8.7666216 magnetization       0.1205726

 Broyden mixing:
  rms(total) = 0.23651E-01    rms(broyden)= 0.23642E-01
  rms(prec ) = 0.32650E-01
  weight for this iteration     100.00

 eigenvalues of (default mixing * dielectric matrix)
  average eigenvalue GAMMA=   1.1253
  2.4231  1.2119  0.9636  0.9636  0.6991  0.4903

 Free energy of the ion-electron system (eV)
  ---------------------------------------------------
  alpha Z        PSCENC =       562.18399917
  Ewald energy   TEWEN  =     -5884.71831606
  -Hartree energ DENC   =     -1963.30826455
  -exchange      EXHF   =         0.00000000
  -V(xc)+E(xc)   XCENC  =       390.97613243
  PAW double counting   =      9315.10256750    -9242.52788398
  entropy T*S    EENTRO =        -0.01518973
  eigenvalues    EBANDS =     -1064.12010461
  atomic energy  EATOM  =      7784.05479601
  Solvation  Ediel_sol  =         0.00000000
  ---------------------------------------------------
  free energy    TOTEN  =      -102.37226383 eV

  energy without entropy =     -102.35707410  energy(sigma->0) =     -102.36466897


--------------------------------------------------------------------------------------------------------




--------------------------------------- Iteration      1(  12)  ---------------------------------------


    POTLOK:  cpu time      0.0507: real time      0.0517
    SETDIJ:  cpu time      0.5696: real time      0.5716
     EDDAV:  cpu time     15.8315: real time     15.8988
       DOS:  cpu time      0.0058: real time      0.0058
    CHARGE:  cpu time      0.6469: real time      0.6492
    MIXING:  cpu time      0.0033: real time      0.0033
    --------------------------------------------
      LOOP:  cpu time     17.1077: real time     17.1806

 eigenvalue-minimisations  : 32220
 total energy-change (2. order) :-0.1797973E-02  (-0.4292154E-03)
 number of electron     108.0000002 magnetization       1.4077427
 augmentation part        8.7659677 magnetization       0.1171589

 Broyden mixing:
  rms(total) = 0.15725E-01    rms(broyden)= 0.15716E-01
  rms(prec ) = 0.20393E-01
  weight for this iteration     100.00

 eigenvalues of (default mixing * dielectric matrix)
  average eigenvalue GAMMA=   1.2115
  2.2992  2.2992  1.2109  0.8014  0.8014  0.6173  0.4514

 Free energy of the ion-electron system (eV)
  ---------------------------------------------------
  alpha Z        PSCENC =       562.18399917
  Ewald energy   TEWEN  =     -5884.71831606
  -Hartree energ DENC   =     -1962.86850675
  -exchange      EXHF   =         0.00000000
  -V(xc)+E(xc)   XCENC  =       390.94744725
  PAW double counting   =      9318.50920791    -9245.77652470
  entropy T*S    EENTRO =        -0.01581817
  eigenvalues    EBANDS =     -1064.69034646
  atomic energy  EATOM  =      7784.05479601
  Solvation  Ediel_sol  =         0.00000000
  ---------------------------------------------------
  free energy    TOTEN  =      -102.37406181 eV

  energy without entropy =     -102.35824363  energy(sigma->0) =     -102.36615272


--------------------------------------------------------------------------------------------------------




--------------------------------------- Iteration      1(  13)  ---------------------------------------


    POTLOK:  cpu time      0.0522: real time      0.0558
    SETDIJ:  cpu time      0.5483: real time      0.5503
     EDDAV:  cpu time     15.8715: real time     15.9400
       DOS:  cpu time      0.0056: real time      0.0056
    CHARGE:  cpu time      0.6477: real time      0.6501
    MIXING:  cpu time      0.0032: real time      0.0033
    --------------------------------------------
      LOOP:  cpu time     17.1286: real time     17.2051

 eigenvalue-minimisations  : 33660
 total energy-change (2. order) :-0.1187666E-02  (-0.2791256E-03)
 number of electron     108.0000002 magnetization       1.3105165
 augmentation part        8.7652381 magnetization       0.1213250

 Broyden mixing:
  rms(total) = 0.13406E-01    rms(broyden)= 0.13398E-01
  rms(prec ) = 0.20490E-01
  weight for this iteration     100.00

 eigenvalues of (default mixing * dielectric matrix)
  average eigenvalue GAMMA=   1.2148
  2.7643  2.4208  1.3745  0.7671  0.7671  0.5967  0.5967  0.4310

 Free energy of the ion-electron system (eV)
  ---------------------------------------------------
  alpha Z        PSCENC =       562.18399917
  Ewald energy   TEWEN  =     -5884.71831606
  -Hartree energ DENC   =     -1962.71157619
  -exchange      EXHF   =         0.00000000
  -V(xc)+E(xc)   XCENC  =       390.93574474
  PAW double counting   =      9319.06386797    -9246.23461026
  entropy T*S    EENTRO =        -0.01630955
  eigenvalues    EBANDS =     -1064.93284530
  atomic energy  EATOM  =      7784.05479601
  Solvation  Ediel_sol  =         0.00000000
  ---------------------------------------------------
  free energy    TOTEN  =      -102.37524947 eV

  energy without entropy =     -102.35893992  energy(sigma->0) =     -102.36709470


--------------------------------------------------------------------------------------------------------




--------------------------------------- Iteration      1(  14)  ---------------------------------------


    POTLOK:  cpu time      0.0486: real time      0.0498
    SETDIJ:  cpu time      0.6079: real time      0.6102
     EDDAV:  cpu time     15.5720: real time     15.6387
       DOS:  cpu time      0.0058: real time      0.0058
    CHARGE:  cpu time      0.6743: real time      0.6771
    MIXING:  cpu time      0.0031: real time      0.0031
    --------------------------------------------
      LOOP:  cpu time     16.9117: real time     16.9848

 eigenvalue-minimisations  : 33130
 total energy-change (2. order) :-0.6993713E-03  (-0.1527350E-03)
 number of electron     108.0000002 magnetization       1.1301815
 augmentation part        8.7646852 magnetization       0.0239378

 Broyden mixing:
  rms(total) = 0.11152E-01    rms(broyden)= 0.11146E-01
  rms(prec ) = 0.12134E-01
  weight for this iteration     100.00

 eigenvalues of (default mixing * dielectric matrix)
  average eigenvalue GAMMA=   1.2621
  3.6535  2.3513  1.6131  0.7660  0.7660  0.7716  0.6497  0.4473  0.3401

 Free energy of the ion-electron system (eV)
  ---------------------------------------------------
  alpha Z        PSCENC =       562.18399917
  Ewald energy   TEWEN  =     -5884.71831606
  -Hartree energ DENC   =     -1962.66655639
  -exchange      EXHF   =         0.00000000
  -V(xc)+E(xc)   XCENC  =       390.93126168
  PAW double counting   =      9319.55005329    -9246.66879086
  entropy T*S    EENTRO =        -0.01664989
  eigenvalues    EBANDS =     -1065.02574579
  atomic energy  EATOM  =      7784.05479601
  Solvation  Ediel_sol  =         0.00000000
  ---------------------------------------------------
  free energy    TOTEN  =      -102.37594884 eV

  energy without entropy =     -102.35929896  energy(sigma->0) =     -102.36762390


--------------------------------------------------------------------------------------------------------




--------------------------------------- Iteration      1(  15)  ---------------------------------------


    POTLOK:  cpu time      0.0461: real time      0.0511
    SETDIJ:  cpu time      0.5448: real time      0.5472
     EDDAV:  cpu time     16.0731: real time     16.1407
       DOS:  cpu time      0.0057: real time      0.0057
    CHARGE:  cpu time      0.6449: real time      0.6472
    MIXING:  cpu time      0.0055: real time      0.0055
    --------------------------------------------
      LOOP:  cpu time     17.3201: real time     17.3973

 eigenvalue-minimisations  : 33370
 total energy-change (2. order) :-0.1277505E-02  (-0.2440290E-03)
 number of electron     108.0000002 magnetization       1.0343065
 augmentation part        8.7632690 magnetization       0.0886250

 Broyden mixing:
  rms(total) = 0.10853E-01    rms(broyden)= 0.10837E-01
  rms(prec ) = 0.11226E-01
  weight for this iteration     100.00

 eigenvalues of (default mixing * dielectric matrix)
  average eigenvalue GAMMA=   1.3032
  4.5092  2.3045  1.8387  0.8061  0.8061  0.7748  0.6867  0.5381  0.4452  0.3227

 Free energy of the ion-electron system (eV)
  ---------------------------------------------------
  alpha Z        PSCENC =       562.18399917
  Ewald energy   TEWEN  =     -5884.71831606
  -Hartree energ DENC   =     -1962.68927423
  -exchange      EXHF   =         0.00000000
  -V(xc)+E(xc)   XCENC  =       390.92927995
  PAW double counting   =      9320.35381508    -9247.42930094
  entropy T*S    EENTRO =        -0.01707905
  eigenvalues    EBANDS =     -1065.04514628
  atomic energy  EATOM  =      7784.05479601
  Solvation  Ediel_sol  =         0.00000000
  ---------------------------------------------------
  free energy    TOTEN  =      -102.37722635 eV

  energy without entropy =     -102.36014730  energy(sigma->0) =     -102.36868683


--------------------------------------------------------------------------------------------------------




--------------------------------------- Iteration      1(  16)  ---------------------------------------


    POTLOK:  cpu time      0.0465: real time      0.0469
    SETDIJ:  cpu time      0.5391: real time      0.5410
     EDDAV:  cpu time     16.5156: real time     16.5863
       DOS:  cpu time      0.0061: real time      0.0061
    CHARGE:  cpu time      0.6559: real time      0.6586
    MIXING:  cpu time      0.0047: real time      0.0047
    --------------------------------------------
      LOOP:  cpu time     17.7679: real time     17.8436

 eigenvalue-minimisations  : 34690
 total energy-change (2. order) :-0.7131989E-03  (-0.8807143E-04)
 number of electron     108.0000002 magnetization       1.1401841
 augmentation part        8.7630206 magnetization       0.2841810

 Broyden mixing:
  rms(total) = 0.11053E-01    rms(broyden)= 0.11044E-01
  rms(prec ) = 0.11407E-01
  weight for this iteration     100.00

 eigenvalues of (default mixing * dielectric matrix)
  average eigenvalue GAMMA=   1.2896
  3.7109  1.9618  2.3417  1.6773  0.8395  0.8395  0.7721  0.6914  0.5769  0.4496
  0.3243

 Free energy of the ion-electron system (eV)
  ---------------------------------------------------
  alpha Z        PSCENC =       562.18399917
  Ewald energy   TEWEN  =     -5884.71831606
  -Hartree energ DENC   =     -1962.69006248
  -exchange      EXHF   =         0.00000000
  -V(xc)+E(xc)   XCENC  =       390.92742431
  PAW double counting   =      9320.46747728    -9247.53671829
  entropy T*S    EENTRO =        -0.01714776
  eigenvalues    EBANDS =     -1065.04939171
  atomic energy  EATOM  =      7784.05479601
  Solvation  Ediel_sol  =         0.00000000
  ---------------------------------------------------
  free energy    TOTEN  =      -102.37793955 eV

  energy without entropy =     -102.36079178  energy(sigma->0) =     -102.36936566


--------------------------------------------------------------------------------------------------------




--------------------------------------- Iteration      1(  17)  ---------------------------------------


    POTLOK:  cpu time      0.0509: real time      0.0522
    SETDIJ:  cpu time      0.6158: real time      0.6182
     EDDAV:  cpu time     15.0653: real time     15.1286
       DOS:  cpu time      0.0060: real time      0.0060
    CHARGE:  cpu time      0.6657: real time      0.6684
    MIXING:  cpu time      0.0056: real time      0.0056
    --------------------------------------------
      LOOP:  cpu time     16.4093: real time     16.4789

 eigenvalue-minimisations  : 32420
 total energy-change (2. order) : 0.7930947E-03  (-0.9893575E-04)
 number of electron     108.0000002 magnetization       1.3275533
 augmentation part        8.7638469 magnetization       0.3704769

 Broyden mixing:
  rms(total) = 0.11128E-01    rms(broyden)= 0.11125E-01
  rms(prec ) = 0.11514E-01
  weight for this iteration     100.00

 eigenvalues of (default mixing * dielectric matrix)
  average eigenvalue GAMMA=   1.6203
  7.0709  3.2784  2.3490  1.6845  0.8822  0.8822  0.8052  0.6948  0.6077  0.4580
  0.3244  0.4065

 Free energy of the ion-electron system (eV)
  ---------------------------------------------------
  alpha Z        PSCENC =       562.18399917
  Ewald energy   TEWEN  =     -5884.71831606
  -Hartree energ DENC   =     -1962.72791659
  -exchange      EXHF   =         0.00000000
  -V(xc)+E(xc)   XCENC  =       390.93226070
  PAW double counting   =      9320.68078947    -9247.74662034
  entropy T*S    EENTRO =        -0.01705817
  eigenvalues    EBANDS =     -1065.01908064
  atomic energy  EATOM  =      7784.05479601
  Solvation  Ediel_sol  =         0.00000000
  ---------------------------------------------------
  free energy    TOTEN  =      -102.37714645 eV

  energy without entropy =     -102.36008828  energy(sigma->0) =     -102.36861737


--------------------------------------------------------------------------------------------------------




--------------------------------------- Iteration      1(  18)  ---------------------------------------


    POTLOK:  cpu time      0.0534: real time      0.0546
    SETDIJ:  cpu time      0.6066: real time      0.6087
     EDDAV:  cpu time     16.1769: real time     16.2450
       DOS:  cpu time      0.0061: real time      0.0061
    CHARGE:  cpu time      0.6547: real time      0.6575
    MIXING:  cpu time      0.0048: real time      0.0049
    --------------------------------------------
      LOOP:  cpu time     17.5025: real time     17.5768

 eigenvalue-minimisations  : 33770
 total energy-change (2. order) : 0.1386729E-02  (-0.2993554E-03)
 number of electron     108.0000002 magnetization       1.4217058
 augmentation part        8.7650928 magnetization       0.2915150

 Broyden mixing:
  rms(total) = 0.11169E-01    rms(broyden)= 0.11150E-01
  rms(prec ) = 0.11547E-01
  weight for this iteration     100.00

 eigenvalues of (default mixing * dielectric matrix)
  average eigenvalue GAMMA=   1.3681
  3.6668  2.4835  2.4835  2.3502  1.6592  0.8792  0.8792  0.8095  0.7034  0.6155
  0.3245  0.4435  0.4878

 Free energy of the ion-electron system (eV)
  ---------------------------------------------------
  alpha Z        PSCENC =       562.18399917
  Ewald energy   TEWEN  =     -5884.71831606
  -Hartree energ DENC   =     -1962.81199686
  -exchange      EXHF   =         0.00000000
  -V(xc)+E(xc)   XCENC  =       390.94271680
  PAW double counting   =      9321.20609367    -9248.27282668
  entropy T*S    EENTRO =        -0.01653136
  eigenvalues    EBANDS =     -1064.94369441
  atomic energy  EATOM  =      7784.05479601
  Solvation  Ediel_sol  =         0.00000000
  ---------------------------------------------------
  free energy    TOTEN  =      -102.37575972 eV

  energy without entropy =     -102.35922837  energy(sigma->0) =     -102.36749405


--------------------------------------------------------------------------------------------------------




--------------------------------------- Iteration      1(  19)  ---------------------------------------


    POTLOK:  cpu time      0.0478: real time      0.0531
    SETDIJ:  cpu time      0.5475: real time      0.5496
     EDDAV:  cpu time     16.2776: real time     16.3491
       DOS:  cpu time      0.0058: real time      0.0058
    CHARGE:  cpu time      0.6436: real time      0.6463
    MIXING:  cpu time      0.0051: real time      0.0051
    --------------------------------------------
      LOOP:  cpu time     17.5273: real time     17.6089

 eigenvalue-minimisations  : 34980
 total energy-change (2. order) : 0.6972576E-03  (-0.8626334E-04)
 number of electron     108.0000002 magnetization       0.9024094
 augmentation part        8.7655320 magnetization      -0.3106742

 Broyden mixing:
  rms(total) = 0.11526E-01    rms(broyden)= 0.11518E-01
  rms(prec ) = 0.11915E-01
  weight for this iteration     100.00

 eigenvalues of (default mixing * dielectric matrix)
  average eigenvalue GAMMA=   1.5522
  7.0731  2.3339  2.3339  2.3117  1.8427  0.8376  0.8376  0.8165  0.6412  0.6412
  0.6744  0.6135  0.4490  0.3246

 Free energy of the ion-electron system (eV)
  ---------------------------------------------------
  alpha Z        PSCENC =       562.18399917
  Ewald energy   TEWEN  =     -5884.71831606
  -Hartree energ DENC   =     -1962.85685408
  -exchange      EXHF   =         0.00000000
  -V(xc)+E(xc)   XCENC  =       390.94851789
  PAW double counting   =      9321.43626904    -9248.50486130
  entropy T*S    EENTRO =        -0.01614948
  eigenvalues    EBANDS =     -1064.90246365
  atomic energy  EATOM  =      7784.05479601
  Solvation  Ediel_sol  =         0.00000000
  ---------------------------------------------------
  free energy    TOTEN  =      -102.37506247 eV

  energy without entropy =     -102.35891299  energy(sigma->0) =     -102.36698773


--------------------------------------------------------------------------------------------------------




--------------------------------------- Iteration      1(  20)  ---------------------------------------


    POTLOK:  cpu time      0.0453: real time      0.0456
    SETDIJ:  cpu time      0.5013: real time      0.5036
     EDDAV:  cpu time     15.4199: real time     15.4916
       DOS:  cpu time      0.0064: real time      0.0065
    CHARGE:  cpu time      0.6487: real time      0.6512
    MIXING:  cpu time      0.0031: real time      0.0031
    --------------------------------------------
      LOOP:  cpu time     16.6247: real time     16.7016

 eigenvalue-minimisations  : 32560
 total energy-change (2. order) :-0.3718745E-02  (-0.2066135E-02)
 number of electron     108.0000002 magnetization      -0.4122987
 augmentation part        8.7621525 magnetization      -1.1472786

 Broyden mixing:
  rms(total) = 0.11200E-01    rms(broyden)= 0.11092E-01
  rms(prec ) = 0.11998E-01
  weight for this iteration     100.00

 eigenvalues of (default mixing * dielectric matrix)
  average eigenvalue GAMMA=   2.4970
 22.7292  2.2036  2.2036  1.9668  1.9668  0.9241  0.9241  0.8070  0.8070  0.6765
  0.6512  0.4485  0.4661  0.3245  0.3558

 Free energy of the ion-electron system (eV)
  ---------------------------------------------------
  alpha Z        PSCENC =       562.18399917
  Ewald energy   TEWEN  =     -5884.71831606
  -Hartree energ DENC   =     -1962.61139786
  -exchange      EXHF   =         0.00000000
  -V(xc)+E(xc)   XCENC  =       390.91984508
  PAW double counting   =      9320.23201742    -9247.29513218
  entropy T*S    EENTRO =        -0.01703585
  eigenvalues    EBANDS =     -1065.12755694
  atomic energy  EATOM  =      7784.05479601
  Solvation  Ediel_sol  =         0.00000000
  ---------------------------------------------------
  free energy    TOTEN  =      -102.37878121 eV

  energy without entropy =     -102.36174536  energy(sigma->0) =     -102.37026328


--------------------------------------------------------------------------------------------------------




--------------------------------------- Iteration      1(  21)  ---------------------------------------


    POTLOK:  cpu time      0.0483: real time      0.0498
    SETDIJ:  cpu time      0.5840: real time      0.5863
     EDDAV:  cpu time     15.8383: real time     15.9072
       DOS:  cpu time      0.0057: real time      0.0058
    CHARGE:  cpu time      0.6811: real time      0.6841
    MIXING:  cpu time      0.0036: real time      0.0036
    --------------------------------------------
      LOOP:  cpu time     17.1610: real time     17.2367

 eigenvalue-minimisations  : 33570
 total energy-change (2. order) :-0.2412507E-02  (-0.1336559E-01)
 number of electron     108.0000002 magnetization      -0.3105313
 augmentation part        8.7633613 magnetization       0.0197511

 Broyden mixing:
  rms(total) = 0.20848E-01    rms(broyden)= 0.20477E-01
  rms(prec ) = 0.30239E-01
  weight for this iteration     100.00

 eigenvalues of (default mixing * dielectric matrix)
  average eigenvalue GAMMA=   2.0597
 18.0156  2.2385  2.2385  1.9953  1.9953  0.8942  0.8942  0.6812  0.6812  0.6236
  0.6236  0.5255  0.5255  0.4475  0.3246  0.2506

 Free energy of the ion-electron system (eV)
  ---------------------------------------------------
  alpha Z        PSCENC =       562.18399917
  Ewald energy   TEWEN  =     -5884.71831606
  -Hartree energ DENC   =     -1962.02053198
  -exchange      EXHF   =         0.00000000
  -V(xc)+E(xc)   XCENC  =       390.88199134
  PAW double counting   =      9318.02324906    -9245.08240712
  entropy T*S    EENTRO =        -0.01566142
  eigenvalues    EBANDS =     -1065.68831271
  atomic energy  EATOM  =      7784.05479601
  Solvation  Ediel_sol  =         0.00000000
  ---------------------------------------------------
  free energy    TOTEN  =      -102.38119372 eV

  energy without entropy =     -102.36553230  energy(sigma->0) =     -102.37336301


--------------------------------------------------------------------------------------------------------




--------------------------------------- Iteration      1(  22)  ---------------------------------------


    POTLOK:  cpu time      0.0460: real time      0.0474
    SETDIJ:  cpu time      0.5395: real time      0.5417
     EDDAV:  cpu time     14.8954: real time     14.9578
       DOS:  cpu time      0.0058: real time      0.0058
    CHARGE:  cpu time      0.6499: real time      0.6522
    MIXING:  cpu time      0.0044: real time      0.0044
    --------------------------------------------
      LOOP:  cpu time     16.1410: real time     16.2093

 eigenvalue-minimisations  : 30170
 total energy-change (2. order) :-0.1410141E-02  (-0.5930239E-03)
 number of electron     108.0000002 magnetization      -0.2727991
 augmentation part        8.7632174 magnetization      -0.0281718

 Broyden mixing:
  rms(total) = 0.15493E-01    rms(broyden)= 0.15483E-01
  rms(prec ) = 0.22643E-01
  weight for this iteration     100.00

 eigenvalues of (default mixing * dielectric matrix)
  average eigenvalue GAMMA=   1.9288
 17.4471  2.3176  2.3176  2.0676  1.8160  0.8969  0.8969  0.7049  0.7049  0.6024
  0.6024  0.3246  0.4707  0.4572  0.4572  0.3529  0.3529

 Free energy of the ion-electron system (eV)
  ---------------------------------------------------
  alpha Z        PSCENC =       562.18399917
  Ewald energy   TEWEN  =     -5884.71831606
  -Hartree energ DENC   =     -1962.13061635
  -exchange      EXHF   =         0.00000000
  -V(xc)+E(xc)   XCENC  =       390.88651395
  PAW double counting   =      9317.33324617    -9244.40388315
  entropy T*S    EENTRO =        -0.01515911
  eigenvalues    EBANDS =     -1065.57318449
  atomic energy  EATOM  =      7784.05479601
  Solvation  Ediel_sol  =         0.00000000
  ---------------------------------------------------
  free energy    TOTEN  =      -102.38260386 eV

  energy without entropy =     -102.36744475  energy(sigma->0) =     -102.37502430


--------------------------------------------------------------------------------------------------------




--------------------------------------- Iteration      1(  23)  ---------------------------------------


    POTLOK:  cpu time      0.0445: real time      0.0454
    SETDIJ:  cpu time      0.5522: real time      0.5538
     EDDAV:  cpu time     17.4577: real time     17.5339
       DOS:  cpu time      0.0057: real time      0.0057
    CHARGE:  cpu time      0.6549: real time      0.6575
    MIXING:  cpu time      0.0035: real time      0.0035
    --------------------------------------------
      LOOP:  cpu time     18.7184: real time     18.7998

 eigenvalue-minimisations  : 37750
 total energy-change (2. order) :-0.2068520E-03  (-0.3750750E-04)
 number of electron     108.0000002 magnetization      -0.0064761
 augmentation part        8.7629796 magnetization       0.2052850

 Broyden mixing:
  rms(total) = 0.13470E-01    rms(broyden)= 0.13470E-01
  rms(prec ) = 0.19565E-01
  weight for this iteration     100.00

 eigenvalues of (default mixing * dielectric matrix)
  average eigenvalue GAMMA=   1.6657
 12.8242  2.4487  2.4487  2.1047  1.8905  0.7394  0.7394  0.8719  0.8719  0.7703
  0.7703  0.6344  0.6344  0.5672  0.5672  0.4474  0.3246  0.3272

 Free energy of the ion-electron system (eV)
  ---------------------------------------------------
  alpha Z        PSCENC =       562.18399917
  Ewald energy   TEWEN  =     -5884.71831606
  -Hartree energ DENC   =     -1962.16358029
  -exchange      EXHF   =         0.00000000
  -V(xc)+E(xc)   XCENC  =       390.88779832
  PAW double counting   =      9317.26353595    -9244.33878547
  entropy T*S    EENTRO =        -0.01498971
  eigenvalues    EBANDS =     -1065.53726863
  atomic energy  EATOM  =      7784.05479601
  Solvation  Ediel_sol  =         0.00000000
  ---------------------------------------------------
  free energy    TOTEN  =      -102.38281071 eV

  energy without entropy =     -102.36782101  energy(sigma->0) =     -102.37531586


--------------------------------------------------------------------------------------------------------




--------------------------------------- Iteration      1(  24)  ---------------------------------------


    POTLOK:  cpu time      0.0547: real time      0.0551
    SETDIJ:  cpu time      0.6190: real time      0.6209
     EDDAV:  cpu time     15.2054: real time     15.2708
       DOS:  cpu time      0.0058: real time      0.0058
    CHARGE:  cpu time      0.6564: real time      0.6591
    MIXING:  cpu time      0.0034: real time      0.0034
    --------------------------------------------
      LOOP:  cpu time     16.5448: real time     16.6152

 eigenvalue-minimisations  : 32330
 total energy-change (2. order) :-0.5875762E-03  (-0.6031941E-03)
 number of electron     108.0000002 magnetization      -0.1226672
 augmentation part        8.7614459 magnetization      -0.1149241

 Broyden mixing:
  rms(total) = 0.55444E-02    rms(broyden)= 0.54991E-02
  rms(prec ) = 0.87707E-02
  weight for this iteration     100.00

 eigenvalues of (default mixing * dielectric matrix)
  average eigenvalue GAMMA=   1.6522
 12.7693  2.7428  2.7428  1.9209  1.9209  0.9297  0.9297  0.9594  0.8245  0.8245
  0.5773  0.5773  0.7195  0.6706  0.6706  0.5133  0.4447  0.3245  0.3301

 Free energy of the ion-electron system (eV)
  ---------------------------------------------------
  alpha Z        PSCENC =       562.18399917
  Ewald energy   TEWEN  =     -5884.71831606
  -Hartree energ DENC   =     -1962.30700726
  -exchange      EXHF   =         0.00000000
  -V(xc)+E(xc)   XCENC  =       390.89368899
  PAW double counting   =      9317.65754541    -9244.74831311
  entropy T*S    EENTRO =        -0.01437903
  eigenvalues    EBANDS =     -1065.38541240
  atomic energy  EATOM  =      7784.05479601
  Solvation  Ediel_sol  =         0.00000000
  ---------------------------------------------------
  free energy    TOTEN  =      -102.38339829 eV

  energy without entropy =     -102.36901926  energy(sigma->0) =     -102.37620877


--------------------------------------------------------------------------------------------------------




--------------------------------------- Iteration      1(  25)  ---------------------------------------


    POTLOK:  cpu time      0.0486: real time      0.0495
    SETDIJ:  cpu time      0.5481: real time      0.5505
     EDDAV:  cpu time     15.2674: real time     15.3363
       DOS:  cpu time      0.0058: real time      0.0058
    CHARGE:  cpu time      0.6571: real time      0.6599
    MIXING:  cpu time      0.0051: real time      0.0052
    --------------------------------------------
      LOOP:  cpu time     16.5321: real time     16.6071

 eigenvalue-minimisations  : 31140
 total energy-change (2. order) : 0.8504745E-04  (-0.1031032E-03)
 number of electron     108.0000002 magnetization       0.0624091
 augmentation part        8.7614017 magnetization       0.1587879

 Broyden mixing:
  rms(total) = 0.66331E-02    rms(broyden)= 0.66314E-02
  rms(prec ) = 0.92935E-02
  weight for this iteration     100.00

 eigenvalues of (default mixing * dielectric matrix)
  average eigenvalue GAMMA=   1.4404
  8.0369  3.6555  2.9388  2.2164  1.7529  0.9869  0.9869  0.9908  0.9362  0.8187
  0.8187  0.6554  0.6554  0.6641  0.6320  0.4456  0.4790  0.4790  0.3246  0.3336

 Free energy of the ion-electron system (eV)
  ---------------------------------------------------
  alpha Z        PSCENC =       562.18399917
  Ewald energy   TEWEN  =     -5884.71831606
  -Hartree energ DENC   =     -1962.27486623
  -exchange      EXHF   =         0.00000000
  -V(xc)+E(xc)   XCENC  =       390.89210275
  PAW double counting   =      9317.35068081    -9244.44440242
  entropy T*S    EENTRO =        -0.01451762
  eigenvalues    EBANDS =     -1065.41278964
  atomic energy  EATOM  =      7784.05479601
  Solvation  Ediel_sol  =         0.00000000
  ---------------------------------------------------
  free energy    TOTEN  =      -102.38331324 eV

  energy without entropy =     -102.36879562  energy(sigma->0) =     -102.37605443


--------------------------------------------------------------------------------------------------------




--------------------------------------- Iteration      1(  26)  ---------------------------------------


    POTLOK:  cpu time      0.0494: real time      0.0549
    SETDIJ:  cpu time      0.5502: real time      0.5523
     EDDAV:  cpu time     15.4826: real time     15.5489
       DOS:  cpu time      0.0061: real time      0.0062
    CHARGE:  cpu time      0.6452: real time      0.6476
    MIXING:  cpu time      0.0041: real time      0.0041
    --------------------------------------------
      LOOP:  cpu time     16.7376: real time     16.8140

 eigenvalue-minimisations  : 32140
 total energy-change (2. order) :-0.9147754E-04  (-0.2796839E-03)
 number of electron     108.0000002 magnetization      -0.0841617
 augmentation part        8.7604630 magnetization      -0.1295190

 Broyden mixing:
  rms(total) = 0.26434E-02    rms(broyden)= 0.26032E-02
  rms(prec ) = 0.31221E-02
  weight for this iteration     100.00

 eigenvalues of (default mixing * dielectric matrix)
  average eigenvalue GAMMA=   1.5966
 12.9179  2.7931  2.4632  2.4632  1.0369  1.0369  1.1570  1.1570  1.0067  1.0067
  0.8520  0.8520  0.7274  0.7274  0.6570  0.6007  0.5071  0.4724  0.4378  0.3246
  0.3312

 Free energy of the ion-electron system (eV)
  ---------------------------------------------------
  alpha Z        PSCENC =       562.18399917
  Ewald energy   TEWEN  =     -5884.71831606
  -Hartree energ DENC   =     -1962.38965187
  -exchange      EXHF   =         0.00000000
  -V(xc)+E(xc)   XCENC  =       390.89770318
  PAW double counting   =      9317.55308438    -9244.65121630
  entropy T*S    EENTRO =        -0.01439277
  eigenvalues    EBANDS =     -1065.29941044
  atomic energy  EATOM  =      7784.05479601
  Solvation  Ediel_sol  =         0.00000000
  ---------------------------------------------------
  free energy    TOTEN  =      -102.38340472 eV

  energy without entropy =     -102.36901194  energy(sigma->0) =     -102.37620833


--------------------------------------------------------------------------------------------------------




--------------------------------------- Iteration      1(  27)  ---------------------------------------


    POTLOK:  cpu time      0.0521: real time      0.0531
    SETDIJ:  cpu time      0.6069: real time      0.6087
     EDDAV:  cpu time     14.9481: real time     15.0112
       DOS:  cpu time      0.0058: real time      0.0058
    CHARGE:  cpu time      0.6570: real time      0.6596
    MIXING:  cpu time      0.0047: real time      0.0047
    --------------------------------------------
      LOOP:  cpu time     16.2746: real time     16.3431

 eigenvalue-minimisations  : 31720
 total energy-change (2. order) : 0.1907585E-04  (-0.1439972E-03)
 number of electron     108.0000002 magnetization       0.0696399
 augmentation part        8.7605301 magnetization       0.1351107

 Broyden mixing:
  rms(total) = 0.40068E-02    rms(broyden)= 0.39983E-02
  rms(prec ) = 0.49781E-02
  weight for this iteration     100.00

 eigenvalues of (default mixing * dielectric matrix)
  average eigenvalue GAMMA=   1.4601
  7.8256  5.2242  2.8112  2.4313  0.9487  0.9487  1.3499  1.3499  1.0949  1.0949
  0.8312  0.8312  0.6024  0.6024  0.7311  0.7011  0.7011  0.5798  0.4467  0.3246
  0.3342  0.3575

 Free energy of the ion-electron system (eV)
  ---------------------------------------------------
  alpha Z        PSCENC =       562.18399917
  Ewald energy   TEWEN  =     -5884.71831606
  -Hartree energ DENC   =     -1962.34118131
  -exchange      EXHF   =         0.00000000
  -V(xc)+E(xc)   XCENC  =       390.89522526
  PAW double counting   =      9317.16743664    -9244.26031994
  entropy T*S    EENTRO =        -0.01444006
  eigenvalues    EBANDS =     -1065.35058534
  atomic energy  EATOM  =      7784.05479601
  Solvation  Ediel_sol  =         0.00000000
  ---------------------------------------------------
  free energy    TOTEN  =      -102.38338564 eV

  energy without entropy =     -102.36894558  energy(sigma->0) =     -102.37616561


--------------------------------------------------------------------------------------------------------




--------------------------------------- Iteration      1(  28)  ---------------------------------------


    POTLOK:  cpu time      0.0493: real time      0.0496
    SETDIJ:  cpu time      0.6044: real time      0.6065
     EDDAV:  cpu time     15.4931: real time     15.5558
       DOS:  cpu time      0.0057: real time      0.0057
    CHARGE:  cpu time      0.6645: real time      0.6672
    MIXING:  cpu time      0.0047: real time      0.0047
    --------------------------------------------
      LOOP:  cpu time     16.8217: real time     16.8895

 eigenvalue-minimisations  : 31780
 total energy-change (2. order) :-0.2505472E-04  (-0.1845433E-03)
 number of electron     108.0000002 magnetization       0.0040531
 augmentation part        8.7599292 magnetization      -0.0483257

 Broyden mixing:
  rms(total) = 0.21356E-02    rms(broyden)= 0.21076E-02
  rms(prec ) = 0.22508E-02
  weight for this iteration     100.00

 eigenvalues of (default mixing * dielectric matrix)
  average eigenvalue GAMMA=   1.5123
 10.9332  3.2841  2.8929  2.5358  1.5718  1.5718  0.9439  0.9439  1.1453  1.1453
  0.8535  0.8375  0.8375  0.7346  0.7346  0.6757  0.6231  0.5358  0.5358  0.4458
  0.3246  0.3324  0.3448

 Free energy of the ion-electron system (eV)
  ---------------------------------------------------
  alpha Z        PSCENC =       562.18399917
  Ewald energy   TEWEN  =     -5884.71831606
  -Hartree energ DENC   =     -1962.43104832
  -exchange      EXHF   =         0.00000000
  -V(xc)+E(xc)   XCENC  =       390.89966594
  PAW double counting   =      9317.57854179    -9244.67135080
  entropy T*S    EENTRO =        -0.01440190
  eigenvalues    EBANDS =     -1065.26529652
  atomic energy  EATOM  =      7784.05479601
  Solvation  Ediel_sol  =         0.00000000
  ---------------------------------------------------
  free energy    TOTEN  =      -102.38341070 eV

  energy without entropy =     -102.36900880  energy(sigma->0) =     -102.37620975


--------------------------------------------------------------------------------------------------------




--------------------------------------- Iteration      1(  29)  ---------------------------------------


    POTLOK:  cpu time      0.0430: real time      0.0440
    SETDIJ:  cpu time      0.5406: real time      0.5425
     EDDAV:  cpu time     14.8866: real time     14.9485
       DOS:  cpu time      0.0059: real time      0.0059
    CHARGE:  cpu time      0.6508: real time      0.6530
    MIXING:  cpu time      0.0049: real time      0.0049
    --------------------------------------------
      LOOP:  cpu time     16.1318: real time     16.1987

 eigenvalue-minimisations  : 30500
 total energy-change (2. order) :-0.5045804E-04  (-0.3019960E-04)
 number of electron     108.0000002 magnetization      -0.0133193
 augmentation part        8.7598907 magnetization      -0.0159726

 Broyden mixing:
  rms(total) = 0.68182E-03    rms(broyden)= 0.67600E-03
  rms(prec ) = 0.73129E-03
  weight for this iteration     100.00

 eigenvalues of (default mixing * dielectric matrix)
  average eigenvalue GAMMA=   1.4989
 10.5048  3.9734  2.8999  2.4130  1.6662  1.6662  0.9447  0.9447  1.2068  1.2068
  0.9830  0.8294  0.8294  0.7401  0.7401  0.6734  0.6734  0.6254  0.5096  0.5096
  0.4453  0.3246  0.3322  0.3322

 Free energy of the ion-electron system (eV)
  ---------------------------------------------------
  alpha Z        PSCENC =       562.18399917
  Ewald energy   TEWEN  =     -5884.71831606
  -Hartree energ DENC   =     -1962.41088447
  -exchange      EXHF   =         0.00000000
  -V(xc)+E(xc)   XCENC  =       390.89852326
  PAW double counting   =      9317.61015069    -9244.69826863
  entropy T*S    EENTRO =        -0.01437459
  eigenvalues    EBANDS =     -1065.28908653
  atomic energy  EATOM  =      7784.05479601
  Solvation  Ediel_sol  =         0.00000000
  ---------------------------------------------------
  free energy    TOTEN  =      -102.38346115 eV

  energy without entropy =     -102.36908657  energy(sigma->0) =     -102.37627386


--------------------------------------------------------------------------------------------------------




--------------------------------------- Iteration      1(  30)  ---------------------------------------


    POTLOK:  cpu time      0.0512: real time      0.0521
    SETDIJ:  cpu time      0.6088: real time      0.6111
     EDDAV:  cpu time     15.5662: real time     15.6329
       DOS:  cpu time      0.0064: real time      0.0064
    CHARGE:  cpu time      0.6502: real time      0.6525
    MIXING:  cpu time      0.0060: real time      0.0060
    --------------------------------------------
      LOOP:  cpu time     16.8888: real time     16.9611

 eigenvalue-minimisations  : 33370
 total energy-change (2. order) :-0.4325657E-06  (-0.3683246E-05)
 number of electron     108.0000002 magnetization      -0.0046611
 augmentation part        8.7598951 magnetization       0.0052666

 Broyden mixing:
  rms(total) = 0.53740E-03    rms(broyden)= 0.53348E-03
  rms(prec ) = 0.68830E-03
  weight for this iteration     100.00

 eigenvalues of (default mixing * dielectric matrix)
  average eigenvalue GAMMA=   1.4530
 10.0137  4.4352  2.9023  2.4134  1.6238  1.6238  0.9465  0.9465  1.2152  1.2152
  0.9635  0.8448  0.8448  0.7322  0.7322  0.6823  0.6823  0.6241  0.5119  0.5119
  0.4461  0.4171  0.3246  0.3318  0.3393

 Free energy of the ion-electron system (eV)
  ---------------------------------------------------
  alpha Z        PSCENC =       562.18399917
  Ewald energy   TEWEN  =     -5884.71831606
  -Hartree energ DENC   =     -1962.40737476
  -exchange      EXHF   =         0.00000000
  -V(xc)+E(xc)   XCENC  =       390.89832547
  PAW double counting   =      9317.68848603    -9244.77475917
  entropy T*S    EENTRO =        -0.01437738
  eigenvalues    EBANDS =     -1065.29424088
  atomic energy  EATOM  =      7784.05479601
  Solvation  Ediel_sol  =         0.00000000
  ---------------------------------------------------
  free energy    TOTEN  =      -102.38346159 eV

  energy without entropy =     -102.36908420  energy(sigma->0) =     -102.37627289


--------------------------------------------------------------------------------------------------------




--------------------------------------- Iteration      1(  31)  ---------------------------------------


    POTLOK:  cpu time      0.0493: real time      0.0503
    SETDIJ:  cpu time      0.6052: real time      0.6072
     EDDAV:  cpu time     14.7929: real time     14.8521
       DOS:  cpu time      0.0057: real time      0.0057
    CHARGE:  cpu time      0.6552: real time      0.6578
    MIXING:  cpu time      0.0050: real time      0.0050
    --------------------------------------------
      LOOP:  cpu time     16.1133: real time     16.1782

 eigenvalue-minimisations  : 30040
 total energy-change (2. order) :-0.1510097E-05  (-0.7210492E-06)
 number of electron     108.0000002 magnetization      -0.0024066
 augmentation part        8.7598559 magnetization       0.0010896

 Broyden mixing:
  rms(total) = 0.28792E-03    rms(broyden)= 0.28672E-03
  rms(prec ) = 0.38952E-03
  weight for this iteration     100.00

 eigenvalues of (default mixing * dielectric matrix)
  average eigenvalue GAMMA=   1.4196
 10.0713  4.3899  2.9087  2.4144  1.6495  1.6495  0.9464  0.9464  1.1739  1.1739
  1.0090  0.8433  0.8433  0.7182  0.7182  0.6781  0.6781  0.5102  0.5102  0.6241
  0.5084  0.5084  0.4454  0.3246  0.3334  0.3334

 Free energy of the ion-electron system (eV)
  ---------------------------------------------------
  alpha Z        PSCENC =       562.18399917
  Ewald energy   TEWEN  =     -5884.71831606
  -Hartree energ DENC   =     -1962.41356759
  -exchange      EXHF   =         0.00000000
  -V(xc)+E(xc)   XCENC  =       390.89864352
  PAW double counting   =      9317.72449690    -9244.81043660
  entropy T*S    EENTRO =        -0.01437537
  eigenvalues    EBANDS =     -1065.28870307
  atomic energy  EATOM  =      7784.05479601
  Solvation  Ediel_sol  =         0.00000000
  ---------------------------------------------------
  free energy    TOTEN  =      -102.38346310 eV

  energy without entropy =     -102.36908773  energy(sigma->0) =     -102.37627541


--------------------------------------------------------------------------------------------------------




--------------------------------------- Iteration      1(  32)  ---------------------------------------


    POTLOK:  cpu time      0.0518: real time      0.0522
    SETDIJ:  cpu time      0.5536: real time      0.5558
     EDDAV:  cpu time     11.3093: real time     11.3578
       DOS:  cpu time      0.0064: real time      0.0064
    --------------------------------------------
      LOOP:  cpu time     11.9211: real time     11.9720

 eigenvalue-minimisations  : 20070
 total energy-change (2. order) :-0.3070572E-06  (-0.1956726E-06)
 number of electron     108.0000002 magnetization      -0.0024066
 augmentation part        8.7598559 magnetization       0.0010896

 Free energy of the ion-electron system (eV)
  ---------------------------------------------------
  alpha Z        PSCENC =       562.18399917
  Ewald energy   TEWEN  =     -5884.71831606
  -Hartree energ DENC   =     -1962.41607813
  -exchange      EXHF   =         0.00000000
  -V(xc)+E(xc)   XCENC  =       390.89876929
  PAW double counting   =      9317.74859073    -9244.83429501
  entropy T*S    EENTRO =        -0.01437522
  eigenvalues    EBANDS =     -1065.28655418
  atomic energy  EATOM  =      7784.05479601
  Solvation  Ediel_sol  =         0.00000000
  ---------------------------------------------------
  free energy    TOTEN  =      -102.38346340 eV

  energy without entropy =     -102.36908818  energy(sigma->0) =     -102.37627579


--------------------------------------------------------------------------------------------------------




 average (electrostatic) potential at core
  the test charge radii are     1.3212  0.6991  0.7215
  (the norm of the test charge is              1.0000)
       1 -35.8900       2 -35.8900       3 -35.8841       4 -35.8841       5 -53.8435
       6 -53.8435       7 -53.8697       8 -53.8697       9 -74.4431      10 -74.4431
      11 -73.9937      12 -73.9938      13 -74.2587      14 -74.2588      15 -73.8241
      16 -73.8241
 
 
 
 E-fermi :   5.4940     XC(G=0): -10.0365     alpha+bet :-10.3266

 Fermi energy:         5.4939725035

 spin component 1

 k-point     1 :       0.0000    0.0000    0.0000
  band No.  band energies     occupation 
      1     -33.8530      1.00000
      2     -33.8260      1.00000
      3     -33.8218      1.00000
      4     -33.8184      1.00000
      5     -20.3003      1.00000
      6     -20.2908      1.00000
      7     -20.1607      1.00000
      8     -20.1485      1.00000
      9     -18.9057      1.00000
     10     -18.8835      1.00000
     11     -18.7297      1.00000
     12     -18.5897      1.00000
     13     -15.2985      1.00000
     14     -15.1924      1.00000
     15     -15.1572      1.00000
     16     -15.1026      1.00000
     17     -15.0545      1.00000
     18     -15.0336      1.00000
     19     -15.0222      1.00000
     20     -14.9800      1.00000
     21     -14.9381      1.00000
     22     -14.9243      1.00000
     23     -14.9114      1.00000
     24     -14.7282      1.00000
     25      -7.0025      1.00000
     26      -6.9349      1.00000
     27      -6.7138      1.00000
     28      -6.6669      1.00000
     29      -4.8385      1.00000
     30      -4.7853      1.00000
     31      -4.7175      1.00000
     32      -4.6545      1.00000
     33      -3.9501      1.00000
     34      -3.8972      1.00000
     35      -3.8385      1.00000
     36      -3.7642      1.00000
     37      -3.6407      1.00000
     38      -3.5878      1.00000
     39      -3.4860      1.00000
     40      -3.3665      1.00000
     41      -2.2857      1.00000
     42      -2.0774      1.00000
     43      -1.8634      1.00000
     44      -1.7663      1.00000
     45      -1.6750      1.00000
     46      -1.6152      1.00000
     47      -1.3338      1.00000
     48      -0.8854      1.00000
     49       3.6853      1.00000
     50       4.6294      1.00000
     51       5.3363      1.00000
     52       5.4666      0.78023
     53       5.5621      0.02706
     54       5.7182      0.00000
     55       5.7689      0.00000
     56       6.0186      0.00000
     57       6.0363      0.00000
     58       6.1606      0.00000
     59       6.2593      0.00000
     60       6.3188      0.00000
     61       6.5265      0.00000
     62       6.5321      0.00000
     63       6.6385      0.00000
     64       6.8536      0.00000
     65       6.9712      0.00000
     66       7.4728      0.00000
     67       7.5300      0.00000
     68       7.6741      0.00000
     69       7.9812      0.00000
     70       8.2442      0.00000

 k-point     2 :       0.2000    0.0000    0.0000
  band No.  band energies     occupation 
      1     -33.8505      1.00000
      2     -33.8284      1.00000
      3     -33.8223      1.00000
      4     -33.8180      1.00000
      5     -20.3036      1.00000
      6     -20.2949      1.00000
      7     -20.1647      1.00000
      8     -20.1539      1.00000
      9     -18.8941      1.00000
     10     -18.8717      1.00000
     11     -18.7120      1.00000
     12     -18.5957      1.00000
     13     -15.2885      1.00000
     14     -15.2026      1.00000
     15     -15.1522      1.00000
     16     -15.1079      1.00000
     17     -15.0715      1.00000
     18     -15.0352      1.00000
     19     -15.0181      1.00000
     20     -14.9780      1.00000
     21     -14.9396      1.00000
     22     -14.9245      1.00000
     23     -14.9133      1.00000
     24     -14.7500      1.00000
     25      -6.9247      1.00000
     26      -6.8595      1.00000
     27      -6.6788      1.00000
     28      -6.6368      1.00000
     29      -4.9108      1.00000
     30      -4.8480      1.00000
     31      -4.7948      1.00000
     32      -4.7477      1.00000
     33      -3.9814      1.00000
     34      -3.9054      1.00000
     35      -3.8834      1.00000
     36      -3.7539      1.00000
     37      -3.7151      1.00000
     38      -3.6089      1.00000
     39      -3.4922      1.00000
     40      -3.3917      1.00000
     41      -2.2274      1.00000
     42      -1.9380      1.00000
     43      -1.8776      1.00000
     44      -1.6754      1.00000
     45      -1.6162      1.00000
     46      -1.5166      1.00000
     47      -1.2780      1.00000
     48      -0.9565      1.00000
     49       3.9038      1.00000
     50       4.7478      1.00000
     51       5.2414      1.00000
     52       5.4116      0.99006
     53       5.4366      0.94762
     54       5.5583      0.03438
     55       5.5975      0.00170
     56       5.7666      0.00000
     57       6.1054      0.00000
     58       6.2391      0.00000
     59       6.3120      0.00000
     60       6.3896      0.00000
     61       6.5939      0.00000
     62       6.6125      0.00000
     63       6.7261      0.00000
     64       6.8437      0.00000
     65       6.8893      0.00000
     66       7.2323      0.00000
     67       7.3892      0.00000
     68       7.6099      0.00000
     69       8.0390      0.00000
     70       8.2255      0.00000

 k-point     3 :       0.4000    0.0000   -0.0000
  band No.  band energies     occupation 
      1     -33.8442      1.00000
      2     -33.8345      1.00000
      3     -33.8231      1.00000
      4     -33.8174      1.00000
      5     -20.3091      1.00000
      6     -20.3012      1.00000
      7     -20.1708      1.00000
      8     -20.1628      1.00000
      9     -18.8722      1.00000
     10     -18.8575      1.00000
     11     -18.6690      1.00000
     12     -18.6185      1.00000
     13     -15.2624      1.00000
     14     -15.2291      1.00000
     15     -15.1394      1.00000
     16     -15.1209      1.00000
     17     -15.0940      1.00000
     18     -15.0399      1.00000
     19     -15.0176      1.00000
     20     -14.9662      1.00000
     21     -14.9602      1.00000
     22     -14.9394      1.00000
     23     -14.8714      1.00000
     24     -14.8030      1.00000
     25      -6.7570      1.00000
     26      -6.7099      1.00000
     27      -6.6505      1.00000
     28      -6.5943      1.00000
     29      -5.0149      1.00000
     30      -4.9625      1.00000
     31      -4.9478      1.00000
     32      -4.9179      1.00000
     33      -4.0078      1.00000
     34      -3.9671      1.00000
     35      -3.8902      1.00000
     36      -3.8217      1.00000
     37      -3.7206      1.00000
     38      -3.6651      1.00000
     39      -3.4860      1.00000
     40      -3.4384      1.00000
     41      -2.0944      1.00000
     42      -1.9577      1.00000
     43      -1.7026      1.00000
     44      -1.5807      1.00000
     45      -1.4295      1.00000
     46      -1.3148      1.00000
     47      -1.2213      1.00000
     48      -1.1556      1.00000
     49       4.4273      1.00000
     50       4.8306      1.00000
     51       5.0840      1.00000
     52       5.3013      1.00000
     53       5.3238      1.00000
     54       5.3631      0.99989
     55       5.5846      0.00517
     56       5.6785      0.00000
     57       5.9981      0.00000
     58       6.1129      0.00000
     59       6.2516      0.00000
     60       6.3634      0.00000
     61       6.5473      0.00000
     62       6.5547      0.00000
     63       6.7780      0.00000
     64       6.8549      0.00000
     65       7.0044      0.00000
     66       7.0462      0.00000
     67       7.1281      0.00000
     68       7.4369      0.00000
     69       8.1090      0.00000
     70       8.2324      0.00000

 k-point     4 :       0.0000    0.1429    0.0000
  band No.  band energies     occupation 
      1     -33.8510      1.00000
      2     -33.8252      1.00000
      3     -33.8228      1.00000
      4     -33.8181      1.00000
      5     -20.3218      1.00000
      6     -20.3117      1.00000
      7     -20.1896      1.00000
      8     -20.1774      1.00000
      9     -18.9021      1.00000
     10     -18.8865      1.00000
     11     -18.7415      1.00000
     12     -18.6112      1.00000
     13     -15.2022      1.00000
     14     -15.1065      1.00000
     15     -15.0725      1.00000
     16     -15.0602      1.00000
     17     -15.0279      1.00000
     18     -15.0234      1.00000
     19     -15.0150      1.00000
     20     -14.9866      1.00000
     21     -14.9482      1.00000
     22     -14.9289      1.00000
     23     -14.9117      1.00000
     24     -14.7461      1.00000
     25      -6.9790      1.00000
     26      -6.9242      1.00000
     27      -6.6944      1.00000
     28      -6.6486      1.00000
     29      -4.8327      1.00000
     30      -4.7833      1.00000
     31      -4.7145      1.00000
     32      -4.6573      1.00000
     33      -3.9919      1.00000
     34      -3.9568      1.00000
     35      -3.9011      1.00000
     36      -3.8516      1.00000
     37      -3.7756      1.00000
     38      -3.6897      1.00000
     39      -3.6592      1.00000
     40      -3.5957      1.00000
     41      -2.1929      1.00000
     42      -2.0546      1.00000
     43      -1.7693      1.00000
     44      -1.6929      1.00000
     45      -1.6698      1.00000
     46      -1.6121      1.00000
     47      -1.3701      1.00000
     48      -0.8944      1.00000
     49       3.9626      1.00000
     50       4.3527      1.00000
     51       5.2661      1.00000
     52       5.3264      1.00000
     53       5.4045      0.99433
     54       5.4065      0.99334
     55       5.5326      0.13736
     56       5.6774      0.00000
     57       6.0342      0.00000
     58       6.3865      0.00000
     59       6.4733      0.00000
     60       6.5548      0.00000
     61       6.6776      0.00000
     62       6.7781      0.00000
     63       6.8905      0.00000
     64       6.9233      0.00000
     65       7.0816      0.00000
     66       7.6496      0.00000
     67       7.7012      0.00000
     68       7.9296      0.00000
     69       7.9949      0.00000
     70       8.0698      0.00000

 k-point     5 :       0.2000    0.1429    0.0000
  band No.  band energies     occupation 
      1     -33.8486      1.00000
      2     -33.8275      1.00000
      3     -33.8230      1.00000
      4     -33.8180      1.00000
      5     -20.3253      1.00000
      6     -20.3158      1.00000
      7     -20.1937      1.00000
      8     -20.1828      1.00000
      9     -18.8911      1.00000
     10     -18.8740      1.00000
     11     -18.7242      1.00000
     12     -18.6159      1.00000
     13     -15.1983      1.00000
     14     -15.1281      1.00000
     15     -15.0810      1.00000
     16     -15.0550      1.00000
     17     -15.0418      1.00000
     18     -15.0257      1.00000
     19     -15.0032      1.00000
     20     -14.9836      1.00000
     21     -14.9418      1.00000
     22     -14.9276      1.00000
     23     -14.9148      1.00000
     24     -14.7669      1.00000
     25      -6.9016      1.00000
     26      -6.8483      1.00000
     27      -6.6605      1.00000
     28      -6.6180      1.00000
     29      -4.9062      1.00000
     30      -4.8477      1.00000
     31      -4.7926      1.00000
     32      -4.7497      1.00000
     33      -4.0304      1.00000
     34      -3.9760      1.00000
     35      -3.9249      1.00000
     36      -3.8619      1.00000
     37      -3.7840      1.00000
     38      -3.7430      1.00000
     39      -3.6861      1.00000
     40      -3.5940      1.00000
     41      -2.1422      1.00000
     42      -1.9205      1.00000
     43      -1.7900      1.00000
     44      -1.6413      1.00000
     45      -1.5949      1.00000
     46      -1.4973      1.00000
     47      -1.3153      1.00000
     48      -0.9548      1.00000
     49       4.1764      1.00000
     50       4.4588      1.00000
     51       5.1389      1.00000
     52       5.1615      1.00000
     53       5.2458      1.00000
     54       5.4129      0.98908
     55       5.4866      0.58236
     56       5.8208      0.00000
     57       6.0567      0.00000
     58       6.2853      0.00000
     59       6.3633      0.00000
     60       6.5667      0.00000
     61       6.6230      0.00000
     62       6.8150      0.00000
     63       6.9174      0.00000
     64       7.0036      0.00000
     65       7.0582      0.00000
     66       7.5377      0.00000
     67       7.5642      0.00000
     68       7.7379      0.00000
     69       7.9600      0.00000
     70       8.0871      0.00000

 k-point     6 :      -0.2000    0.1429   -0.0000
  band No.  band energies     occupation 
      1     -33.8486      1.00000
      2     -33.8275      1.00000
      3     -33.8230      1.00000
      4     -33.8180      1.00000
      5     -20.3253      1.00000
      6     -20.3158      1.00000
      7     -20.1937      1.00000
      8     -20.1828      1.00000
      9     -18.8911      1.00000
     10     -18.8741      1.00000
     11     -18.7242      1.00000
     12     -18.6159      1.00000
     13     -15.1982      1.00000
     14     -15.1282      1.00000
     15     -15.0809      1.00000
     16     -15.0550      1.00000
     17     -15.0418      1.00000
     18     -15.0257      1.00000
     19     -15.0032      1.00000
     20     -14.9836      1.00000
     21     -14.9418      1.00000
     22     -14.9275      1.00000
     23     -14.9148      1.00000
     24     -14.7669      1.00000
     25      -6.9016      1.00000
     26      -6.8483      1.00000
     27      -6.6605      1.00000
     28      -6.6180      1.00000
     29      -4.9062      1.00000
     30      -4.8477      1.00000
     31      -4.7926      1.00000
     32      -4.7497      1.00000
     33      -4.0304      1.00000
     34      -3.9758      1.00000
     35      -3.9252      1.00000
     36      -3.8618      1.00000
     37      -3.7839      1.00000
     38      -3.7430      1.00000
     39      -3.6861      1.00000
     40      -3.5940      1.00000
     41      -2.1422      1.00000
     42      -1.9205      1.00000
     43      -1.7900      1.00000
     44      -1.6413      1.00000
     45      -1.5949      1.00000
     46      -1.4973      1.00000
     47      -1.3153      1.00000
     48      -0.9548      1.00000
     49       4.1764      1.00000
     50       4.4588      1.00000
     51       5.1389      1.00000
     52       5.1616      1.00000
     53       5.2458      1.00000
     54       5.4126      0.98928
     55       5.4867      0.58178
     56       5.8212      0.00000
     57       6.0562      0.00000
     58       6.2853      0.00000
     59       6.3635      0.00000
     60       6.5667      0.00000
     61       6.6227      0.00000
     62       6.8152      0.00000
     63       6.9177      0.00000
     64       7.0035      0.00000
     65       7.0581      0.00000
     66       7.5377      0.00000
     67       7.5642      0.00000
     68       7.7378      0.00000
     69       7.9601      0.00000
     70       8.0881      0.00000

 k-point     7 :       0.4000    0.1429   -0.0000
  band No.  band energies     occupation 
      1     -33.8427      1.00000
      2     -33.8332      1.00000
      3     -33.8234      1.00000
      4     -33.8178      1.00000
      5     -20.3308      1.00000
      6     -20.3224      1.00000
      7     -20.1998      1.00000
      8     -20.1919      1.00000
      9     -18.8705      1.00000
     10     -18.8581      1.00000
     11     -18.6832      1.00000
     12     -18.6356      1.00000
     13     -15.1914      1.00000
     14     -15.1546      1.00000
     15     -15.0913      1.00000
     16     -15.0678      1.00000
     17     -15.0559      1.00000
     18     -15.0285      1.00000
     19     -14.9866      1.00000
     20     -14.9711      1.00000
     21     -14.9435      1.00000
     22     -14.9390      1.00000
     23     -14.8830      1.00000
     24     -14.8172      1.00000
     25      -6.7354      1.00000
     26      -6.6956      1.00000
     27      -6.6318      1.00000
     28      -6.5778      1.00000
     29      -5.0133      1.00000
     30      -4.9647      1.00000
     31      -4.9485      1.00000
     32      -4.9174      1.00000
     33      -4.0647      1.00000
     34      -4.0246      1.00000
     35      -3.9472      1.00000
     36      -3.8705      1.00000
     37      -3.8345      1.00000
     38      -3.7960      1.00000
     39      -3.6737      1.00000
     40      -3.6242      1.00000
     41      -2.0154      1.00000
     42      -1.8865      1.00000
     43      -1.6768      1.00000
     44      -1.5644      1.00000
     45      -1.4379      1.00000
     46      -1.2826      1.00000
     47      -1.2736      1.00000
     48      -1.1085      1.00000
     49       4.6167      1.00000
     50       4.6889      1.00000
     51       4.9464      1.00000
     52       4.9775      1.00000
     53       5.1323      1.00000
     54       5.2459      1.00000
     55       5.6482      0.00001
     56       5.7736      0.00000
     57       5.9845      0.00000
     58       6.1740      0.00000
     59       6.4155      0.00000
     60       6.5200      0.00000
     61       6.6241      0.00000
     62       6.6797      0.00000
     63       6.7245      0.00000
     64       6.8602      0.00000
     65       7.0460      0.00000
     66       7.2798      0.00000
     67       7.4522      0.00000
     68       7.5751      0.00000
     69       7.9852      0.00000
     70       8.1239      0.00000

 k-point     8 :      -0.4000    0.1429    0.0000
  band No.  band energies     occupation 
      1     -33.8427      1.00000
      2     -33.8332      1.00000
      3     -33.8234      1.00000
      4     -33.8178      1.00000
      5     -20.3308      1.00000
      6     -20.3224      1.00000
      7     -20.1998      1.00000
      8     -20.1919      1.00000
      9     -18.8705      1.00000
     10     -18.8581      1.00000
     11     -18.6832      1.00000
     12     -18.6356      1.00000
     13     -15.1914      1.00000
     14     -15.1546      1.00000
     15     -15.0913      1.00000
     16     -15.0678      1.00000
     17     -15.0559      1.00000
     18     -15.0285      1.00000
     19     -14.9866      1.00000
     20     -14.9711      1.00000
     21     -14.9435      1.00000
     22     -14.9390      1.00000
     23     -14.8830      1.00000
     24     -14.8172      1.00000
     25      -6.7354      1.00000
     26      -6.6956      1.00000
     27      -6.6318      1.00000
     28      -6.5778      1.00000
     29      -5.0133      1.00000
     30      -4.9647      1.00000
     31      -4.9485      1.00000
     32      -4.9174      1.00000
     33      -4.0648      1.00000
     34      -4.0245      1.00000
     35      -3.9474      1.00000
     36      -3.8705      1.00000
     37      -3.8345      1.00000
     38      -3.7961      1.00000
     39      -3.6737      1.00000
     40      -3.6242      1.00000
     41      -2.0154      1.00000
     42      -1.8865      1.00000
     43      -1.6768      1.00000
     44      -1.5644      1.00000
     45      -1.4380      1.00000
     46      -1.2825      1.00000
     47      -1.2736      1.00000
     48      -1.1085      1.00000
     49       4.6166      1.00000
     50       4.6890      1.00000
     51       4.9465      1.00000
     52       4.9775      1.00000
     53       5.1323      1.00000
     54       5.2457      1.00000
     55       5.6482      0.00001
     56       5.7739      0.00000
     57       5.9841      0.00000
     58       6.1742      0.00000
     59       6.4155      0.00000
     60       6.5199      0.00000
     61       6.6241      0.00000
     62       6.6797      0.00000
     63       6.7246      0.00000
     64       6.8601      0.00000
     65       7.0462      0.00000
     66       7.2798      0.00000
     67       7.4522      0.00000
     68       7.5750      0.00000
     69       7.9852      0.00000
     70       8.1199      0.00000

 k-point     9 :       0.0000    0.2857    0.0000
  band No.  band energies     occupation 
      1     -33.8455      1.00000
      2     -33.8258      1.00000
      3     -33.8234      1.00000
      4     -33.8174      1.00000
      5     -20.3700      1.00000
      6     -20.3585      1.00000
      7     -20.2537      1.00000
      8     -20.2404      1.00000
      9     -18.8911      1.00000
     10     -18.8840      1.00000
     11     -18.7643      1.00000
     12     -18.6638      1.00000
     13     -15.0558      1.00000
     14     -15.0417      1.00000
     15     -15.0183      1.00000
     16     -15.0172      1.00000
     17     -14.9958      1.00000
     18     -14.9458      1.00000
     19     -14.9387      1.00000
     20     -14.9315      1.00000
     21     -14.8850      1.00000
     22     -14.8719      1.00000
     23     -14.8390      1.00000
     24     -14.7816      1.00000
     25      -6.9214      1.00000
     26      -6.8902      1.00000
     27      -6.6435      1.00000
     28      -6.5988      1.00000
     29      -4.8168      1.00000
     30      -4.7797      1.00000
     31      -4.7066      1.00000
     32      -4.6646      1.00000
     33      -4.2845      1.00000
     34      -4.1883      1.00000
     35      -4.1548      1.00000
     36      -4.1477      1.00000
     37      -4.0583      1.00000
     38      -3.9927      1.00000
     39      -3.8509      1.00000
     40      -3.7289      1.00000
     41      -1.9711      1.00000
     42      -1.9124      1.00000
     43      -1.6714      1.00000
     44      -1.6134      1.00000
     45      -1.5985      1.00000
     46      -1.5102      1.00000
     47      -1.4309      1.00000
     48      -0.9585      1.00000
     49       3.9671      1.00000
     50       4.3696      1.00000
     51       4.8415      1.00000
     52       5.1212      1.00000
     53       5.1759      1.00000
     54       5.3188      1.00000
     55       5.4078      0.99262
     56       5.6653      0.00000
     57       6.0429      0.00000
     58       6.2882      0.00000
     59       6.5618      0.00000
     60       6.7840      0.00000
     61       6.8210      0.00000
     62       7.0095      0.00000
     63       7.0751      0.00000
     64       7.1376      0.00000
     65       7.4579      0.00000
     66       7.5626      0.00000
     67       7.6201      0.00000
     68       7.8232      0.00000
     69       7.8806      0.00000
     70       7.9384      0.00000

 k-point    10 :       0.2000    0.2857    0.0000
  band No.  band energies     occupation 
      1     -33.8435      1.00000
      2     -33.8257      1.00000
      3     -33.8249      1.00000
      4     -33.8180      1.00000
      5     -20.3735      1.00000
      6     -20.3629      1.00000
      7     -20.2575      1.00000
      8     -20.2462      1.00000
      9     -18.8799      1.00000
     10     -18.8721      1.00000
     11     -18.7484      1.00000
     12     -18.6648      1.00000
     13     -15.0903      1.00000
     14     -15.0546      1.00000
     15     -15.0316      1.00000
     16     -15.0142      1.00000
     17     -14.9798      1.00000
     18     -14.9724      1.00000
     19     -14.9433      1.00000
     20     -14.9236      1.00000
     21     -14.8772      1.00000
     22     -14.8613      1.00000
     23     -14.8197      1.00000
     24     -14.7931      1.00000
     25      -6.8449      1.00000
     26      -6.8129      1.00000
     27      -6.6119      1.00000
     28      -6.5671      1.00000
     29      -4.8941      1.00000
     30      -4.8500      1.00000
     31      -4.7876      1.00000
     32      -4.7547      1.00000
     33      -4.2925      1.00000
     34      -4.2485      1.00000
     35      -4.1910      1.00000
     36      -4.1487      1.00000
     37      -4.0190      1.00000
     38      -3.9788      1.00000
     39      -3.8878      1.00000
     40      -3.7779      1.00000
     41      -1.9220      1.00000
     42      -1.8017      1.00000
     43      -1.6557      1.00000
     44      -1.6025      1.00000
     45      -1.5221      1.00000
     46      -1.4244      1.00000
     47      -1.3723      1.00000
     48      -0.9900      1.00000
     49       4.0707      1.00000
     50       4.4881      1.00000
     51       4.8628      1.00000
     52       4.9732      1.00000
     53       5.0071      1.00000
     54       5.2850      1.00000
     55       5.5573      0.03667
     56       5.7274      0.00000
     57       5.9550      0.00000
     58       6.2037      0.00000
     59       6.5794      0.00000
     60       6.7145      0.00000
     61       6.7381      0.00000
     62       7.1025      0.00000
     63       7.1345      0.00000
     64       7.2755      0.00000
     65       7.4073      0.00000
     66       7.4979      0.00000
     67       7.5943      0.00000
     68       7.6848      0.00000
     69       7.7846      0.00000
     70       7.8466      0.00000

 k-point    11 :      -0.2000    0.2857   -0.0000
  band No.  band energies     occupation 
      1     -33.8435      1.00000
      2     -33.8257      1.00000
      3     -33.8249      1.00000
      4     -33.8180      1.00000
      5     -20.3735      1.00000
      6     -20.3629      1.00000
      7     -20.2575      1.00000
      8     -20.2462      1.00000
      9     -18.8799      1.00000
     10     -18.8722      1.00000
     11     -18.7484      1.00000
     12     -18.6648      1.00000
     13     -15.0904      1.00000
     14     -15.0546      1.00000
     15     -15.0316      1.00000
     16     -15.0142      1.00000
     17     -14.9798      1.00000
     18     -14.9725      1.00000
     19     -14.9433      1.00000
     20     -14.9236      1.00000
     21     -14.8771      1.00000
     22     -14.8613      1.00000
     23     -14.8197      1.00000
     24     -14.7931      1.00000
     25      -6.8449      1.00000
     26      -6.8129      1.00000
     27      -6.6119      1.00000
     28      -6.5671      1.00000
     29      -4.8941      1.00000
     30      -4.8500      1.00000
     31      -4.7876      1.00000
     32      -4.7547      1.00000
     33      -4.2925      1.00000
     34      -4.2486      1.00000
     35      -4.1911      1.00000
     36      -4.1486      1.00000
     37      -4.0190      1.00000
     38      -3.9789      1.00000
     39      -3.8877      1.00000
     40      -3.7780      1.00000
     41      -1.9220      1.00000
     42      -1.8017      1.00000
     43      -1.6557      1.00000
     44      -1.6025      1.00000
     45      -1.5221      1.00000
     46      -1.4244      1.00000
     47      -1.3723      1.00000
     48      -0.9900      1.00000
     49       4.0708      1.00000
     50       4.4881      1.00000
     51       4.8629      1.00000
     52       4.9733      1.00000
     53       5.0071      1.00000
     54       5.2849      1.00000
     55       5.5574      0.03650
     56       5.7274      0.00000
     57       5.9549      0.00000
     58       6.2038      0.00000
     59       6.5793      0.00000
     60       6.7146      0.00000
     61       6.7381      0.00000
     62       7.1025      0.00000
     63       7.1345      0.00000
     64       7.2754      0.00000
     65       7.4073      0.00000
     66       7.4979      0.00000
     67       7.5943      0.00000
     68       7.6848      0.00000
     69       7.7845      0.00000
     70       7.8467      0.00000

 k-point    12 :       0.4000    0.2857   -0.0000
  band No.  band energies     occupation 
      1     -33.8386      1.00000
      2     -33.8300      1.00000
      3     -33.8248      1.00000
      4     -33.8188      1.00000
      5     -20.3793      1.00000
      6     -20.3698      1.00000
      7     -20.2634      1.00000
      8     -20.2557      1.00000
      9     -18.8619      1.00000
     10     -18.8533      1.00000
     11     -18.7139      1.00000
     12     -18.6747      1.00000
     13     -15.1302      1.00000
     14     -15.0751      1.00000
     15     -15.0543      1.00000
     16     -15.0291      1.00000
     17     -14.9852      1.00000
     18     -14.9564      1.00000
     19     -14.9451      1.00000
     20     -14.9194      1.00000
     21     -14.8700      1.00000
     22     -14.8459      1.00000
     23     -14.8139      1.00000
     24     -14.7995      1.00000
     25      -6.6818      1.00000
     26      -6.6534      1.00000
     27      -6.5831      1.00000
     28      -6.5307      1.00000
     29      -5.0101      1.00000
     30      -4.9742      1.00000
     31      -4.9525      1.00000
     32      -4.9159      1.00000
     33      -4.3074      1.00000
     34      -4.3017      1.00000
     35      -4.2105      1.00000
     36      -4.1773      1.00000
     37      -3.9910      1.00000
     38      -3.9509      1.00000
     39      -3.9299      1.00000
     40      -3.8541      1.00000
     41      -1.8256      1.00000
     42      -1.7064      1.00000
     43      -1.5893      1.00000
     44      -1.4970      1.00000
     45      -1.4623      1.00000
     46      -1.3542      1.00000
     47      -1.2103      1.00000
     48      -1.0653      1.00000
     49       4.3081      1.00000
     50       4.5729      1.00000
     51       4.6400      1.00000
     52       4.7947      1.00000
     53       5.2501      1.00000
     54       5.2871      1.00000
     55       5.6383      0.00002
     56       5.6742      0.00000
     57       5.8538      0.00000
     58       6.2412      0.00000
     59       6.5711      0.00000
     60       6.7145      0.00000
     61       6.8270      0.00000
     62       6.8885      0.00000
     63       7.0038      0.00000
     64       7.2475      0.00000
     65       7.3198      0.00000
     66       7.3505      0.00000
     67       7.5205      0.00000
     68       7.5839      0.00000
     69       7.7275      0.00000
     70       7.8245      0.00000

 k-point    13 :      -0.4000    0.2857    0.0000
  band No.  band energies     occupation 
      1     -33.8386      1.00000
      2     -33.8300      1.00000
      3     -33.8248      1.00000
      4     -33.8188      1.00000
      5     -20.3793      1.00000
      6     -20.3698      1.00000
      7     -20.2634      1.00000
      8     -20.2557      1.00000
      9     -18.8619      1.00000
     10     -18.8533      1.00000
     11     -18.7139      1.00000
     12     -18.6747      1.00000
     13     -15.1302      1.00000
     14     -15.0751      1.00000
     15     -15.0543      1.00000
     16     -15.0291      1.00000
     17     -14.9852      1.00000
     18     -14.9564      1.00000
     19     -14.9451      1.00000
     20     -14.9194      1.00000
     21     -14.8700      1.00000
     22     -14.8459      1.00000
     23     -14.8139      1.00000
     24     -14.7995      1.00000
     25      -6.6818      1.00000
     26      -6.6534      1.00000
     27      -6.5831      1.00000
     28      -6.5307      1.00000
     29      -5.0101      1.00000
     30      -4.9742      1.00000
     31      -4.9524      1.00000
     32      -4.9159      1.00000
     33      -4.3072      1.00000
     34      -4.3019      1.00000
     35      -4.2105      1.00000
     36      -4.1772      1.00000
     37      -3.9910      1.00000
     38      -3.9511      1.00000
     39      -3.9297      1.00000
     40      -3.8541      1.00000
     41      -1.8256      1.00000
     42      -1.7065      1.00000
     43      -1.5892      1.00000
     44      -1.4970      1.00000
     45      -1.4623      1.00000
     46      -1.3542      1.00000
     47      -1.2103      1.00000
     48      -1.0653      1.00000
     49       4.3082      1.00000
     50       4.5726      1.00000
     51       4.6402      1.00000
     52       4.7947      1.00000
     53       5.2501      1.00000
     54       5.2871      1.00000
     55       5.6383      0.00002
     56       5.6743      0.00000
     57       5.8537      0.00000
     58       6.2413      0.00000
     59       6.5711      0.00000
     60       6.7145      0.00000
     61       6.8270      0.00000
     62       6.8885      0.00000
     63       7.0038      0.00000
     64       7.2476      0.00000
     65       7.3197      0.00000
     66       7.3505      0.00000
     67       7.5204      0.00000
     68       7.5839      0.00000
     69       7.7275      0.00000
     70       7.8247      0.00000

 k-point    14 :       0.0000    0.4286    0.0000
  band No.  band energies     occupation 
      1     -33.8388      1.00000
      2     -33.8306      1.00000
      3     -33.8218      1.00000
      4     -33.8171      1.00000
      5     -20.4081      1.00000
      6     -20.3962      1.00000
      7     -20.3037      1.00000
      8     -20.2894      1.00000
      9     -18.8929      1.00000
     10     -18.8520      1.00000
     11     -18.7793      1.00000
     12     -18.7188      1.00000
     13     -15.0500      1.00000
     14     -15.0432      1.00000
     15     -15.0240      1.00000
     16     -15.0141      1.00000
     17     -14.9902      1.00000
     18     -14.9645      1.00000
     19     -14.9031      1.00000
     20     -14.8632      1.00000
     21     -14.7583      1.00000
     22     -14.7222      1.00000
     23     -14.7161      1.00000
     24     -14.7019      1.00000
     25      -6.8718      1.00000
     26      -6.8452      1.00000
     27      -6.5917      1.00000
     28      -6.5456      1.00000
     29      -4.7968      1.00000
     30      -4.7795      1.00000
     31      -4.6982      1.00000
     32      -4.6723      1.00000
     33      -4.5754      1.00000
     34      -4.5337      1.00000
     35      -4.5300      1.00000
     36      -4.5101      1.00000
     37      -4.1205      1.00000
     38      -4.0827      1.00000
     39      -3.8539      1.00000
     40      -3.7921      1.00000
     41      -1.8341      1.00000
     42      -1.6810      1.00000
     43      -1.6762      1.00000
     44      -1.6614      1.00000
     45      -1.4863      1.00000
     46      -1.3545      1.00000
     47      -1.3218      1.00000
     48      -1.1545      1.00000
     49       3.8324      1.00000
     50       4.0065      1.00000
     51       5.0171      1.00000
     52       5.0424      1.00000
     53       5.1978      1.00000
     54       5.2247      1.00000
     55       5.5645      0.02310
     56       5.8678      0.00000
     57       6.0679      0.00000
     58       6.1459      0.00000
     59       6.4502      0.00000
     60       6.5608      0.00000
     61       6.6642      0.00000
     62       6.8774      0.00000
     63       7.0547      0.00000
     64       7.1774      0.00000
     65       7.1852      0.00000
     66       7.3388      0.00000
     67       7.9429      0.00000
     68       7.9642      0.00000
     69       8.1677      0.00000
     70       8.1978      0.00000

 k-point    15 :       0.2000    0.4286    0.0000
  band No.  band energies     occupation 
      1     -33.8373      1.00000
      2     -33.8296      1.00000
      3     -33.8231      1.00000
      4     -33.8182      1.00000
      5     -20.4118      1.00000
      6     -20.4006      1.00000
      7     -20.3074      1.00000
      8     -20.2954      1.00000
      9     -18.8785      1.00000
     10     -18.8451      1.00000
     11     -18.7656      1.00000
     12     -18.7142      1.00000
     13     -15.0722      1.00000
     14     -15.0592      1.00000
     15     -15.0198      1.00000
     16     -15.0156      1.00000
     17     -14.9934      1.00000
     18     -14.9820      1.00000
     19     -14.9194      1.00000
     20     -14.8860      1.00000
     21     -14.7353      1.00000
     22     -14.7142      1.00000
     23     -14.6989      1.00000
     24     -14.6935      1.00000
     25      -6.7954      1.00000
     26      -6.7672      1.00000
     27      -6.5612      1.00000
     28      -6.5131      1.00000
     29      -4.8807      1.00000
     30      -4.8616      1.00000
     31      -4.7879      1.00000
     32      -4.7583      1.00000
     33      -4.5849      1.00000
     34      -4.5489      1.00000
     35      -4.5307      1.00000
     36      -4.5232      1.00000
     37      -4.1000      1.00000
     38      -4.0652      1.00000
     39      -3.9012      1.00000
     40      -3.8460      1.00000
     41      -1.7687      1.00000
     42      -1.6483      1.00000
     43      -1.6262      1.00000
     44      -1.5564      1.00000
     45      -1.4575      1.00000
     46      -1.3290      1.00000
     47      -1.2768      1.00000
     48      -1.1412      1.00000
     49       3.9327      1.00000
     50       4.0937      1.00000
     51       4.7970      1.00000
     52       4.8393      1.00000
     53       5.2482      1.00000
     54       5.2969      1.00000
     55       5.7308      0.00000
     56       5.8644      0.00000
     57       5.9305      0.00000
     58       6.1548      0.00000
     59       6.5157      0.00000
     60       6.6060      0.00000
     61       6.7213      0.00000
     62       6.9217      0.00000
     63       7.0440      0.00000
     64       7.1551      0.00000
     65       7.2790      0.00000
     66       7.3848      0.00000
     67       7.7250      0.00000
     68       7.7860      0.00000
     69       8.0519      0.00000
     70       8.1253      0.00000

 k-point    16 :      -0.2000    0.4286   -0.0000
  band No.  band energies     occupation 
      1     -33.8373      1.00000
      2     -33.8296      1.00000
      3     -33.8231      1.00000
      4     -33.8182      1.00000
      5     -20.4118      1.00000
      6     -20.4006      1.00000
      7     -20.3074      1.00000
      8     -20.2954      1.00000
      9     -18.8785      1.00000
     10     -18.8451      1.00000
     11     -18.7656      1.00000
     12     -18.7142      1.00000
     13     -15.0722      1.00000
     14     -15.0592      1.00000
     15     -15.0198      1.00000
     16     -15.0156      1.00000
     17     -14.9934      1.00000
     18     -14.9820      1.00000
     19     -14.9194      1.00000
     20     -14.8860      1.00000
     21     -14.7353      1.00000
     22     -14.7142      1.00000
     23     -14.6989      1.00000
     24     -14.6935      1.00000
     25      -6.7954      1.00000
     26      -6.7672      1.00000
     27      -6.5612      1.00000
     28      -6.5131      1.00000
     29      -4.8807      1.00000
     30      -4.8616      1.00000
     31      -4.7879      1.00000
     32      -4.7583      1.00000
     33      -4.5848      1.00000
     34      -4.5491      1.00000
     35      -4.5308      1.00000
     36      -4.5230      1.00000
     37      -4.1000      1.00000
     38      -4.0652      1.00000
     39      -3.9012      1.00000
     40      -3.8460      1.00000
     41      -1.7686      1.00000
     42      -1.6483      1.00000
     43      -1.6262      1.00000
     44      -1.5564      1.00000
     45      -1.4575      1.00000
     46      -1.3289      1.00000
     47      -1.2768      1.00000
     48      -1.1412      1.00000
     49       3.9327      1.00000
     50       4.0937      1.00000
     51       4.7970      1.00000
     52       4.8393      1.00000
     53       5.2482      1.00000
     54       5.2969      1.00000
     55       5.7308      0.00000
     56       5.8644      0.00000
     57       5.9305      0.00000
     58       6.1548      0.00000
     59       6.5157      0.00000
     60       6.6060      0.00000
     61       6.7213      0.00000
     62       6.9216      0.00000
     63       7.0440      0.00000
     64       7.1551      0.00000
     65       7.2790      0.00000
     66       7.3849      0.00000
     67       7.7249      0.00000
     68       7.7860      0.00000
     69       8.0520      0.00000
     70       8.1254      0.00000

 k-point    17 :       0.4000    0.4286   -0.0000
  band No.  band energies     occupation 
      1     -33.8338      1.00000
      2     -33.8274      1.00000
      3     -33.8264      1.00000
      4     -33.8206      1.00000
      5     -20.4178      1.00000
      6     -20.4075      1.00000
      7     -20.3129      1.00000
      8     -20.3053      1.00000
      9     -18.8526      1.00000
     10     -18.8368      1.00000
     11     -18.7409      1.00000
     12     -18.7093      1.00000
     13     -15.1072      1.00000
     14     -15.0848      1.00000
     15     -15.0368      1.00000
     16     -15.0284      1.00000
     17     -14.9845      1.00000
     18     -14.9685      1.00000
     19     -14.9469      1.00000
     20     -14.9250      1.00000
     21     -14.7097      1.00000
     22     -14.7029      1.00000
     23     -14.6796      1.00000
     24     -14.6784      1.00000
     25      -6.6320      1.00000
     26      -6.6035      1.00000
     27      -6.5337      1.00000
     28      -6.4779      1.00000
     29      -5.0085      1.00000
     30      -4.9953      1.00000
     31      -4.9613      1.00000
     32      -4.9154      1.00000
     33      -4.5988      1.00000
     34      -4.5678      1.00000
     35      -4.5439      1.00000
     36      -4.5335      1.00000
     37      -4.0521      1.00000
     38      -4.0184      1.00000
     39      -3.9831      1.00000
     40      -3.9377      1.00000
     41      -1.6888      1.00000
     42      -1.5847      1.00000
     43      -1.5401      1.00000
     44      -1.4281      1.00000
     45      -1.3946      1.00000
     46      -1.3004      1.00000
     47      -1.1955      1.00000
     48      -1.1038      1.00000
     49       4.1718      1.00000
     50       4.2859      1.00000
     51       4.4827      1.00000
     52       4.5629      1.00000
     53       5.3040      1.00000
     54       5.3464      0.99999
     55       5.5857      0.00475
     56       5.6436      0.00001
     57       6.2174      0.00000
     58       6.4819      0.00000
     59       6.6424      0.00000
     60       6.7082      0.00000
     61       6.9134      0.00000
     62       6.9437      0.00000
     63       7.0515      0.00000
     64       7.0871      0.00000
     65       7.2256      0.00000
     66       7.3451      0.00000
     67       7.4406      0.00000
     68       7.6301      0.00000
     69       7.8047      0.00000
     70       7.8747      0.00000

 k-point    18 :      -0.4000    0.4286    0.0000
  band No.  band energies     occupation 
      1     -33.8338      1.00000
      2     -33.8274      1.00000
      3     -33.8264      1.00000
      4     -33.8206      1.00000
      5     -20.4178      1.00000
      6     -20.4075      1.00000
      7     -20.3129      1.00000
      8     -20.3053      1.00000
      9     -18.8526      1.00000
     10     -18.8368      1.00000
     11     -18.7409      1.00000
     12     -18.7093      1.00000
     13     -15.1072      1.00000
     14     -15.0848      1.00000
     15     -15.0368      1.00000
     16     -15.0284      1.00000
     17     -14.9845      1.00000
     18     -14.9685      1.00000
     19     -14.9469      1.00000
     20     -14.9250      1.00000
     21     -14.7097      1.00000
     22     -14.7029      1.00000
     23     -14.6796      1.00000
     24     -14.6784      1.00000
     25      -6.6320      1.00000
     26      -6.6035      1.00000
     27      -6.5337      1.00000
     28      -6.4779      1.00000
     29      -5.0085      1.00000
     30      -4.9953      1.00000
     31      -4.9613      1.00000
     32      -4.9154      1.00000
     33      -4.5988      1.00000
     34      -4.5678      1.00000
     35      -4.5440      1.00000
     36      -4.5334      1.00000
     37      -4.0521      1.00000
     38      -4.0185      1.00000
     39      -3.9830      1.00000
     40      -3.9377      1.00000
     41      -1.6888      1.00000
     42      -1.5847      1.00000
     43      -1.5402      1.00000
     44      -1.4281      1.00000
     45      -1.3946      1.00000
     46      -1.3004      1.00000
     47      -1.1955      1.00000
     48      -1.1038      1.00000
     49       4.1718      1.00000
     50       4.2858      1.00000
     51       4.4828      1.00000
     52       4.5629      1.00000
     53       5.3040      1.00000
     54       5.3464      0.99999
     55       5.5857      0.00475
     56       5.6436      0.00001
     57       6.2174      0.00000
     58       6.4819      0.00000
     59       6.6424      0.00000
     60       6.7082      0.00000
     61       6.9135      0.00000
     62       6.9437      0.00000
     63       7.0514      0.00000
     64       7.0871      0.00000
     65       7.2256      0.00000
     66       7.3451      0.00000
     67       7.4407      0.00000
     68       7.6300      0.00000
     69       7.8047      0.00000
     70       7.8749      0.00000

 k-point    19 :      -0.0000    0.0000    0.2000
  band No.  band energies     occupation 
      1     -33.8499      1.00000
      2     -33.8263      1.00000
      3     -33.8230      1.00000
      4     -33.8200      1.00000
      5     -20.3082      1.00000
      6     -20.2995      1.00000
      7     -20.1682      1.00000
      8     -20.1569      1.00000
      9     -18.8861      1.00000
     10     -18.8596      1.00000
     11     -18.7105      1.00000
     12     -18.5866      1.00000
     13     -15.2853      1.00000
     14     -15.1844      1.00000
     15     -15.1704      1.00000
     16     -15.1110      1.00000
     17     -15.0659      1.00000
     18     -15.0350      1.00000
     19     -15.0326      1.00000
     20     -14.9620      1.00000
     21     -14.9495      1.00000
     22     -14.9394      1.00000
     23     -14.9173      1.00000
     24     -14.7546      1.00000
     25      -6.9055      1.00000
     26      -6.8331      1.00000
     27      -6.6625      1.00000
     28      -6.6073      1.00000
     29      -4.9142      1.00000
     30      -4.8959      1.00000
     31      -4.8025      1.00000
     32      -4.7572      1.00000
     33      -4.0063      1.00000
     34      -3.9552      1.00000
     35      -3.9197      1.00000
     36      -3.7648      1.00000
     37      -3.7470      1.00000
     38      -3.6018      1.00000
     39      -3.5111      1.00000
     40      -3.3801      1.00000
     41      -2.2220      1.00000
     42      -1.9013      1.00000
     43      -1.8225      1.00000
     44      -1.7133      1.00000
     45      -1.5647      1.00000
     46      -1.4773      1.00000
     47      -1.2379      1.00000
     48      -0.9496      1.00000
     49       3.9118      1.00000
     50       4.7503      1.00000
     51       5.1787      1.00000
     52       5.3306      1.00000
     53       5.4101      0.99117
     54       5.4652      0.79199
     55       5.6799      0.00000
     56       5.7858      0.00000
     57       6.0319      0.00000
     58       6.2381      0.00000
     59       6.3320      0.00000
     60       6.3743      0.00000
     61       6.5836      0.00000
     62       6.6801      0.00000
     63       6.7155      0.00000
     64       6.8106      0.00000
     65       7.0463      0.00000
     66       7.3488      0.00000
     67       7.3847      0.00000
     68       7.6548      0.00000
     69       8.0181      0.00000
     70       8.2327      0.00000

 k-point    20 :       0.2000    0.0000    0.2000
  band No.  band energies     occupation 
      1     -33.8453      1.00000
      2     -33.8305      1.00000
      3     -33.8252      1.00000
      4     -33.8183      1.00000
      5     -20.3118      1.00000
      6     -20.3030      1.00000
      7     -20.1724      1.00000
      8     -20.1615      1.00000
      9     -18.8759      1.00000
     10     -18.8465      1.00000
     11     -18.6946      1.00000
     12     -18.5920      1.00000
     13     -15.2716      1.00000
     14     -15.1981      1.00000
     15     -15.1697      1.00000
     16     -15.1120      1.00000
     17     -15.0950      1.00000
     18     -15.0276      1.00000
     19     -15.0147      1.00000
     20     -14.9713      1.00000
     21     -14.9543      1.00000
     22     -14.9324      1.00000
     23     -14.9138      1.00000
     24     -14.7866      1.00000
     25      -6.8139      1.00000
     26      -6.7379      1.00000
     27      -6.6211      1.00000
     28      -6.5741      1.00000
     29      -5.0474      1.00000
     30      -5.0191      1.00000
     31      -4.8403      1.00000
     32      -4.8116      1.00000
     33      -4.0131      1.00000
     34      -3.9741      1.00000
     35      -3.9488      1.00000
     36      -3.8343      1.00000
     37      -3.7538      1.00000
     38      -3.6202      1.00000
     39      -3.5250      1.00000
     40      -3.3977      1.00000
     41      -2.1737      1.00000
     42      -1.7795      1.00000
     43      -1.7670      1.00000
     44      -1.6789      1.00000
     45      -1.4577      1.00000
     46      -1.4118      1.00000
     47      -1.1900      1.00000
     48      -1.0183      1.00000
     49       4.2362      1.00000
     50       4.8436      1.00000
     51       4.9911      1.00000
     52       5.0499      1.00000
     53       5.1840      1.00000
     54       5.3405      0.99999
     55       5.7726      0.00000
     56       6.0381      0.00000
     57       6.1199      0.00000
     58       6.2033      0.00000
     59       6.2606      0.00000
     60       6.3648      0.00000
     61       6.5475      0.00000
     62       6.6658      0.00000
     63       6.8060      0.00000
     64       6.8968      0.00000
     65       6.9423      0.00000
     66       7.0575      0.00000
     67       7.2059      0.00000
     68       7.7212      0.00000
     69       8.1940      0.00000
     70       8.2010      0.00000

 k-point    21 :       0.4000    0.0000    0.2000
  band No.  band energies     occupation 
      1     -33.8402      1.00000
      2     -33.8351      1.00000
      3     -33.8269      1.00000
      4     -33.8170      1.00000
      5     -20.3176      1.00000
      6     -20.3095      1.00000
      7     -20.1798      1.00000
      8     -20.1701      1.00000
      9     -18.8504      1.00000
     10     -18.8308      1.00000
     11     -18.6566      1.00000
     12     -18.6130      1.00000
     13     -15.2441      1.00000
     14     -15.2258      1.00000
     15     -15.1582      1.00000
     16     -15.1246      1.00000
     17     -15.1192      1.00000
     18     -15.0510      1.00000
     19     -15.0108      1.00000
     20     -14.9725      1.00000
     21     -14.9605      1.00000
     22     -14.9322      1.00000
     23     -14.8693      1.00000
     24     -14.8372      1.00000
     25      -6.6539      1.00000
     26      -6.6078      1.00000
     27      -6.5780      1.00000
     28      -6.5243      1.00000
     29      -5.1718      1.00000
     30      -5.1459      1.00000
     31      -4.9488      1.00000
     32      -4.9131      1.00000
     33      -4.1145      1.00000
     34      -4.0186      1.00000
     35      -3.9741      1.00000
     36      -3.9314      1.00000
     37      -3.7210      1.00000
     38      -3.6719      1.00000
     39      -3.5200      1.00000
     40      -3.4483      1.00000
     41      -2.0322      1.00000
     42      -1.8470      1.00000
     43      -1.5452      1.00000
     44      -1.4557      1.00000
     45      -1.3980      1.00000
     46      -1.2138      1.00000
     47      -1.2100      1.00000
     48      -1.1425      1.00000
     49       4.6477      1.00000
     50       4.7124      1.00000
     51       4.8848      1.00000
     52       4.9732      1.00000
     53       5.2150      1.00000
     54       5.4666      0.78025
     55       5.6254      0.00010
     56       5.9431      0.00000
     57       5.9923      0.00000
     58       6.1797      0.00000
     59       6.2115      0.00000
     60       6.3818      0.00000
     61       6.4914      0.00000
     62       6.6075      0.00000
     63       6.6410      0.00000
     64       6.6708      0.00000
     65       6.9466      0.00000
     66       6.9924      0.00000
     67       7.4281      0.00000
     68       7.6711      0.00000
     69       7.9687      0.00000
     70       8.1830      0.00000

 k-point    22 :      -0.4000    0.0000    0.2000
  band No.  band energies     occupation 
      1     -33.8457      1.00000
      2     -33.8296      1.00000
      3     -33.8266      1.00000
      4     -33.8173      1.00000
      5     -20.3176      1.00000
      6     -20.3102      1.00000
      7     -20.1803      1.00000
      8     -20.1708      1.00000
      9     -18.8444      1.00000
     10     -18.8336      1.00000
     11     -18.6585      1.00000
     12     -18.6119      1.00000
     13     -15.2575      1.00000
     14     -15.2122      1.00000
     15     -15.1446      1.00000
     16     -15.1389      1.00000
     17     -15.1136      1.00000
     18     -15.0666      1.00000
     19     -15.0137      1.00000
     20     -14.9809      1.00000
     21     -14.9449      1.00000
     22     -14.9276      1.00000
     23     -14.8976      1.00000
     24     -14.8032      1.00000
     25      -6.6867      1.00000
     26      -6.6456      1.00000
     27      -6.5735      1.00000
     28      -6.5200      1.00000
     29      -5.1056      1.00000
     30      -5.0804      1.00000
     31      -4.9672      1.00000
     32      -4.9154      1.00000
     33      -4.1473      1.00000
     34      -4.0618      1.00000
     35      -3.9777      1.00000
     36      -3.9086      1.00000
     37      -3.7243      1.00000
     38      -3.6678      1.00000
     39      -3.4978      1.00000
     40      -3.4745      1.00000
     41      -1.9931      1.00000
     42      -1.8786      1.00000
     43      -1.5174      1.00000
     44      -1.4728      1.00000
     45      -1.4268      1.00000
     46      -1.2382      1.00000
     47      -1.2001      1.00000
     48      -1.1157      1.00000
     49       4.3663      1.00000
     50       4.7842      1.00000
     51       4.9066      1.00000
     52       5.1267      1.00000
     53       5.2807      1.00000
     54       5.5941      0.00231
     55       5.7038      0.00000
     56       5.8455      0.00000
     57       5.9537      0.00000
     58       5.9876      0.00000
     59       6.1979      0.00000
     60       6.3392      0.00000
     61       6.3818      0.00000
     62       6.4729      0.00000
     63       6.5451      0.00000
     64       7.0156      0.00000
     65       7.1451      0.00000
     66       7.2424      0.00000
     67       7.4265      0.00000
     68       7.5061      0.00000
     69       7.9010      0.00000
     70       8.1985      0.00000

 k-point    23 :      -0.2000    0.0000    0.2000
  band No.  band energies     occupation 
      1     -33.8501      1.00000
      2     -33.8256      1.00000
      3     -33.8247      1.00000
      4     -33.8188      1.00000
      5     -20.3118      1.00000
      6     -20.3041      1.00000
      7     -20.1734      1.00000
      8     -20.1627      1.00000
      9     -18.8693      1.00000
     10     -18.8480      1.00000
     11     -18.6963      1.00000
     12     -18.5915      1.00000
     13     -15.2800      1.00000
     14     -15.1895      1.00000
     15     -15.1608      1.00000
     16     -15.1219      1.00000
     17     -15.0831      1.00000
     18     -15.0573      1.00000
     19     -15.0233      1.00000
     20     -14.9761      1.00000
     21     -14.9452      1.00000
     22     -14.9324      1.00000
     23     -14.9091      1.00000
     24     -14.7622      1.00000
     25      -6.8478      1.00000
     26      -6.7881      1.00000
     27      -6.6209      1.00000
     28      -6.5730      1.00000
     29      -4.9290      1.00000
     30      -4.9253      1.00000
     31      -4.8681      1.00000
     32      -4.8303      1.00000
     33      -4.0786      1.00000
     34      -4.0392      1.00000
     35      -3.9318      1.00000
     36      -3.8174      1.00000
     37      -3.7554      1.00000
     38      -3.6174      1.00000
     39      -3.5114      1.00000
     40      -3.4182      1.00000
     41      -2.1431      1.00000
     42      -1.7927      1.00000
     43      -1.7546      1.00000
     44      -1.6933      1.00000
     45      -1.4739      1.00000
     46      -1.4220      1.00000
     47      -1.1768      1.00000
     48      -1.0150      1.00000
     49       3.9750      1.00000
     50       4.7360      1.00000
     51       5.1535      1.00000
     52       5.1881      1.00000
     53       5.4781      0.67349
     54       5.5373      0.11007
     55       5.6706      0.00000
     56       5.9941      0.00000
     57       6.0444      0.00000
     58       6.1598      0.00000
     59       6.2205      0.00000
     60       6.2543      0.00000
     61       6.4165      0.00000
     62       6.4604      0.00000
     63       6.5505      0.00000
     64       7.0086      0.00000
     65       7.2004      0.00000
     66       7.4450      0.00000
     67       7.4757      0.00000
     68       7.5437      0.00000
     69       7.9336      0.00000
     70       8.2056      0.00000

 k-point    24 :      -0.0000    0.1429    0.2000
  band No.  band energies     occupation 
      1     -33.8480      1.00000
      2     -33.8258      1.00000
      3     -33.8233      1.00000
      4     -33.8198      1.00000
      5     -20.3296      1.00000
      6     -20.3206      1.00000
      7     -20.1976      1.00000
      8     -20.1860      1.00000
      9     -18.8823      1.00000
     10     -18.8627      1.00000
     11     -18.7216      1.00000
     12     -18.6069      1.00000
     13     -15.1978      1.00000
     14     -15.1132      1.00000
     15     -15.1046      1.00000
     16     -15.0593      1.00000
     17     -15.0483      1.00000
     18     -15.0188      1.00000
     19     -15.0097      1.00000
     20     -14.9678      1.00000
     21     -14.9533      1.00000
     22     -14.9345      1.00000
     23     -14.9158      1.00000
     24     -14.7709      1.00000
     25      -6.8823      1.00000
     26      -6.8226      1.00000
     27      -6.6426      1.00000
     28      -6.5902      1.00000
     29      -4.9103      1.00000
     30      -4.8931      1.00000
     31      -4.8005      1.00000
     32      -4.7585      1.00000
     33      -4.0624      1.00000
     34      -4.0046      1.00000
     35      -3.9697      1.00000
     36      -3.8752      1.00000
     37      -3.8204      1.00000
     38      -3.7342      1.00000
     39      -3.6957      1.00000
     40      -3.5932      1.00000
     41      -2.1332      1.00000
     42      -1.8829      1.00000
     43      -1.7363      1.00000
     44      -1.6671      1.00000
     45      -1.5500      1.00000
     46      -1.4663      1.00000
     47      -1.2743      1.00000
     48      -0.9493      1.00000
     49       4.1823      1.00000
     50       4.4549      1.00000
     51       5.0509      1.00000
     52       5.1004      1.00000
     53       5.2161      1.00000
     54       5.4379      0.94365
     55       5.5252      0.18839
     56       5.7451      0.00000
     57       6.1498      0.00000
     58       6.2373      0.00000
     59       6.4380      0.00000
     60       6.4906      0.00000
     61       6.6398      0.00000
     62       6.8399      0.00000
     63       6.9355      0.00000
     64       6.9846      0.00000
     65       7.1453      0.00000
     66       7.5293      0.00000
     67       7.6400      0.00000
     68       7.8300      0.00000
     69       8.0023      0.00000
     70       8.0473      0.00000

 k-point    25 :       0.0000    0.1429   -0.2000
  band No.  band energies     occupation 
      1     -33.8480      1.00000
      2     -33.8258      1.00000
      3     -33.8233      1.00000
      4     -33.8198      1.00000
      5     -20.3296      1.00000
      6     -20.3206      1.00000
      7     -20.1976      1.00000
      8     -20.1860      1.00000
      9     -18.8823      1.00000
     10     -18.8627      1.00000
     11     -18.7216      1.00000
     12     -18.6069      1.00000
     13     -15.1978      1.00000
     14     -15.1131      1.00000
     15     -15.1046      1.00000
     16     -15.0593      1.00000
     17     -15.0482      1.00000
     18     -15.0188      1.00000
     19     -15.0098      1.00000
     20     -14.9678      1.00000
     21     -14.9533      1.00000
     22     -14.9345      1.00000
     23     -14.9158      1.00000
     24     -14.7709      1.00000
     25      -6.8823      1.00000
     26      -6.8226      1.00000
     27      -6.6426      1.00000
     28      -6.5902      1.00000
     29      -4.9103      1.00000
     30      -4.8931      1.00000
     31      -4.8005      1.00000
     32      -4.7585      1.00000
     33      -4.0624      1.00000
     34      -4.0046      1.00000
     35      -3.9697      1.00000
     36      -3.8752      1.00000
     37      -3.8204      1.00000
     38      -3.7343      1.00000
     39      -3.6957      1.00000
     40      -3.5932      1.00000
     41      -2.1332      1.00000
     42      -1.8829      1.00000
     43      -1.7363      1.00000
     44      -1.6671      1.00000
     45      -1.5500      1.00000
     46      -1.4663      1.00000
     47      -1.2743      1.00000
     48      -0.9493      1.00000
     49       4.1823      1.00000
     50       4.4549      1.00000
     51       5.0509      1.00000
     52       5.1004      1.00000
     53       5.2162      1.00000
     54       5.4378      0.94391
     55       5.5251      0.18951
     56       5.7453      0.00000
     57       6.1498      0.00000
     58       6.2369      0.00000
     59       6.4377      0.00000
     60       6.4909      0.00000
     61       6.6397      0.00000
     62       6.8402      0.00000
     63       6.9353      0.00000
     64       6.9851      0.00000
     65       7.1449      0.00000
     66       7.5293      0.00000
     67       7.6401      0.00000
     68       7.8298      0.00000
     69       8.0068      0.00000
     70       8.0535      0.00000

 k-point    26 :       0.2000    0.1429    0.2000
  band No.  band energies     occupation 
      1     -33.8436      1.00000
      2     -33.8297      1.00000
      3     -33.8250      1.00000
      4     -33.8188      1.00000
      5     -20.3332      1.00000
      6     -20.3241      1.00000
      7     -20.2017      1.00000
      8     -20.1906      1.00000
      9     -18.8722      1.00000
     10     -18.8493      1.00000
     11     -18.7060      1.00000
     12     -18.6110      1.00000
     13     -15.2042      1.00000
     14     -15.1175      1.00000
     15     -15.0943      1.00000
     16     -15.0806      1.00000
     17     -15.0632      1.00000
     18     -15.0192      1.00000
     19     -14.9993      1.00000
     20     -14.9604      1.00000
     21     -14.9420      1.00000
     22     -14.9342      1.00000
     23     -14.9162      1.00000
     24     -14.8029      1.00000
     25      -6.7905      1.00000
     26      -6.7266      1.00000
     27      -6.6032      1.00000
     28      -6.5562      1.00000
     29      -5.0451      1.00000
     30      -5.0178      1.00000
     31      -4.8393      1.00000
     32      -4.8107      1.00000
     33      -4.0696      1.00000
     34      -4.0150      1.00000
     35      -4.0019      1.00000
     36      -3.9101      1.00000
     37      -3.8543      1.00000
     38      -3.7772      1.00000
     39      -3.7101      1.00000
     40      -3.5802      1.00000
     41      -2.0893      1.00000
     42      -1.7638      1.00000
     43      -1.6889      1.00000
     44      -1.6249      1.00000
     45      -1.4543      1.00000
     46      -1.4115      1.00000
     47      -1.2423      1.00000
     48      -0.9853      1.00000
     49       4.4774      1.00000
     50       4.5525      1.00000
     51       4.8436      1.00000
     52       4.9635      1.00000
     53       5.0148      1.00000
     54       5.4315      0.96145
     55       5.7000      0.00000
     56       5.7160      0.00000
     57       6.1599      0.00000
     58       6.2633      0.00000
     59       6.3939      0.00000
     60       6.4506      0.00000
     61       6.5417      0.00000
     62       6.9051      0.00000
     63       6.9482      0.00000
     64       7.0037      0.00000
     65       7.1944      0.00000
     66       7.3136      0.00000
     67       7.3868      0.00000
     68       7.7971      0.00000
     69       7.9479      0.00000
     70       8.0136      0.00000

 k-point    27 :      -0.2000    0.1429   -0.2000
  band No.  band energies     occupation 
      1     -33.8436      1.00000
      2     -33.8297      1.00000
      3     -33.8250      1.00000
      4     -33.8188      1.00000
      5     -20.3332      1.00000
      6     -20.3241      1.00000
      7     -20.2017      1.00000
      8     -20.1906      1.00000
      9     -18.8722      1.00000
     10     -18.8493      1.00000
     11     -18.7060      1.00000
     12     -18.6110      1.00000
     13     -15.2042      1.00000
     14     -15.1175      1.00000
     15     -15.0943      1.00000
     16     -15.0806      1.00000
     17     -15.0632      1.00000
     18     -15.0191      1.00000
     19     -14.9994      1.00000
     20     -14.9604      1.00000
     21     -14.9420      1.00000
     22     -14.9342      1.00000
     23     -14.9162      1.00000
     24     -14.8029      1.00000
     25      -6.7905      1.00000
     26      -6.7266      1.00000
     27      -6.6032      1.00000
     28      -6.5562      1.00000
     29      -5.0451      1.00000
     30      -5.0178      1.00000
     31      -4.8393      1.00000
     32      -4.8107      1.00000
     33      -4.0695      1.00000
     34      -4.0152      1.00000
     35      -4.0019      1.00000
     36      -3.9101      1.00000
     37      -3.8542      1.00000
     38      -3.7772      1.00000
     39      -3.7101      1.00000
     40      -3.5802      1.00000
     41      -2.0893      1.00000
     42      -1.7638      1.00000
     43      -1.6889      1.00000
     44      -1.6249      1.00000
     45      -1.4543      1.00000
     46      -1.4115      1.00000
     47      -1.2423      1.00000
     48      -0.9853      1.00000
     49       4.4774      1.00000
     50       4.5526      1.00000
     51       4.8438      1.00000
     52       4.9635      1.00000
     53       5.0147      1.00000
     54       5.4314      0.96154
     55       5.6999      0.00000
     56       5.7160      0.00000
     57       6.1598      0.00000
     58       6.2633      0.00000
     59       6.3938      0.00000
     60       6.4504      0.00000
     61       6.5419      0.00000
     62       6.9055      0.00000
     63       6.9482      0.00000
     64       7.0035      0.00000
     65       7.1945      0.00000
     66       7.3138      0.00000
     67       7.3865      0.00000
     68       7.7970      0.00000
     69       7.9479      0.00000
     70       8.0129      0.00000

 k-point    28 :       0.4000    0.1429    0.2000
  band No.  band energies     occupation 
      1     -33.8390      1.00000
      2     -33.8338      1.00000
      3     -33.8269      1.00000
      4     -33.8173      1.00000
      5     -20.3392      1.00000
      6     -20.3308      1.00000
      7     -20.2090      1.00000
      8     -20.1994      1.00000
      9     -18.8481      1.00000
     10     -18.8321      1.00000
     11     -18.6698      1.00000
     12     -18.6287      1.00000
     13     -15.2086      1.00000
     14     -15.1421      1.00000
     15     -15.1191      1.00000
     16     -15.0878      1.00000
     17     -15.0583      1.00000
     18     -15.0159      1.00000
     19     -14.9875      1.00000
     20     -14.9691      1.00000
     21     -14.9509      1.00000
     22     -14.9271      1.00000
     23     -14.8782      1.00000
     24     -14.8482      1.00000
     25      -6.6322      1.00000
     26      -6.5921      1.00000
     27      -6.5612      1.00000
     28      -6.5081      1.00000
     29      -5.1719      1.00000
     30      -5.1452      1.00000
     31      -4.9478      1.00000
     32      -4.9129      1.00000
     33      -4.1789      1.00000
     34      -4.0934      1.00000
     35      -4.0165      1.00000
     36      -3.9621      1.00000
     37      -3.8332      1.00000
     38      -3.8197      1.00000
     39      -3.7040      1.00000
     40      -3.6137      1.00000
     41      -1.9580      1.00000
     42      -1.7915      1.00000
     43      -1.5214      1.00000
     44      -1.4263      1.00000
     45      -1.3959      1.00000
     46      -1.2728      1.00000
     47      -1.2124      1.00000
     48      -1.0711      1.00000
     49       4.5774      1.00000
     50       4.6373      1.00000
     51       4.8207      1.00000
     52       4.8651      1.00000
     53       5.1381      1.00000
     54       5.4780      0.67472
     55       5.5912      0.00298
     56       5.7316      0.00000
     57       6.0295      0.00000
     58       6.1685      0.00000
     59       6.4332      0.00000
     60       6.4779      0.00000
     61       6.6076      0.00000
     62       6.6775      0.00000
     63       6.7758      0.00000
     64       6.8923      0.00000
     65       6.9820      0.00000
     66       7.1648      0.00000
     67       7.5515      0.00000
     68       7.7116      0.00000
     69       7.9193      0.00000
     70       8.0186      0.00000

 k-point    29 :      -0.4000    0.1429   -0.2000
  band No.  band energies     occupation 
      1     -33.8390      1.00000
      2     -33.8338      1.00000
      3     -33.8269      1.00000
      4     -33.8173      1.00000
      5     -20.3392      1.00000
      6     -20.3308      1.00000
      7     -20.2090      1.00000
      8     -20.1994      1.00000
      9     -18.8481      1.00000
     10     -18.8321      1.00000
     11     -18.6698      1.00000
     12     -18.6286      1.00000
     13     -15.2086      1.00000
     14     -15.1421      1.00000
     15     -15.1191      1.00000
     16     -15.0878      1.00000
     17     -15.0583      1.00000
     18     -15.0159      1.00000
     19     -14.9875      1.00000
     20     -14.9691      1.00000
     21     -14.9509      1.00000
     22     -14.9271      1.00000
     23     -14.8782      1.00000
     24     -14.8482      1.00000
     25      -6.6322      1.00000
     26      -6.5921      1.00000
     27      -6.5612      1.00000
     28      -6.5081      1.00000
     29      -5.1719      1.00000
     30      -5.1452      1.00000
     31      -4.9478      1.00000
     32      -4.9129      1.00000
     33      -4.1788      1.00000
     34      -4.0935      1.00000
     35      -4.0165      1.00000
     36      -3.9621      1.00000
     37      -3.8332      1.00000
     38      -3.8197      1.00000
     39      -3.7040      1.00000
     40      -3.6137      1.00000
     41      -1.9580      1.00000
     42      -1.7915      1.00000
     43      -1.5214      1.00000
     44      -1.4263      1.00000
     45      -1.3960      1.00000
     46      -1.2728      1.00000
     47      -1.2124      1.00000
     48      -1.0711      1.00000
     49       4.5773      1.00000
     50       4.6374      1.00000
     51       4.8210      1.00000
     52       4.8649      1.00000
     53       5.1382      1.00000
     54       5.4777      0.67764
     55       5.5914      0.00292
     56       5.7315      0.00000
     57       6.0295      0.00000
     58       6.1684      0.00000
     59       6.4332      0.00000
     60       6.4780      0.00000
     61       6.6076      0.00000
     62       6.6774      0.00000
     63       6.7759      0.00000
     64       6.8923      0.00000
     65       6.9819      0.00000
     66       7.1649      0.00000
     67       7.5515      0.00000
     68       7.7116      0.00000
     69       7.9193      0.00000
     70       8.0186      0.00000

 k-point    30 :      -0.4000    0.1429    0.2000
  band No.  band energies     occupation 
      1     -33.8443      1.00000
      2     -33.8285      1.00000
      3     -33.8269      1.00000
      4     -33.8173      1.00000
      5     -20.3392      1.00000
      6     -20.3315      1.00000
      7     -20.2095      1.00000
      8     -20.2002      1.00000
      9     -18.8435      1.00000
     10     -18.8338      1.00000
     11     -18.6713      1.00000
     12     -18.6279      1.00000
     13     -15.1938      1.00000
     14     -15.1672      1.00000
     15     -15.1338      1.00000
     16     -15.0728      1.00000
     17     -15.0429      1.00000
     18     -15.0150      1.00000
     19     -14.9906      1.00000
     20     -14.9851      1.00000
     21     -14.9445      1.00000
     22     -14.9326      1.00000
     23     -14.8975      1.00000
     24     -14.8131      1.00000
     25      -6.6670      1.00000
     26      -6.6311      1.00000
     27      -6.5552      1.00000
     28      -6.5025      1.00000
     29      -5.1038      1.00000
     30      -5.0811      1.00000
     31      -4.9653      1.00000
     32      -4.9155      1.00000
     33      -4.2150      1.00000
     34      -4.1465      1.00000
     35      -4.0007      1.00000
     36      -3.9328      1.00000
     37      -3.8681      1.00000
     38      -3.7915      1.00000
     39      -3.6718      1.00000
     40      -3.6517      1.00000
     41      -1.9310      1.00000
     42      -1.8196      1.00000
     43      -1.5228      1.00000
     44      -1.4558      1.00000
     45      -1.3962      1.00000
     46      -1.2128      1.00000
     47      -1.1898      1.00000
     48      -1.1244      1.00000
     49       4.5640      1.00000
     50       4.6444      1.00000
     51       4.7041      1.00000
     52       4.8099      1.00000
     53       5.3732      0.99968
     54       5.4739      0.71465
     55       5.6409      0.00002
     56       5.7822      0.00000
     57       5.7978      0.00000
     58       5.9762      0.00000
     59       6.4640      0.00000
     60       6.5195      0.00000
     61       6.5801      0.00000
     62       6.7269      0.00000
     63       6.7765      0.00000
     64       7.0085      0.00000
     65       7.0635      0.00000
     66       7.2780      0.00000
     67       7.6653      0.00000
     68       7.6825      0.00000
     69       7.9075      0.00000
     70       8.0534      0.00000

 k-point    31 :       0.4000    0.1429   -0.2000
  band No.  band energies     occupation 
      1     -33.8443      1.00000
      2     -33.8285      1.00000
      3     -33.8269      1.00000
      4     -33.8173      1.00000
      5     -20.3392      1.00000
      6     -20.3315      1.00000
      7     -20.2095      1.00000
      8     -20.2003      1.00000
      9     -18.8435      1.00000
     10     -18.8338      1.00000
     11     -18.6713      1.00000
     12     -18.6279      1.00000
     13     -15.1938      1.00000
     14     -15.1672      1.00000
     15     -15.1338      1.00000
     16     -15.0728      1.00000
     17     -15.0429      1.00000
     18     -15.0150      1.00000
     19     -14.9906      1.00000
     20     -14.9851      1.00000
     21     -14.9445      1.00000
     22     -14.9326      1.00000
     23     -14.8975      1.00000
     24     -14.8131      1.00000
     25      -6.6670      1.00000
     26      -6.6311      1.00000
     27      -6.5552      1.00000
     28      -6.5025      1.00000
     29      -5.1038      1.00000
     30      -5.0811      1.00000
     31      -4.9653      1.00000
     32      -4.9155      1.00000
     33      -4.2150      1.00000
     34      -4.1466      1.00000
     35      -4.0007      1.00000
     36      -3.9329      1.00000
     37      -3.8681      1.00000
     38      -3.7915      1.00000
     39      -3.6718      1.00000
     40      -3.6517      1.00000
     41      -1.9310      1.00000
     42      -1.8196      1.00000
     43      -1.5229      1.00000
     44      -1.4557      1.00000
     45      -1.3962      1.00000
     46      -1.2128      1.00000
     47      -1.1898      1.00000
     48      -1.1245      1.00000
     49       4.5641      1.00000
     50       4.6441      1.00000
     51       4.7044      1.00000
     52       4.8098      1.00000
     53       5.3734      0.99967
     54       5.4738      0.71561
     55       5.6407      0.00002
     56       5.7820      0.00000
     57       5.7981      0.00000
     58       5.9761      0.00000
     59       6.4641      0.00000
     60       6.5195      0.00000
     61       6.5801      0.00000
     62       6.7267      0.00000
     63       6.7765      0.00000
     64       7.0084      0.00000
     65       7.0636      0.00000
     66       7.2781      0.00000
     67       7.6652      0.00000
     68       7.6825      0.00000
     69       7.9074      0.00000
     70       8.0537      0.00000

 k-point    32 :      -0.2000    0.1429    0.2000
  band No.  band energies     occupation 
      1     -33.8483      1.00000
      2     -33.8254      1.00000
      3     -33.8248      1.00000
      4     -33.8185      1.00000
      5     -20.3333      1.00000
      6     -20.3253      1.00000
      7     -20.2025      1.00000
      8     -20.1919      1.00000
      9     -18.8667      1.00000
     10     -18.8502      1.00000
     11     -18.7074      1.00000
     12     -18.6106      1.00000
     13     -15.1898      1.00000
     14     -15.1484      1.00000
     15     -15.1227      1.00000
     16     -15.0565      1.00000
     17     -15.0367      1.00000
     18     -15.0139      1.00000
     19     -15.0065      1.00000
     20     -14.9841      1.00000
     21     -14.9546      1.00000
     22     -14.9360      1.00000
     23     -14.9026      1.00000
     24     -14.7761      1.00000
     25      -6.8258      1.00000
     26      -6.7767      1.00000
     27      -6.6022      1.00000
     28      -6.5547      1.00000
     29      -4.9256      1.00000
     30      -4.9221      1.00000
     31      -4.8673      1.00000
     32      -4.8304      1.00000
     33      -4.1430      1.00000
     34      -4.1161      1.00000
     35      -3.9454      1.00000
     36      -3.9016      1.00000
     37      -3.8496      1.00000
     38      -3.7516      1.00000
     39      -3.6823      1.00000
     40      -3.6248      1.00000
     41      -2.0686      1.00000
     42      -1.7722      1.00000
     43      -1.7036      1.00000
     44      -1.6549      1.00000
     45      -1.4397      1.00000
     46      -1.3989      1.00000
     47      -1.2072      1.00000
     48      -1.0187      1.00000
     49       4.2394      1.00000
     50       4.4977      1.00000
     51       4.9031      1.00000
     52       4.9555      1.00000
     53       5.3663      0.99985
     54       5.5432      0.08193
     55       5.6177      0.00023
     56       5.7018      0.00000
     57       5.9874      0.00000
     58       6.1280      0.00000
     59       6.4902      0.00000
     60       6.5268      0.00000
     61       6.5929      0.00000
     62       6.7525      0.00000
     63       6.8096      0.00000
     64       7.0382      0.00000
     65       7.1015      0.00000
     66       7.5952      0.00000
     67       7.7007      0.00000
     68       7.7531      0.00000
     69       7.9258      0.00000
     70       8.0668      0.00000

 k-point    33 :       0.2000    0.1429   -0.2000
  band No.  band energies     occupation 
      1     -33.8483      1.00000
      2     -33.8254      1.00000
      3     -33.8248      1.00000
      4     -33.8185      1.00000
      5     -20.3333      1.00000
      6     -20.3253      1.00000
      7     -20.2025      1.00000
      8     -20.1919      1.00000
      9     -18.8667      1.00000
     10     -18.8502      1.00000
     11     -18.7074      1.00000
     12     -18.6106      1.00000
     13     -15.1898      1.00000
     14     -15.1483      1.00000
     15     -15.1228      1.00000
     16     -15.0565      1.00000
     17     -15.0367      1.00000
     18     -15.0138      1.00000
     19     -15.0065      1.00000
     20     -14.9841      1.00000
     21     -14.9546      1.00000
     22     -14.9360      1.00000
     23     -14.9026      1.00000
     24     -14.7761      1.00000
     25      -6.8258      1.00000
     26      -6.7767      1.00000
     27      -6.6022      1.00000
     28      -6.5547      1.00000
     29      -4.9256      1.00000
     30      -4.9220      1.00000
     31      -4.8673      1.00000
     32      -4.8304      1.00000
     33      -4.1430      1.00000
     34      -4.1162      1.00000
     35      -3.9453      1.00000
     36      -3.9016      1.00000
     37      -3.8497      1.00000
     38      -3.7516      1.00000
     39      -3.6823      1.00000
     40      -3.6248      1.00000
     41      -2.0686      1.00000
     42      -1.7722      1.00000
     43      -1.7036      1.00000
     44      -1.6548      1.00000
     45      -1.4397      1.00000
     46      -1.3988      1.00000
     47      -1.2072      1.00000
     48      -1.0187      1.00000
     49       4.2394      1.00000
     50       4.4977      1.00000
     51       4.9031      1.00000
     52       4.9555      1.00000
     53       5.3664      0.99985
     54       5.5433      0.08154
     55       5.6177      0.00023
     56       5.7016      0.00000
     57       5.9876      0.00000
     58       6.1276      0.00000
     59       6.4901      0.00000
     60       6.5269      0.00000
     61       6.5931      0.00000
     62       6.7523      0.00000
     63       6.8097      0.00000
     64       7.0381      0.00000
     65       7.1016      0.00000
     66       7.5953      0.00000
     67       7.7007      0.00000
     68       7.7530      0.00000
     69       7.9258      0.00000
     70       8.0769      0.00000

 k-point    34 :      -0.0000    0.2857    0.2000
  band No.  band energies     occupation 
      1     -33.8432      1.00000
      2     -33.8261      1.00000
      3     -33.8238      1.00000
      4     -33.8191      1.00000
      5     -20.3773      1.00000
      6     -20.3678      1.00000
      7     -20.2622      1.00000
      8     -20.2496      1.00000
      9     -18.8678      1.00000
     10     -18.8646      1.00000
     11     -18.7427      1.00000
     12     -18.6561      1.00000
     13     -15.0771      1.00000
     14     -15.0681      1.00000
     15     -15.0511      1.00000
     16     -15.0110      1.00000
     17     -15.0070      1.00000
     18     -14.9937      1.00000
     19     -14.9390      1.00000
     20     -14.9214      1.00000
     21     -14.8608      1.00000
     22     -14.8538      1.00000
     23     -14.8116      1.00000
     24     -14.7932      1.00000
     25      -6.8250      1.00000
     26      -6.7892      1.00000
     27      -6.5908      1.00000
     28      -6.5426      1.00000
     29      -4.9011      1.00000
     30      -4.8863      1.00000
     31      -4.7960      1.00000
     32      -4.7614      1.00000
     33      -4.3173      1.00000
     34      -4.2491      1.00000
     35      -4.2173      1.00000
     36      -4.1717      1.00000
     37      -4.0299      1.00000
     38      -3.9868      1.00000
     39      -3.9245      1.00000
     40      -3.8073      1.00000
     41      -1.8896      1.00000
     42      -1.7849      1.00000
     43      -1.6030      1.00000
     44      -1.5852      1.00000
     45      -1.4757      1.00000
     46      -1.4362      1.00000
     47      -1.3336      1.00000
     48      -0.9882      1.00000
     49       4.0639      1.00000
     50       4.4712      1.00000
     51       4.8167      1.00000
     52       4.8971      1.00000
     53       5.0134      1.00000
     54       5.3643      0.99988
     55       5.5338      0.12998
     56       5.6964      0.00000
     57       6.0010      0.00000
     58       6.2430      0.00000
     59       6.5986      0.00000
     60       6.6781      0.00000
     61       6.7705      0.00000
     62       7.0269      0.00000
     63       7.1388      0.00000
     64       7.3314      0.00000
     65       7.4545      0.00000
     66       7.5159      0.00000
     67       7.5668      0.00000
     68       7.6738      0.00000
     69       7.7332      0.00000
     70       7.8603      0.00000

 k-point    35 :       0.0000    0.2857   -0.2000
  band No.  band energies     occupation 
      1     -33.8432      1.00000
      2     -33.8261      1.00000
      3     -33.8238      1.00000
      4     -33.8191      1.00000
      5     -20.3773      1.00000
      6     -20.3678      1.00000
      7     -20.2622      1.00000
      8     -20.2496      1.00000
      9     -18.8678      1.00000
     10     -18.8646      1.00000
     11     -18.7427      1.00000
     12     -18.6561      1.00000
     13     -15.0771      1.00000
     14     -15.0682      1.00000
     15     -15.0511      1.00000
     16     -15.0110      1.00000
     17     -15.0070      1.00000
     18     -14.9937      1.00000
     19     -14.9390      1.00000
     20     -14.9215      1.00000
     21     -14.8608      1.00000
     22     -14.8538      1.00000
     23     -14.8116      1.00000
     24     -14.7932      1.00000
     25      -6.8250      1.00000
     26      -6.7892      1.00000
     27      -6.5908      1.00000
     28      -6.5426      1.00000
     29      -4.9011      1.00000
     30      -4.8863      1.00000
     31      -4.7960      1.00000
     32      -4.7614      1.00000
     33      -4.3173      1.00000
     34      -4.2491      1.00000
     35      -4.2173      1.00000
     36      -4.1717      1.00000
     37      -4.0299      1.00000
     38      -3.9868      1.00000
     39      -3.9246      1.00000
     40      -3.8073      1.00000
     41      -1.8896      1.00000
     42      -1.7849      1.00000
     43      -1.6029      1.00000
     44      -1.5852      1.00000
     45      -1.4757      1.00000
     46      -1.4362      1.00000
     47      -1.3337      1.00000
     48      -0.9882      1.00000
     49       4.0639      1.00000
     50       4.4712      1.00000
     51       4.8167      1.00000
     52       4.8972      1.00000
     53       5.0134      1.00000
     54       5.3642      0.99988
     55       5.5338      0.12970
     56       5.6964      0.00000
     57       6.0011      0.00000
     58       6.2429      0.00000
     59       6.5985      0.00000
     60       6.6781      0.00000
     61       6.7706      0.00000
     62       7.0269      0.00000
     63       7.1388      0.00000
     64       7.3315      0.00000
     65       7.4545      0.00000
     66       7.5158      0.00000
     67       7.5668      0.00000
     68       7.6737      0.00000
     69       7.7332      0.00000
     70       7.8603      0.00000

 k-point    36 :       0.2000    0.2857    0.2000
  band No.  band energies     occupation 
      1     -33.8391      1.00000
      2     -33.8281      1.00000
      3     -33.8249      1.00000
      4     -33.8200      1.00000
      5     -20.3812      1.00000
      6     -20.3714      1.00000
      7     -20.2664      1.00000
      8     -20.2545      1.00000
      9     -18.8581      1.00000
     10     -18.8514      1.00000
     11     -18.7282      1.00000
     12     -18.6563      1.00000
     13     -15.1333      1.00000
     14     -15.0689      1.00000
     15     -15.0210      1.00000
     16     -15.0165      1.00000
     17     -15.0071      1.00000
     18     -15.0044      1.00000
     19     -14.9581      1.00000
     20     -14.8869      1.00000
     21     -14.8711      1.00000
     22     -14.8560      1.00000
     23     -14.8130      1.00000
     24     -14.7920      1.00000
     25      -6.7325      1.00000
     26      -6.6921      1.00000
     27      -6.5548      1.00000
     28      -6.5070      1.00000
     29      -5.0405      1.00000
     30      -5.0157      1.00000
     31      -4.8370      1.00000
     32      -4.8083      1.00000
     33      -4.3486      1.00000
     34      -4.2764      1.00000
     35      -4.2018      1.00000
     36      -4.1644      1.00000
     37      -4.0604      1.00000
     38      -4.0119      1.00000
     39      -3.9529      1.00000
     40      -3.8206      1.00000
     41      -1.8838      1.00000
     42      -1.6374      1.00000
     43      -1.5368      1.00000
     44      -1.4867      1.00000
     45      -1.4555      1.00000
     46      -1.4158      1.00000
     47      -1.3316      1.00000
     48      -0.9688      1.00000
     49       4.1308      1.00000
     50       4.4219      1.00000
     51       4.8563      1.00000
     52       4.9109      1.00000
     53       5.1114      1.00000
     54       5.3382      0.99999
     55       5.4092      0.99177
     56       5.6165      0.00027
     57       5.9574      0.00000
     58       6.3789      0.00000
     59       6.5829      0.00000
     60       6.6481      0.00000
     61       6.7763      0.00000
     62       7.1429      0.00000
     63       7.1742      0.00000
     64       7.2508      0.00000
     65       7.3224      0.00000
     66       7.4654      0.00000
     67       7.5674      0.00000
     68       7.6012      0.00000
     69       7.7521      0.00000
     70       7.8456      0.00000

 k-point    37 :      -0.2000    0.2857   -0.2000
  band No.  band energies     occupation 
      1     -33.8391      1.00000
      2     -33.8281      1.00000
      3     -33.8249      1.00000
      4     -33.8200      1.00000
      5     -20.3812      1.00000
      6     -20.3714      1.00000
      7     -20.2664      1.00000
      8     -20.2545      1.00000
      9     -18.8581      1.00000
     10     -18.8514      1.00000
     11     -18.7282      1.00000
     12     -18.6563      1.00000
     13     -15.1332      1.00000
     14     -15.0690      1.00000
     15     -15.0210      1.00000
     16     -15.0165      1.00000
     17     -15.0070      1.00000
     18     -15.0045      1.00000
     19     -14.9581      1.00000
     20     -14.8869      1.00000
     21     -14.8711      1.00000
     22     -14.8560      1.00000
     23     -14.8130      1.00000
     24     -14.7920      1.00000
     25      -6.7325      1.00000
     26      -6.6921      1.00000
     27      -6.5548      1.00000
     28      -6.5070      1.00000
     29      -5.0405      1.00000
     30      -5.0157      1.00000
     31      -4.8370      1.00000
     32      -4.8083      1.00000
     33      -4.3486      1.00000
     34      -4.2765      1.00000
     35      -4.2019      1.00000
     36      -4.1644      1.00000
     37      -4.0604      1.00000
     38      -4.0119      1.00000
     39      -3.9529      1.00000
     40      -3.8206      1.00000
     41      -1.8838      1.00000
     42      -1.6374      1.00000
     43      -1.5368      1.00000
     44      -1.4867      1.00000
     45      -1.4556      1.00000
     46      -1.4158      1.00000
     47      -1.3315      1.00000
     48      -0.9688      1.00000
     49       4.1308      1.00000
     50       4.4218      1.00000
     51       4.8563      1.00000
     52       4.9111      1.00000
     53       5.1114      1.00000
     54       5.3381      0.99999
     55       5.4092      0.99178
     56       5.6165      0.00027
     57       5.9574      0.00000
     58       6.3789      0.00000
     59       6.5828      0.00000
     60       6.6480      0.00000
     61       6.7764      0.00000
     62       7.1429      0.00000
     63       7.1742      0.00000
     64       7.2509      0.00000
     65       7.3224      0.00000
     66       7.4654      0.00000
     67       7.5673      0.00000
     68       7.6013      0.00000
     69       7.7521      0.00000
     70       7.8457      0.00000

 k-point    38 :       0.4000    0.2857    0.2000
  band No.  band energies     occupation 
      1     -33.8361      1.00000
      2     -33.8305      1.00000
      3     -33.8271      1.00000
      4     -33.8185      1.00000
      5     -20.3875      1.00000
      6     -20.3783      1.00000
      7     -20.2733      1.00000
      8     -20.2637      1.00000
      9     -18.8389      1.00000
     10     -18.8304      1.00000
     11     -18.6975      1.00000
     12     -18.6639      1.00000
     13     -15.1757      1.00000
     14     -15.1224      1.00000
     15     -15.0224      1.00000
     16     -15.0171      1.00000
     17     -14.9880      1.00000
     18     -14.9845      1.00000
     19     -14.9775      1.00000
     20     -14.9191      1.00000
     21     -14.8516      1.00000
     22     -14.8336      1.00000
     23     -14.8124      1.00000
     24     -14.7834      1.00000
     25      -6.5779      1.00000
     26      -6.5472      1.00000
     27      -6.5167      1.00000
     28      -6.4613      1.00000
     29      -5.1732      1.00000
     30      -5.1448      1.00000
     31      -4.9466      1.00000
     32      -4.9131      1.00000
     33      -4.4121      1.00000
     34      -4.3701      1.00000
     35      -4.2200      1.00000
     36      -4.1723      1.00000
     37      -4.0517      1.00000
     38      -4.0123      1.00000
     39      -3.9752      1.00000
     40      -3.8737      1.00000
     41      -1.7912      1.00000
     42      -1.6225      1.00000
     43      -1.4283      1.00000
     44      -1.4088      1.00000
     45      -1.3685      1.00000
     46      -1.3061      1.00000
     47      -1.2239      1.00000
     48      -0.9884      1.00000
     49       4.2601      1.00000
     50       4.3738      1.00000
     51       4.6708      1.00000
     52       4.8786      1.00000
     53       5.1684      1.00000
     54       5.2524      1.00000
     55       5.5456      0.07230
     56       5.6814      0.00000
     57       6.0323      0.00000
     58       6.3060      0.00000
     59       6.6241      0.00000
     60       6.7668      0.00000
     61       6.8361      0.00000
     62       6.8600      0.00000
     63       7.0689      0.00000
     64       7.1402      0.00000
     65       7.2122      0.00000
     66       7.3552      0.00000
     67       7.4974      0.00000
     68       7.6103      0.00000
     69       7.7518      0.00000
     70       7.8764      0.00000

 k-point    39 :      -0.4000    0.2857   -0.2000
  band No.  band energies     occupation 
      1     -33.8361      1.00000
      2     -33.8305      1.00000
      3     -33.8271      1.00000
      4     -33.8185      1.00000
      5     -20.3874      1.00000
      6     -20.3783      1.00000
      7     -20.2733      1.00000
      8     -20.2637      1.00000
      9     -18.8389      1.00000
     10     -18.8304      1.00000
     11     -18.6975      1.00000
     12     -18.6639      1.00000
     13     -15.1757      1.00000
     14     -15.1225      1.00000
     15     -15.0224      1.00000
     16     -15.0171      1.00000
     17     -14.9880      1.00000
     18     -14.9845      1.00000
     19     -14.9775      1.00000
     20     -14.9191      1.00000
     21     -14.8517      1.00000
     22     -14.8336      1.00000
     23     -14.8124      1.00000
     24     -14.7834      1.00000
     25      -6.5779      1.00000
     26      -6.5472      1.00000
     27      -6.5167      1.00000
     28      -6.4613      1.00000
     29      -5.1732      1.00000
     30      -5.1448      1.00000
     31      -4.9466      1.00000
     32      -4.9131      1.00000
     33      -4.4120      1.00000
     34      -4.3702      1.00000
     35      -4.2200      1.00000
     36      -4.1723      1.00000
     37      -4.0517      1.00000
     38      -4.0123      1.00000
     39      -3.9751      1.00000
     40      -3.8738      1.00000
     41      -1.7912      1.00000
     42      -1.6225      1.00000
     43      -1.4283      1.00000
     44      -1.4089      1.00000
     45      -1.3685      1.00000
     46      -1.3061      1.00000
     47      -1.2239      1.00000
     48      -0.9884      1.00000
     49       4.2602      1.00000
     50       4.3737      1.00000
     51       4.6709      1.00000
     52       4.8785      1.00000
     53       5.1684      1.00000
     54       5.2525      1.00000
     55       5.5456      0.07219
     56       5.6813      0.00000
     57       6.0323      0.00000
     58       6.3060      0.00000
     59       6.6240      0.00000
     60       6.7668      0.00000
     61       6.8360      0.00000
     62       6.8600      0.00000
     63       7.0690      0.00000
     64       7.1402      0.00000
     65       7.2122      0.00000
     66       7.3552      0.00000
     67       7.4975      0.00000
     68       7.6104      0.00000
     69       7.7517      0.00000
     70       7.8765      0.00000

 k-point    40 :      -0.4000    0.2857    0.2000
  band No.  band energies     occupation 
      1     -33.8406      1.00000
      2     -33.8282      1.00000
      3     -33.8259      1.00000
      4     -33.8175      1.00000
      5     -20.3875      1.00000
      6     -20.3790      1.00000
      7     -20.2734      1.00000
      8     -20.2647      1.00000
      9     -18.8376      1.00000
     10     -18.8294      1.00000
     11     -18.6982      1.00000
     12     -18.6636      1.00000
     13     -15.1720      1.00000
     14     -15.1375      1.00000
     15     -15.0154      1.00000
     16     -15.0097      1.00000
     17     -14.9969      1.00000
     18     -14.9819      1.00000
     19     -14.9636      1.00000
     20     -14.9545      1.00000
     21     -14.8403      1.00000
     22     -14.8171      1.00000
     23     -14.8083      1.00000
     24     -14.7867      1.00000
     25      -6.6183      1.00000
     26      -6.5874      1.00000
     27      -6.5070      1.00000
     28      -6.4538      1.00000
     29      -5.1020      1.00000
     30      -5.0825      1.00000
     31      -4.9611      1.00000
     32      -4.9168      1.00000
     33      -4.4336      1.00000
     34      -4.4063      1.00000
     35      -4.2444      1.00000
     36      -4.1573      1.00000
     37      -4.0294      1.00000
     38      -3.9901      1.00000
     39      -3.9626      1.00000
     40      -3.9163      1.00000
     41      -1.7454      1.00000
     42      -1.6860      1.00000
     43      -1.5220      1.00000
     44      -1.4229      1.00000
     45      -1.3018      1.00000
     46      -1.2319      1.00000
     47      -1.1516      1.00000
     48      -1.0840      1.00000
     49       4.3743      1.00000
     50       4.4403      1.00000
     51       4.4588      1.00000
     52       4.8017      1.00000
     53       5.1756      1.00000
     54       5.4319      0.96034
     55       5.5719      0.01379
     56       5.6591      0.00000
     57       5.7763      0.00000
     58       6.1544      0.00000
     59       6.7065      0.00000
     60       6.7730      0.00000
     61       6.8607      0.00000
     62       6.9591      0.00000
     63       7.1257      0.00000
     64       7.1633      0.00000
     65       7.1890      0.00000
     66       7.4815      0.00000
     67       7.5437      0.00000
     68       7.6197      0.00000
     69       7.6840      0.00000
     70       7.9181      0.00000

 k-point    41 :       0.4000    0.2857   -0.2000
  band No.  band energies     occupation 
      1     -33.8406      1.00000
      2     -33.8282      1.00000
      3     -33.8259      1.00000
      4     -33.8175      1.00000
      5     -20.3875      1.00000
      6     -20.3790      1.00000
      7     -20.2734      1.00000
      8     -20.2647      1.00000
      9     -18.8376      1.00000
     10     -18.8294      1.00000
     11     -18.6982      1.00000
     12     -18.6636      1.00000
     13     -15.1719      1.00000
     14     -15.1375      1.00000
     15     -15.0154      1.00000
     16     -15.0097      1.00000
     17     -14.9969      1.00000
     18     -14.9818      1.00000
     19     -14.9636      1.00000
     20     -14.9545      1.00000
     21     -14.8403      1.00000
     22     -14.8172      1.00000
     23     -14.8083      1.00000
     24     -14.7867      1.00000
     25      -6.6183      1.00000
     26      -6.5874      1.00000
     27      -6.5070      1.00000
     28      -6.4539      1.00000
     29      -5.1020      1.00000
     30      -5.0825      1.00000
     31      -4.9611      1.00000
     32      -4.9168      1.00000
     33      -4.4336      1.00000
     34      -4.4064      1.00000
     35      -4.2443      1.00000
     36      -4.1573      1.00000
     37      -4.0294      1.00000
     38      -3.9901      1.00000
     39      -3.9626      1.00000
     40      -3.9164      1.00000
     41      -1.7454      1.00000
     42      -1.6860      1.00000
     43      -1.5221      1.00000
     44      -1.4228      1.00000
     45      -1.3018      1.00000
     46      -1.2320      1.00000
     47      -1.1516      1.00000
     48      -1.0840      1.00000
     49       4.3742      1.00000
     50       4.4403      1.00000
     51       4.4589      1.00000
     52       4.8016      1.00000
     53       5.1756      1.00000
     54       5.4321      0.95988
     55       5.5717      0.01394
     56       5.6590      0.00000
     57       5.7765      0.00000
     58       6.1543      0.00000
     59       6.7065      0.00000
     60       6.7729      0.00000
     61       6.8607      0.00000
     62       6.9591      0.00000
     63       7.1257      0.00000
     64       7.1632      0.00000
     65       7.1890      0.00000
     66       7.4816      0.00000
     67       7.5436      0.00000
     68       7.6198      0.00000
     69       7.6840      0.00000
     70       7.9181      0.00000

 k-point    42 :      -0.2000    0.2857    0.2000
  band No.  band energies     occupation 
      1     -33.8437      1.00000
      2     -33.8275      1.00000
      3     -33.8232      1.00000
      4     -33.8177      1.00000
      5     -20.3812      1.00000
      6     -20.3726      1.00000
      7     -20.2668      1.00000
      8     -20.2560      1.00000
      9     -18.8558      1.00000
     10     -18.8501      1.00000
     11     -18.7289      1.00000
     12     -18.6560      1.00000
     13     -15.1242      1.00000
     14     -15.1100      1.00000
     15     -15.0172      1.00000
     16     -15.0116      1.00000
     17     -15.0008      1.00000
     18     -14.9739      1.00000
     19     -14.9628      1.00000
     20     -14.9464      1.00000
     21     -14.8447      1.00000
     22     -14.8339      1.00000
     23     -14.8121      1.00000
     24     -14.7846      1.00000
     25      -6.7723      1.00000
     26      -6.7403      1.00000
     27      -6.5528      1.00000
     28      -6.5051      1.00000
     29      -4.9177      1.00000
     30      -4.9156      1.00000
     31      -4.8660      1.00000
     32      -4.8285      1.00000
     33      -4.3748      1.00000
     34      -4.3562      1.00000
     35      -4.2531      1.00000
     36      -4.1447      1.00000
     37      -3.9992      1.00000
     38      -3.9697      1.00000
     39      -3.9525      1.00000
     40      -3.8770      1.00000
     41      -1.8303      1.00000
     42      -1.7103      1.00000
     43      -1.6329      1.00000
     44      -1.5794      1.00000
     45      -1.3433      1.00000
     46      -1.3165      1.00000
     47      -1.2632      1.00000
     48      -1.0531      1.00000
     49       4.1499      1.00000
     50       4.5549      1.00000
     51       4.6490      1.00000
     52       4.7359      1.00000
     53       4.9697      1.00000
     54       5.5302      0.15252
     55       5.5893      0.00351
     56       5.8670      0.00000
     57       5.8805      0.00000
     58       5.9704      0.00000
     59       6.6302      0.00000
     60       6.8229      0.00000
     61       6.8563      0.00000
     62       6.9671      0.00000
     63       7.1309      0.00000
     64       7.1651      0.00000
     65       7.3135      0.00000
     66       7.5109      0.00000
     67       7.6098      0.00000
     68       7.6793      0.00000
     69       7.7884      0.00000
     70       7.9700      0.00000

 k-point    43 :       0.2000    0.2857   -0.2000
  band No.  band energies     occupation 
      1     -33.8437      1.00000
      2     -33.8275      1.00000
      3     -33.8232      1.00000
      4     -33.8177      1.00000
      5     -20.3812      1.00000
      6     -20.3726      1.00000
      7     -20.2667      1.00000
      8     -20.2560      1.00000
      9     -18.8558      1.00000
     10     -18.8500      1.00000
     11     -18.7289      1.00000
     12     -18.6560      1.00000
     13     -15.1242      1.00000
     14     -15.1100      1.00000
     15     -15.0172      1.00000
     16     -15.0116      1.00000
     17     -15.0008      1.00000
     18     -14.9739      1.00000
     19     -14.9628      1.00000
     20     -14.9464      1.00000
     21     -14.8447      1.00000
     22     -14.8339      1.00000
     23     -14.8121      1.00000
     24     -14.7845      1.00000
     25      -6.7723      1.00000
     26      -6.7403      1.00000
     27      -6.5528      1.00000
     28      -6.5051      1.00000
     29      -4.9177      1.00000
     30      -4.9155      1.00000
     31      -4.8660      1.00000
     32      -4.8285      1.00000
     33      -4.3749      1.00000
     34      -4.3561      1.00000
     35      -4.2530      1.00000
     36      -4.1447      1.00000
     37      -3.9992      1.00000
     38      -3.9695      1.00000
     39      -3.9528      1.00000
     40      -3.8770      1.00000
     41      -1.8303      1.00000
     42      -1.7103      1.00000
     43      -1.6329      1.00000
     44      -1.5793      1.00000
     45      -1.3432      1.00000
     46      -1.3166      1.00000
     47      -1.2633      1.00000
     48      -1.0531      1.00000
     49       4.1499      1.00000
     50       4.5549      1.00000
     51       4.6490      1.00000
     52       4.7358      1.00000
     53       4.9697      1.00000
     54       5.5304      0.15161
     55       5.5891      0.00357
     56       5.8670      0.00000
     57       5.8806      0.00000
     58       5.9703      0.00000
     59       6.6302      0.00000
     60       6.8229      0.00000
     61       6.8562      0.00000
     62       6.9671      0.00000
     63       7.1309      0.00000
     64       7.1652      0.00000
     65       7.3134      0.00000
     66       7.5109      0.00000
     67       7.6098      0.00000
     68       7.6792      0.00000
     69       7.7884      0.00000
     70       7.9708      0.00000

 k-point    44 :      -0.0000    0.4286    0.2000
  band No.  band energies     occupation 
      1     -33.8372      1.00000
      2     -33.8297      1.00000
      3     -33.8229      1.00000
      4     -33.8184      1.00000
      5     -20.4151      1.00000
      6     -20.4055      1.00000
      7     -20.3130      1.00000
      8     -20.2992      1.00000
      9     -18.8698      1.00000
     10     -18.8353      1.00000
     11     -18.7566      1.00000
     12     -18.7063      1.00000
     13     -15.0622      1.00000
     14     -15.0544      1.00000
     15     -15.0294      1.00000
     16     -15.0265      1.00000
     17     -15.0223      1.00000
     18     -15.0032      1.00000
     19     -14.9236      1.00000
     20     -14.8924      1.00000
     21     -14.7232      1.00000
     22     -14.7019      1.00000
     23     -14.6904      1.00000
     24     -14.6873      1.00000
     25      -6.7751      1.00000
     26      -6.7447      1.00000
     27      -6.5384      1.00000
     28      -6.4904      1.00000
     29      -4.8946      1.00000
     30      -4.8809      1.00000
     31      -4.7939      1.00000
     32      -4.7636      1.00000
     33      -4.5956      1.00000
     34      -4.5597      1.00000
     35      -4.5491      1.00000
     36      -4.5357      1.00000
     37      -4.1254      1.00000
     38      -4.0902      1.00000
     39      -3.9374      1.00000
     40      -3.8788      1.00000
     41      -1.7116      1.00000
     42      -1.5975      1.00000
     43      -1.5918      1.00000
     44      -1.5498      1.00000
     45      -1.4373      1.00000
     46      -1.3118      1.00000
     47      -1.2646      1.00000
     48      -1.1479      1.00000
     49       3.9260      1.00000
     50       4.0850      1.00000
     51       4.7311      1.00000
     52       4.7965      1.00000
     53       5.2700      1.00000
     54       5.3654      0.99986
     55       5.7100      0.00000
     56       5.8588      0.00000
     57       5.9613      0.00000
     58       6.1779      0.00000
     59       6.5190      0.00000
     60       6.6050      0.00000
     61       6.7432      0.00000
     62       6.9012      0.00000
     63       7.0547      0.00000
     64       7.1370      0.00000
     65       7.2289      0.00000
     66       7.3401      0.00000
     67       7.7598      0.00000
     68       7.7823      0.00000
     69       8.0318      0.00000
     70       8.2025      0.00000

 k-point    45 :       0.0000    0.4286   -0.2000
  band No.  band energies     occupation 
      1     -33.8372      1.00000
      2     -33.8297      1.00000
      3     -33.8229      1.00000
      4     -33.8184      1.00000
      5     -20.4151      1.00000
      6     -20.4055      1.00000
      7     -20.3129      1.00000
      8     -20.2992      1.00000
      9     -18.8698      1.00000
     10     -18.8353      1.00000
     11     -18.7566      1.00000
     12     -18.7063      1.00000
     13     -15.0622      1.00000
     14     -15.0544      1.00000
     15     -15.0294      1.00000
     16     -15.0265      1.00000
     17     -15.0223      1.00000
     18     -15.0032      1.00000
     19     -14.9236      1.00000
     20     -14.8924      1.00000
     21     -14.7232      1.00000
     22     -14.7018      1.00000
     23     -14.6904      1.00000
     24     -14.6873      1.00000
     25      -6.7751      1.00000
     26      -6.7447      1.00000
     27      -6.5384      1.00000
     28      -6.4904      1.00000
     29      -4.8946      1.00000
     30      -4.8809      1.00000
     31      -4.7939      1.00000
     32      -4.7636      1.00000
     33      -4.5956      1.00000
     34      -4.5597      1.00000
     35      -4.5491      1.00000
     36      -4.5357      1.00000
     37      -4.1254      1.00000
     38      -4.0902      1.00000
     39      -3.9374      1.00000
     40      -3.8788      1.00000
     41      -1.7116      1.00000
     42      -1.5974      1.00000
     43      -1.5918      1.00000
     44      -1.5498      1.00000
     45      -1.4373      1.00000
     46      -1.3118      1.00000
     47      -1.2646      1.00000
     48      -1.1479      1.00000
     49       3.9260      1.00000
     50       4.0850      1.00000
     51       4.7311      1.00000
     52       4.7965      1.00000
     53       5.2700      1.00000
     54       5.3654      0.99986
     55       5.7100      0.00000
     56       5.8588      0.00000
     57       5.9612      0.00000
     58       6.1779      0.00000
     59       6.5190      0.00000
     60       6.6050      0.00000
     61       6.7432      0.00000
     62       6.9012      0.00000
     63       7.0547      0.00000
     64       7.1370      0.00000
     65       7.2289      0.00000
     66       7.3401      0.00000
     67       7.7598      0.00000
     68       7.7823      0.00000
     69       8.0318      0.00000
     70       8.2025      0.00000

 k-point    46 :       0.2000    0.4286    0.2000
  band No.  band energies     occupation 
      1     -33.8340      1.00000
      2     -33.8277      1.00000
      3     -33.8256      1.00000
      4     -33.8210      1.00000
      5     -20.4192      1.00000
      6     -20.4090      1.00000
      7     -20.3170      1.00000
      8     -20.3041      1.00000
      9     -18.8565      1.00000
     10     -18.8280      1.00000
     11     -18.7439      1.00000
     12     -18.7010      1.00000
     13     -15.1026      1.00000
     14     -15.0782      1.00000
     15     -15.0241      1.00000
     16     -15.0194      1.00000
     17     -15.0086      1.00000
     18     -15.0022      1.00000
     19     -14.9452      1.00000
     20     -14.9116      1.00000
     21     -14.7070      1.00000
     22     -14.6993      1.00000
     23     -14.6919      1.00000
     24     -14.6670      1.00000
     25      -6.6810      1.00000
     26      -6.6475      1.00000
     27      -6.5041      1.00000
     28      -6.4534      1.00000
     29      -5.0393      1.00000
     30      -5.0173      1.00000
     31      -4.8352      1.00000
     32      -4.8045      1.00000
     33      -4.6332      1.00000
     34      -4.6062      1.00000
     35      -4.5283      1.00000
     36      -4.5121      1.00000
     37      -4.1133      1.00000
     38      -4.0785      1.00000
     39      -3.9883      1.00000
     40      -3.9296      1.00000
     41      -1.7005      1.00000
     42      -1.5536      1.00000
     43      -1.4715      1.00000
     44      -1.4480      1.00000
     45      -1.3680      1.00000
     46      -1.3445      1.00000
     47      -1.2824      1.00000
     48      -1.0713      1.00000
     49       3.9837      1.00000
     50       4.1048      1.00000
     51       4.8004      1.00000
     52       4.8532      1.00000
     53       5.0370      1.00000
     54       5.1068      1.00000
     55       5.7288      0.00000
     56       5.8066      0.00000
     57       6.0577      0.00000
     58       6.4644      0.00000
     59       6.6142      0.00000
     60       6.6574      0.00000
     61       6.8818      0.00000
     62       6.9436      0.00000
     63       7.0450      0.00000
     64       7.0963      0.00000
     65       7.2935      0.00000
     66       7.3866      0.00000
     67       7.4414      0.00000
     68       7.5359      0.00000
     69       8.0022      0.00000
     70       8.0864      0.00000

 k-point    47 :      -0.2000    0.4286   -0.2000
  band No.  band energies     occupation 
      1     -33.8340      1.00000
      2     -33.8277      1.00000
      3     -33.8256      1.00000
      4     -33.8210      1.00000
      5     -20.4192      1.00000
      6     -20.4090      1.00000
      7     -20.3170      1.00000
      8     -20.3041      1.00000
      9     -18.8565      1.00000
     10     -18.8280      1.00000
     11     -18.7439      1.00000
     12     -18.7010      1.00000
     13     -15.1026      1.00000
     14     -15.0782      1.00000
     15     -15.0241      1.00000
     16     -15.0194      1.00000
     17     -15.0086      1.00000
     18     -15.0022      1.00000
     19     -14.9452      1.00000
     20     -14.9116      1.00000
     21     -14.7071      1.00000
     22     -14.6993      1.00000
     23     -14.6920      1.00000
     24     -14.6670      1.00000
     25      -6.6810      1.00000
     26      -6.6475      1.00000
     27      -6.5041      1.00000
     28      -6.4534      1.00000
     29      -5.0392      1.00000
     30      -5.0173      1.00000
     31      -4.8352      1.00000
     32      -4.8045      1.00000
     33      -4.6332      1.00000
     34      -4.6062      1.00000
     35      -4.5283      1.00000
     36      -4.5121      1.00000
     37      -4.1133      1.00000
     38      -4.0785      1.00000
     39      -3.9883      1.00000
     40      -3.9296      1.00000
     41      -1.7004      1.00000
     42      -1.5536      1.00000
     43      -1.4715      1.00000
     44      -1.4480      1.00000
     45      -1.3680      1.00000
     46      -1.3445      1.00000
     47      -1.2824      1.00000
     48      -1.0713      1.00000
     49       3.9837      1.00000
     50       4.1048      1.00000
     51       4.8004      1.00000
     52       4.8533      1.00000
     53       5.0370      1.00000
     54       5.1067      1.00000
     55       5.7288      0.00000
     56       5.8066      0.00000
     57       6.0576      0.00000
     58       6.4645      0.00000
     59       6.6142      0.00000
     60       6.6574      0.00000
     61       6.8818      0.00000
     62       6.9436      0.00000
     63       7.0450      0.00000
     64       7.0963      0.00000
     65       7.2935      0.00000
     66       7.3867      0.00000
     67       7.4414      0.00000
     68       7.5359      0.00000
     69       8.0023      0.00000
     70       8.0864      0.00000

 k-point    48 :       0.4000    0.4286    0.2000
  band No.  band energies     occupation 
      1     -33.8332      1.00000
      2     -33.8280      1.00000
      3     -33.8265      1.00000
      4     -33.8205      1.00000
      5     -20.4258      1.00000
      6     -20.4159      1.00000
      7     -20.3235      1.00000
      8     -20.3137      1.00000
      9     -18.8315      1.00000
     10     -18.8172      1.00000
     11     -18.7208      1.00000
     12     -18.6941      1.00000
     13     -15.1547      1.00000
     14     -15.1329      1.00000
     15     -15.0170      1.00000
     16     -15.0121      1.00000
     17     -14.9843      1.00000
     18     -14.9799      1.00000
     19     -14.9743      1.00000
     20     -14.9555      1.00000
     21     -14.6990      1.00000
     22     -14.6833      1.00000
     23     -14.6743      1.00000
     24     -14.6494      1.00000
     25      -6.5269      1.00000
     26      -6.4956      1.00000
     27      -6.4699      1.00000
     28      -6.4081      1.00000
     29      -5.1766      1.00000
     30      -5.1489      1.00000
     31      -4.9502      1.00000
     32      -4.9148      1.00000
     33      -4.6747      1.00000
     34      -4.6540      1.00000
     35      -4.5376      1.00000
     36      -4.5204      1.00000
     37      -4.0907      1.00000
     38      -4.0611      1.00000
     39      -4.0548      1.00000
     40      -4.0092      1.00000
     41      -1.6424      1.00000
     42      -1.5265      1.00000
     43      -1.4067      1.00000
     44      -1.3635      1.00000
     45      -1.3089      1.00000
     46      -1.2762      1.00000
     47      -1.1488      1.00000
     48      -0.9994      1.00000
     49       4.1161      1.00000
     50       4.1782      1.00000
     51       4.5731      1.00000
     52       4.6598      1.00000
     53       5.0882      1.00000
     54       5.1226      1.00000
     55       5.5652      0.02202
     56       5.6413      0.00002
     57       6.4848      0.00000
     58       6.6207      0.00000
     59       6.6937      0.00000
     60       6.8062      0.00000
     61       6.9179      0.00000
     62       6.9348      0.00000
     63       6.9821      0.00000
     64       7.0888      0.00000
     65       7.2837      0.00000
     66       7.3577      0.00000
     67       7.4835      0.00000
     68       7.5849      0.00000
     69       7.6680      0.00000
     70       7.7564      0.00000

 k-point    49 :      -0.4000    0.4286   -0.2000
  band No.  band energies     occupation 
      1     -33.8332      1.00000
      2     -33.8280      1.00000
      3     -33.8265      1.00000
      4     -33.8205      1.00000
      5     -20.4258      1.00000
      6     -20.4159      1.00000
      7     -20.3235      1.00000
      8     -20.3137      1.00000
      9     -18.8315      1.00000
     10     -18.8172      1.00000
     11     -18.7208      1.00000
     12     -18.6941      1.00000
     13     -15.1547      1.00000
     14     -15.1329      1.00000
     15     -15.0170      1.00000
     16     -15.0121      1.00000
     17     -14.9843      1.00000
     18     -14.9799      1.00000
     19     -14.9743      1.00000
     20     -14.9555      1.00000
     21     -14.6990      1.00000
     22     -14.6833      1.00000
     23     -14.6743      1.00000
     24     -14.6494      1.00000
     25      -6.5269      1.00000
     26      -6.4956      1.00000
     27      -6.4699      1.00000
     28      -6.4081      1.00000
     29      -5.1766      1.00000
     30      -5.1489      1.00000
     31      -4.9502      1.00000
     32      -4.9148      1.00000
     33      -4.6747      1.00000
     34      -4.6540      1.00000
     35      -4.5376      1.00000
     36      -4.5205      1.00000
     37      -4.0908      1.00000
     38      -4.0612      1.00000
     39      -4.0546      1.00000
     40      -4.0093      1.00000
     41      -1.6424      1.00000
     42      -1.5266      1.00000
     43      -1.4067      1.00000
     44      -1.3635      1.00000
     45      -1.3088      1.00000
     46      -1.2762      1.00000
     47      -1.1488      1.00000
     48      -0.9994      1.00000
     49       4.1161      1.00000
     50       4.1782      1.00000
     51       4.5731      1.00000
     52       4.6597      1.00000
     53       5.0882      1.00000
     54       5.1226      1.00000
     55       5.5652      0.02200
     56       5.6413      0.00002
     57       6.4847      0.00000
     58       6.6207      0.00000
     59       6.6938      0.00000
     60       6.8062      0.00000
     61       6.9178      0.00000
     62       6.9348      0.00000
     63       6.9821      0.00000
     64       7.0888      0.00000
     65       7.2837      0.00000
     66       7.3577      0.00000
     67       7.4835      0.00000
     68       7.5849      0.00000
     69       7.6680      0.00000
     70       7.7564      0.00000

 k-point    50 :      -0.4000    0.4286    0.2000
  band No.  band energies     occupation 
      1     -33.8364      1.00000
      2     -33.8303      1.00000
      3     -33.8233      1.00000
      4     -33.8181      1.00000
      5     -20.4257      1.00000
      6     -20.4167      1.00000
      7     -20.3233      1.00000
      8     -20.3149      1.00000
      9     -18.8304      1.00000
     10     -18.8171      1.00000
     11     -18.7204      1.00000
     12     -18.6939      1.00000
     13     -15.1585      1.00000
     14     -15.1426      1.00000
     15     -15.0154      1.00000
     16     -15.0016      1.00000
     17     -14.9934      1.00000
     18     -14.9874      1.00000
     19     -14.9598      1.00000
     20     -14.9534      1.00000
     21     -14.6999      1.00000
     22     -14.6803      1.00000
     23     -14.6691      1.00000
     24     -14.6516      1.00000
     25      -6.5709      1.00000
     26      -6.5371      1.00000
     27      -6.4577      1.00000
     28      -6.4006      1.00000
     29      -5.1045      1.00000
     30      -5.0852      1.00000
     31      -4.9615      1.00000
     32      -4.9192      1.00000
     33      -4.6860      1.00000
     34      -4.6690      1.00000
     35      -4.5524      1.00000
     36      -4.5226      1.00000
     37      -4.1063      1.00000
     38      -4.0726      1.00000
     39      -4.0411      1.00000
     40      -4.0039      1.00000
     41      -1.6239      1.00000
     42      -1.5601      1.00000
     43      -1.4479      1.00000
     44      -1.3739      1.00000
     45      -1.2993      1.00000
     46      -1.2457      1.00000
     47      -1.1051      1.00000
     48      -1.0253      1.00000
     49       4.2459      1.00000
     50       4.3023      1.00000
     51       4.3235      1.00000
     52       4.4158      1.00000
     53       5.3729      0.99969
     54       5.4034      0.99481
     55       5.5114      0.31142
     56       5.5812      0.00679
     57       6.1330      0.00000
     58       6.3667      0.00000
     59       6.6233      0.00000
     60       6.7081      0.00000
     61       6.7750      0.00000
     62       6.9067      0.00000
     63       7.0557      0.00000
     64       7.1624      0.00000
     65       7.3901      0.00000
     66       7.4682      0.00000
     67       7.6426      0.00000
     68       7.7599      0.00000
     69       7.7871      0.00000
     70       7.9429      0.00000

 k-point    51 :       0.4000    0.4286   -0.2000
  band No.  band energies     occupation 
      1     -33.8364      1.00000
      2     -33.8303      1.00000
      3     -33.8233      1.00000
      4     -33.8181      1.00000
      5     -20.4257      1.00000
      6     -20.4167      1.00000
      7     -20.3233      1.00000
      8     -20.3149      1.00000
      9     -18.8304      1.00000
     10     -18.8170      1.00000
     11     -18.7204      1.00000
     12     -18.6939      1.00000
     13     -15.1585      1.00000
     14     -15.1426      1.00000
     15     -15.0154      1.00000
     16     -15.0016      1.00000
     17     -14.9934      1.00000
     18     -14.9874      1.00000
     19     -14.9598      1.00000
     20     -14.9534      1.00000
     21     -14.6999      1.00000
     22     -14.6803      1.00000
     23     -14.6692      1.00000
     24     -14.6516      1.00000
     25      -6.5709      1.00000
     26      -6.5371      1.00000
     27      -6.4578      1.00000
     28      -6.4006      1.00000
     29      -5.1045      1.00000
     30      -5.0852      1.00000
     31      -4.9615      1.00000
     32      -4.9192      1.00000
     33      -4.6860      1.00000
     34      -4.6690      1.00000
     35      -4.5524      1.00000
     36      -4.5226      1.00000
     37      -4.1063      1.00000
     38      -4.0725      1.00000
     39      -4.0411      1.00000
     40      -4.0039      1.00000
     41      -1.6239      1.00000
     42      -1.5601      1.00000
     43      -1.4479      1.00000
     44      -1.3739      1.00000
     45      -1.2993      1.00000
     46      -1.2456      1.00000
     47      -1.1051      1.00000
     48      -1.0253      1.00000
     49       4.2458      1.00000
     50       4.3023      1.00000
     51       4.3236      1.00000
     52       4.4157      1.00000
     53       5.3728      0.99969
     54       5.4034      0.99479
     55       5.5114      0.31118
     56       5.5812      0.00680
     57       6.1330      0.00000
     58       6.3666      0.00000
     59       6.6233      0.00000
     60       6.7081      0.00000
     61       6.7750      0.00000
     62       6.9067      0.00000
     63       7.0557      0.00000
     64       7.1625      0.00000
     65       7.3901      0.00000
     66       7.4682      0.00000
     67       7.6426      0.00000
     68       7.7598      0.00000
     69       7.7872      0.00000
     70       7.9426      0.00000

 k-point    52 :      -0.2000    0.4286    0.2000
  band No.  band energies     occupation 
      1     -33.8382      1.00000
      2     -33.8311      1.00000
      3     -33.8218      1.00000
      4     -33.8171      1.00000
      5     -20.4191      1.00000
      6     -20.4104      1.00000
      7     -20.3171      1.00000
      8     -20.3058      1.00000
      9     -18.8551      1.00000
     10     -18.8271      1.00000
     11     -18.7433      1.00000
     12     -18.7006      1.00000
     13     -15.1147      1.00000
     14     -15.1046      1.00000
     15     -15.0304      1.00000
     16     -15.0233      1.00000
     17     -14.9863      1.00000
     18     -14.9662      1.00000
     19     -14.9454      1.00000
     20     -14.9230      1.00000
     21     -14.7152      1.00000
     22     -14.6900      1.00000
     23     -14.6827      1.00000
     24     -14.6694      1.00000
     25      -6.7248      1.00000
     26      -6.6938      1.00000
     27      -6.5020      1.00000
     28      -6.4520      1.00000
     29      -4.9156      1.00000
     30      -4.9110      1.00000
     31      -4.8644      1.00000
     32      -4.8198      1.00000
     33      -4.6493      1.00000
     34      -4.6284      1.00000
     35      -4.5600      1.00000
     36      -4.5233      1.00000
     37      -4.1243      1.00000
     38      -4.0934      1.00000
     39      -3.9753      1.00000
     40      -3.9284      1.00000
     41      -1.6528      1.00000
     42      -1.6139      1.00000
     43      -1.5372      1.00000
     44      -1.4825      1.00000
     45      -1.4141      1.00000
     46      -1.2225      1.00000
     47      -1.1914      1.00000
     48      -1.1398      1.00000
     49       4.0159      1.00000
     50       4.1771      1.00000
     51       4.5403      1.00000
     52       4.5585      1.00000
     53       5.4200      0.98177
     54       5.4736      0.71803
     55       5.7767      0.00000
     56       5.8270      0.00000
     57       5.8583      0.00000
     58       6.0875      0.00000
     59       6.5087      0.00000
     60       6.6164      0.00000
     61       6.6755      0.00000
     62       6.8294      0.00000
     63       7.0761      0.00000
     64       7.1720      0.00000
     65       7.3226      0.00000
     66       7.4490      0.00000
     67       7.8130      0.00000
     68       7.9040      0.00000
     69       7.9384      0.00000
     70       8.0893      0.00000

 k-point    53 :       0.2000    0.4286   -0.2000
  band No.  band energies     occupation 
      1     -33.8382      1.00000
      2     -33.8311      1.00000
      3     -33.8218      1.00000
      4     -33.8171      1.00000
      5     -20.4191      1.00000
      6     -20.4104      1.00000
      7     -20.3170      1.00000
      8     -20.3058      1.00000
      9     -18.8551      1.00000
     10     -18.8271      1.00000
     11     -18.7433      1.00000
     12     -18.7006      1.00000
     13     -15.1146      1.00000
     14     -15.1047      1.00000
     15     -15.0304      1.00000
     16     -15.0233      1.00000
     17     -14.9863      1.00000
     18     -14.9662      1.00000
     19     -14.9454      1.00000
     20     -14.9230      1.00000
     21     -14.7152      1.00000
     22     -14.6899      1.00000
     23     -14.6827      1.00000
     24     -14.6694      1.00000
     25      -6.7248      1.00000
     26      -6.6938      1.00000
     27      -6.5020      1.00000
     28      -6.4520      1.00000
     29      -4.9156      1.00000
     30      -4.9110      1.00000
     31      -4.8644      1.00000
     32      -4.8198      1.00000
     33      -4.6493      1.00000
     34      -4.6283      1.00000
     35      -4.5599      1.00000
     36      -4.5233      1.00000
     37      -4.1243      1.00000
     38      -4.0933      1.00000
     39      -3.9753      1.00000
     40      -3.9284      1.00000
     41      -1.6529      1.00000
     42      -1.6139      1.00000
     43      -1.5371      1.00000
     44      -1.4825      1.00000
     45      -1.4141      1.00000
     46      -1.2225      1.00000
     47      -1.1914      1.00000
     48      -1.1398      1.00000
     49       4.0159      1.00000
     50       4.1771      1.00000
     51       4.5403      1.00000
     52       4.5585      1.00000
     53       5.4200      0.98185
     54       5.4736      0.71742
     55       5.7767      0.00000
     56       5.8271      0.00000
     57       5.8583      0.00000
     58       6.0875      0.00000
     59       6.5087      0.00000
     60       6.6164      0.00000
     61       6.6755      0.00000
     62       6.8294      0.00000
     63       7.0761      0.00000
     64       7.1719      0.00000
     65       7.3226      0.00000
     66       7.4490      0.00000
     67       7.8131      0.00000
     68       7.9039      0.00000
     69       7.9383      0.00000
     70       8.0892      0.00000

 k-point    54 :       0.0000    0.0000    0.4000
  band No.  band energies     occupation 
      1     -33.8419      1.00000
      2     -33.8321      1.00000
      3     -33.8235      1.00000
      4     -33.8217      1.00000
      5     -20.3207      1.00000
      6     -20.3132      1.00000
      7     -20.1803      1.00000
      8     -20.1702      1.00000
      9     -18.8538      1.00000
     10     -18.8235      1.00000
     11     -18.6716      1.00000
     12     -18.5889      1.00000
     13     -15.2507      1.00000
     14     -15.2073      1.00000
     15     -15.1608      1.00000
     16     -15.1332      1.00000
     17     -15.0892      1.00000
     18     -15.0526      1.00000
     19     -15.0262      1.00000
     20     -14.9882      1.00000
     21     -14.9487      1.00000
     22     -14.9409      1.00000
     23     -14.8965      1.00000
     24     -14.8172      1.00000
     25      -6.7003      1.00000
     26      -6.6201      1.00000
     27      -6.5929      1.00000
     28      -6.5199      1.00000
     29      -5.0853      1.00000
     30      -5.0719      1.00000
     31      -4.9881      1.00000
     32      -4.9423      1.00000
     33      -4.0989      1.00000
     34      -4.0394      1.00000
     35      -3.9744      1.00000
     36      -3.8816      1.00000
     37      -3.7635      1.00000
     38      -3.6288      1.00000
     39      -3.5445      1.00000
     40      -3.3998      1.00000
     41      -2.0962      1.00000
     42      -1.8703      1.00000
     43      -1.6073      1.00000
     44      -1.4807      1.00000
     45      -1.4712      1.00000
     46      -1.2168      1.00000
     47      -1.1244      1.00000
     48      -1.1140      1.00000
     49       4.4141      1.00000
     50       4.8350      1.00000
     51       4.9309      1.00000
     52       5.1073      1.00000
     53       5.2934      1.00000
     54       5.4906      0.53849
     55       5.5280      0.16826
     56       5.6548      0.00000
     57       5.8253      0.00000
     58       6.0954      0.00000
     59       6.1786      0.00000
     60       6.4816      0.00000
     61       6.5880      0.00000
     62       6.7076      0.00000
     63       6.8667      0.00000
     64       6.9203      0.00000
     65       7.0284      0.00000
     66       7.1137      0.00000
     67       7.3104      0.00000
     68       7.5232      0.00000
     69       8.1109      0.00000
     70       8.2671      0.00000

 k-point    55 :       0.2000    0.0000    0.4000
  band No.  band energies     occupation 
      1     -33.8371      1.00000
      2     -33.8350      1.00000
      3     -33.8284      1.00000
      4     -33.8188      1.00000
      5     -20.3247      1.00000
      6     -20.3168      1.00000
      7     -20.1855      1.00000
      8     -20.1747      1.00000
      9     -18.8392      1.00000
     10     -18.8088      1.00000
     11     -18.6613      1.00000
     12     -18.5925      1.00000
     13     -15.2355      1.00000
     14     -15.2076      1.00000
     15     -15.1764      1.00000
     16     -15.1333      1.00000
     17     -15.1193      1.00000
     18     -15.0604      1.00000
     19     -15.0094      1.00000
     20     -14.9900      1.00000
     21     -14.9610      1.00000
     22     -14.9191      1.00000
     23     -14.8890      1.00000
     24     -14.8467      1.00000
     25      -6.6190      1.00000
     26      -6.5537      1.00000
     27      -6.5207      1.00000
     28      -6.4773      1.00000
     29      -5.2261      1.00000
     30      -5.2027      1.00000
     31      -4.9864      1.00000
     32      -4.9454      1.00000
     33      -4.1618      1.00000
     34      -4.0531      1.00000
     35      -4.0366      1.00000
     36      -3.9538      1.00000
     37      -3.7537      1.00000
     38      -3.6386      1.00000
     39      -3.5595      1.00000
     40      -3.4249      1.00000
     41      -2.0337      1.00000
     42      -1.7744      1.00000
     43      -1.5115      1.00000
     44      -1.4850      1.00000
     45      -1.3431      1.00000
     46      -1.1862      1.00000
     47      -1.1566      1.00000
     48      -1.0743      1.00000
     49       4.5762      1.00000
     50       4.7582      1.00000
     51       4.8447      1.00000
     52       4.9193      1.00000
     53       5.1634      1.00000
     54       5.4533      0.87473
     55       5.6150      0.00031
     56       5.8768      0.00000
     57       5.9777      0.00000
     58       6.0571      0.00000
     59       6.2735      0.00000
     60       6.4330      0.00000
     61       6.4744      0.00000
     62       6.6328      0.00000
     63       6.7402      0.00000
     64       6.8229      0.00000
     65       6.9969      0.00000
     66       7.0177      0.00000
     67       7.5066      0.00000
     68       7.7004      0.00000
     69       8.1157      0.00000
     70       8.1959      0.00000

 k-point    56 :       0.4000    0.0000    0.4000
  band No.  band energies     occupation 
      1     -33.8385      1.00000
      2     -33.8338      1.00000
      3     -33.8287      1.00000
      4     -33.8182      1.00000
      5     -20.3312      1.00000
      6     -20.3231      1.00000
      7     -20.1943      1.00000
      8     -20.1828      1.00000
      9     -18.8073      1.00000
     10     -18.7899      1.00000
     11     -18.6361      1.00000
     12     -18.6082      1.00000
     13     -15.2094      1.00000
     14     -15.2045      1.00000
     15     -15.1921      1.00000
     16     -15.1485      1.00000
     17     -15.1422      1.00000
     18     -15.1018      1.00000
     19     -14.9883      1.00000
     20     -14.9857      1.00000
     21     -14.9638      1.00000
     22     -14.9200      1.00000
     23     -14.8801      1.00000
     24     -14.8659      1.00000
     25      -6.4857      1.00000
     26      -6.4570      1.00000
     27      -6.4198      1.00000
     28      -6.3926      1.00000
     29      -5.3864      1.00000
     30      -5.3512      1.00000
     31      -5.0342      1.00000
     32      -4.9921      1.00000
     33      -4.2594      1.00000
     34      -4.1867      1.00000
     35      -4.0739      1.00000
     36      -4.0310      1.00000
     37      -3.7239      1.00000
     38      -3.6794      1.00000
     39      -3.5517      1.00000
     40      -3.4856      1.00000
     41      -1.8600      1.00000
     42      -1.6490      1.00000
     43      -1.5441      1.00000
     44      -1.3510      1.00000
     45      -1.2690      1.00000
     46      -1.1230      1.00000
     47      -1.0925      1.00000
     48      -1.0356      1.00000
     49       4.5485      1.00000
     50       4.7370      1.00000
     51       4.7837      1.00000
     52       4.8593      1.00000
     53       5.2366      1.00000
     54       5.3759      0.99958
     55       5.6812      0.00000
     56       5.7317      0.00000
     57       6.1173      0.00000
     58       6.1933      0.00000
     59       6.2500      0.00000
     60       6.2855      0.00000
     61       6.4317      0.00000
     62       6.4821      0.00000
     63       6.5940      0.00000
     64       6.7317      0.00000
     65       7.1309      0.00000
     66       7.1756      0.00000
     67       7.7306      0.00000
     68       7.7978      0.00000
     69       7.8915      0.00000
     70       8.0182      0.00000

 k-point    57 :      -0.4000    0.0000    0.4000
  band No.  band energies     occupation 
      1     -33.8426      1.00000
      2     -33.8321      1.00000
      3     -33.8247      1.00000
      4     -33.8198      1.00000
      5     -20.3312      1.00000
      6     -20.3236      1.00000
      7     -20.1947      1.00000
      8     -20.1832      1.00000
      9     -18.8023      1.00000
     10     -18.7926      1.00000
     11     -18.6390      1.00000
     12     -18.6062      1.00000
     13     -15.2314      1.00000
     14     -15.1821      1.00000
     15     -15.1708      1.00000
     16     -15.1698      1.00000
     17     -15.1346      1.00000
     18     -15.1140      1.00000
     19     -14.9974      1.00000
     20     -14.9730      1.00000
     21     -14.9520      1.00000
     22     -14.9487      1.00000
     23     -14.8910      1.00000
     24     -14.8349      1.00000
     25      -6.5038      1.00000
     26      -6.4613      1.00000
     27      -6.4473      1.00000
     28      -6.3978      1.00000
     29      -5.3443      1.00000
     30      -5.3069      1.00000
     31      -5.0344      1.00000
     32      -4.9924      1.00000
     33      -4.2596      1.00000
     34      -4.2255      1.00000
     35      -4.0727      1.00000
     36      -4.0284      1.00000
     37      -3.7265      1.00000
     38      -3.6766      1.00000
     39      -3.5371      1.00000
     40      -3.5023      1.00000
     41      -1.8212      1.00000
     42      -1.6809      1.00000
     43      -1.5697      1.00000
     44      -1.3325      1.00000
     45      -1.2269      1.00000
     46      -1.1729      1.00000
     47      -1.1265      1.00000
     48      -0.9940      1.00000
     49       4.5705      1.00000
     50       4.6741      1.00000
     51       4.7264      1.00000
     52       4.8936      1.00000
     53       5.3516      0.99997
     54       5.3742      0.99965
     55       5.6381      0.00002
     56       5.6904      0.00000
     57       6.0416      0.00000
     58       6.2076      0.00000
     59       6.2487      0.00000
     60       6.2602      0.00000
     61       6.3424      0.00000
     62       6.4844      0.00000
     63       6.5685      0.00000
     64       6.9534      0.00000
     65       7.2341      0.00000
     66       7.2640      0.00000
     67       7.6981      0.00000
     68       7.7251      0.00000
     69       7.8095      0.00000
     70       8.1322      0.00000

 k-point    58 :      -0.2000    0.0000    0.4000
  band No.  band energies     occupation 
      1     -33.8442      1.00000
      2     -33.8288      1.00000
      3     -33.8257      1.00000
      4     -33.8204      1.00000
      5     -20.3247      1.00000
      6     -20.3174      1.00000
      7     -20.1862      1.00000
      8     -20.1753      1.00000
      9     -18.8345      1.00000
     10     -18.8100      1.00000
     11     -18.6632      1.00000
     12     -18.5916      1.00000
     13     -15.2492      1.00000
     14     -15.1935      1.00000
     15     -15.1625      1.00000
     16     -15.1477      1.00000
     17     -15.1088      1.00000
     18     -15.0811      1.00000
     19     -15.0204      1.00000
     20     -14.9681      1.00000
     21     -14.9598      1.00000
     22     -14.9350      1.00000
     23     -14.9053      1.00000
     24     -14.8124      1.00000
     25      -6.6477      1.00000
     26      -6.5818      1.00000
     27      -6.5391      1.00000
     28      -6.4702      1.00000
     29      -5.1580      1.00000
     30      -5.1341      1.00000
     31      -4.9982      1.00000
     32      -4.9531      1.00000
     33      -4.1883      1.00000
     34      -4.1007      1.00000
     35      -4.0356      1.00000
     36      -3.9368      1.00000
     37      -3.7550      1.00000
     38      -3.6363      1.00000
     39      -3.5522      1.00000
     40      -3.4364      1.00000
     41      -2.0049      1.00000
     42      -1.7956      1.00000
     43      -1.5269      1.00000
     44      -1.4680      1.00000
     45      -1.3568      1.00000
     46      -1.1862      1.00000
     47      -1.1736      1.00000
     48      -1.0528      1.00000
     49       4.3542      1.00000
     50       4.8160      1.00000
     51       4.8476      1.00000
     52       5.0572      1.00000
     53       5.2294      1.00000
     54       5.5057      0.37005
     55       5.7253      0.00000
     56       5.8422      0.00000
     57       5.8779      0.00000
     58       5.9941      0.00000
     59       6.1970      0.00000
     60       6.3094      0.00000
     61       6.4243      0.00000
     62       6.4744      0.00000
     63       6.6989      0.00000
     64       7.0870      0.00000
     65       7.2171      0.00000
     66       7.3066      0.00000
     67       7.4754      0.00000
     68       7.5641      0.00000
     69       7.9199      0.00000
     70       8.2029      0.00000

 k-point    59 :       0.0000    0.1429    0.4000
  band No.  band energies     occupation 
      1     -33.8405      1.00000
      2     -33.8313      1.00000
      3     -33.8235      1.00000
      4     -33.8217      1.00000
      5     -20.3419      1.00000
      6     -20.3346      1.00000
      7     -20.2101      1.00000
      8     -20.1997      1.00000
      9     -18.8497      1.00000
     10     -18.8263      1.00000
     11     -18.6816      1.00000
     12     -18.6072      1.00000
     13     -15.1851      1.00000
     14     -15.1551      1.00000
     15     -15.1153      1.00000
     16     -15.0922      1.00000
     17     -15.0602      1.00000
     18     -15.0141      1.00000
     19     -14.9966      1.00000
     20     -14.9628      1.00000
     21     -14.9448      1.00000
     22     -14.9366      1.00000
     23     -14.9068      1.00000
     24     -14.8295      1.00000
     25      -6.6778      1.00000
     26      -6.6082      1.00000
     27      -6.5718      1.00000
     28      -6.5058      1.00000
     29      -5.0837      1.00000
     30      -5.0706      1.00000
     31      -4.9882      1.00000
     32      -4.9421      1.00000
     33      -4.1459      1.00000
     34      -4.1005      1.00000
     35      -4.0211      1.00000
     36      -3.9519      1.00000
     37      -3.8657      1.00000
     38      -3.7665      1.00000
     39      -3.7129      1.00000
     40      -3.6089      1.00000
     41      -2.0033      1.00000
     42      -1.8115      1.00000
     43      -1.5789      1.00000
     44      -1.4637      1.00000
     45      -1.4454      1.00000
     46      -1.2359      1.00000
     47      -1.1575      1.00000
     48      -1.0717      1.00000
     49       4.6052      1.00000
     50       4.6353      1.00000
     51       4.8504      1.00000
     52       4.8904      1.00000
     53       5.0007      1.00000
     54       5.2927      1.00000
     55       5.5657      0.02121
     56       5.7454      0.00000
     57       6.1341      0.00000
     58       6.2411      0.00000
     59       6.4257      0.00000
     60       6.5589      0.00000
     61       6.6018      0.00000
     62       6.7043      0.00000
     63       6.7583      0.00000
     64       6.9074      0.00000
     65       7.1539      0.00000
     66       7.3448      0.00000
     67       7.5409      0.00000
     68       7.6240      0.00000
     69       8.0319      0.00000
     70       8.0413      0.00000

 k-point    60 :      -0.0000    0.1429   -0.4000
  band No.  band energies     occupation 
      1     -33.8405      1.00000
      2     -33.8313      1.00000
      3     -33.8235      1.00000
      4     -33.8217      1.00000
      5     -20.3419      1.00000
      6     -20.3346      1.00000
      7     -20.2101      1.00000
      8     -20.1997      1.00000
      9     -18.8497      1.00000
     10     -18.8263      1.00000
     11     -18.6816      1.00000
     12     -18.6072      1.00000
     13     -15.1851      1.00000
     14     -15.1551      1.00000
     15     -15.1153      1.00000
     16     -15.0923      1.00000
     17     -15.0602      1.00000
     18     -15.0140      1.00000
     19     -14.9966      1.00000
     20     -14.9627      1.00000
     21     -14.9448      1.00000
     22     -14.9366      1.00000
     23     -14.9068      1.00000
     24     -14.8295      1.00000
     25      -6.6778      1.00000
     26      -6.6082      1.00000
     27      -6.5718      1.00000
     28      -6.5058      1.00000
     29      -5.0837      1.00000
     30      -5.0706      1.00000
     31      -4.9882      1.00000
     32      -4.9421      1.00000
     33      -4.1459      1.00000
     34      -4.1004      1.00000
     35      -4.0210      1.00000
     36      -3.9519      1.00000
     37      -3.8657      1.00000
     38      -3.7665      1.00000
     39      -3.7129      1.00000
     40      -3.6089      1.00000
     41      -2.0033      1.00000
     42      -1.8115      1.00000
     43      -1.5789      1.00000
     44      -1.4636      1.00000
     45      -1.4454      1.00000
     46      -1.2358      1.00000
     47      -1.1576      1.00000
     48      -1.0717      1.00000
     49       4.6051      1.00000
     50       4.6353      1.00000
     51       4.8503      1.00000
     52       4.8904      1.00000
     53       5.0008      1.00000
     54       5.2925      1.00000
     55       5.5657      0.02119
     56       5.7455      0.00000
     57       6.1341      0.00000
     58       6.2410      0.00000
     59       6.4256      0.00000
     60       6.5589      0.00000
     61       6.6018      0.00000
     62       6.7043      0.00000
     63       6.7582      0.00000
     64       6.9076      0.00000
     65       7.1538      0.00000
     66       7.3448      0.00000
     67       7.5410      0.00000
     68       7.6240      0.00000
     69       8.0314      0.00000
     70       8.0407      0.00000

 k-point    61 :       0.2000    0.1429    0.4000
  band No.  band energies     occupation 
      1     -33.8361      1.00000
      2     -33.8340      1.00000
      3     -33.8279      1.00000
      4     -33.8190      1.00000
      5     -20.3460      1.00000
      6     -20.3382      1.00000
      7     -20.2152      1.00000
      8     -20.2043      1.00000
      9     -18.8356      1.00000
     10     -18.8116      1.00000
     11     -18.6713      1.00000
     12     -18.6094      1.00000
     13     -15.2070      1.00000
     14     -15.1384      1.00000
     15     -15.1302      1.00000
     16     -15.1095      1.00000
     17     -15.0577      1.00000
     18     -15.0076      1.00000
     19     -14.9915      1.00000
     20     -14.9686      1.00000
     21     -14.9553      1.00000
     22     -14.9163      1.00000
     23     -14.8972      1.00000
     24     -14.8562      1.00000
     25      -6.5967      1.00000
     26      -6.5359      1.00000
     27      -6.5062      1.00000
     28      -6.4623      1.00000
     29      -5.2255      1.00000
     30      -5.2016      1.00000
     31      -4.9854      1.00000
     32      -4.9443      1.00000
     33      -4.2226      1.00000
     34      -4.1226      1.00000
     35      -4.0828      1.00000
     36      -3.9932      1.00000
     37      -3.8610      1.00000
     38      -3.7866      1.00000
     39      -3.7296      1.00000
     40      -3.6084      1.00000
     41      -1.9496      1.00000
     42      -1.7314      1.00000
     43      -1.4807      1.00000
     44      -1.4490      1.00000
     45      -1.3337      1.00000
     46      -1.2446      1.00000
     47      -1.1474      1.00000
     48      -1.0308      1.00000
     49       4.5491      1.00000
     50       4.6119      1.00000
     51       4.7767      1.00000
     52       4.8033      1.00000
     53       5.1056      1.00000
     54       5.4314      0.96173
     55       5.5186      0.24297
     56       5.7734      0.00000
     57       6.1144      0.00000
     58       6.2926      0.00000
     59       6.3918      0.00000
     60       6.4990      0.00000
     61       6.5820      0.00000
     62       6.7167      0.00000
     63       6.8635      0.00000
     64       6.9314      0.00000
     65       6.9643      0.00000
     66       7.1896      0.00000
     67       7.5782      0.00000
     68       7.7997      0.00000
     69       7.8950      0.00000
     70       7.9190      0.00000

 k-point    62 :      -0.2000    0.1429   -0.4000
  band No.  band energies     occupation 
      1     -33.8361      1.00000
      2     -33.8340      1.00000
      3     -33.8279      1.00000
      4     -33.8190      1.00000
      5     -20.3460      1.00000
      6     -20.3382      1.00000
      7     -20.2152      1.00000
      8     -20.2043      1.00000
      9     -18.8356      1.00000
     10     -18.8116      1.00000
     11     -18.6713      1.00000
     12     -18.6094      1.00000
     13     -15.2070      1.00000
     14     -15.1385      1.00000
     15     -15.1302      1.00000
     16     -15.1095      1.00000
     17     -15.0577      1.00000
     18     -15.0076      1.00000
     19     -14.9915      1.00000
     20     -14.9686      1.00000
     21     -14.9553      1.00000
     22     -14.9163      1.00000
     23     -14.8972      1.00000
     24     -14.8562      1.00000
     25      -6.5967      1.00000
     26      -6.5359      1.00000
     27      -6.5062      1.00000
     28      -6.4623      1.00000
     29      -5.2255      1.00000
     30      -5.2016      1.00000
     31      -4.9854      1.00000
     32      -4.9443      1.00000
     33      -4.2226      1.00000
     34      -4.1227      1.00000
     35      -4.0829      1.00000
     36      -3.9932      1.00000
     37      -3.8610      1.00000
     38      -3.7866      1.00000
     39      -3.7296      1.00000
     40      -3.6084      1.00000
     41      -1.9496      1.00000
     42      -1.7314      1.00000
     43      -1.4807      1.00000
     44      -1.4490      1.00000
     45      -1.3337      1.00000
     46      -1.2446      1.00000
     47      -1.1474      1.00000
     48      -1.0307      1.00000
     49       4.5489      1.00000
     50       4.6120      1.00000
     51       4.7770      1.00000
     52       4.8032      1.00000
     53       5.1056      1.00000
     54       5.4313      0.96189
     55       5.5184      0.24449
     56       5.7735      0.00000
     57       6.1145      0.00000
     58       6.2925      0.00000
     59       6.3919      0.00000
     60       6.4989      0.00000
     61       6.5818      0.00000
     62       6.7168      0.00000
     63       6.8635      0.00000
     64       6.9314      0.00000
     65       6.9646      0.00000
     66       7.1895      0.00000
     67       7.5782      0.00000
     68       7.7996      0.00000
     69       7.8950      0.00000
     70       7.9190      0.00000

 k-point    63 :       0.4000    0.1429    0.4000
  band No.  band energies     occupation 
      1     -33.8379      1.00000
      2     -33.8332      1.00000
      3     -33.8277      1.00000
      4     -33.8181      1.00000
      5     -20.3527      1.00000
      6     -20.3446      1.00000
      7     -20.2238      1.00000
      8     -20.2124      1.00000
      9     -18.8056      1.00000
     10     -18.7915      1.00000
     11     -18.6472      1.00000
     12     -18.6217      1.00000
     13     -15.2217      1.00000
     14     -15.1782      1.00000
     15     -15.1291      1.00000
     16     -15.1210      1.00000
     17     -15.0386      1.00000
     18     -15.0040      1.00000
     19     -14.9856      1.00000
     20     -14.9725      1.00000
     21     -14.9656      1.00000
     22     -14.9320      1.00000
     23     -14.8782      1.00000
     24     -14.8641      1.00000
     25      -6.4660      1.00000
     26      -6.4390      1.00000
     27      -6.4044      1.00000
     28      -6.3755      1.00000
     29      -5.3866      1.00000
     30      -5.3504      1.00000
     31      -5.0325      1.00000
     32      -4.9905      1.00000
     33      -4.3319      1.00000
     34      -4.2760      1.00000
     35      -4.0956      1.00000
     36      -4.0520      1.00000
     37      -3.8473      1.00000
     38      -3.8230      1.00000
     39      -3.7183      1.00000
     40      -3.6472      1.00000
     41      -1.7955      1.00000
     42      -1.6108      1.00000
     43      -1.5284      1.00000
     44      -1.3647      1.00000
     45      -1.2323      1.00000
     46      -1.1205      1.00000
     47      -1.0884      1.00000
     48      -1.0081      1.00000
     49       4.4092      1.00000
     50       4.5193      1.00000
     51       4.7772      1.00000
     52       4.8176      1.00000
     53       5.3053      1.00000
     54       5.3879      0.99865
     55       5.5837      0.00556
     56       5.6551      0.00000
     57       6.1053      0.00000
     58       6.1628      0.00000
     59       6.4089      0.00000
     60       6.4733      0.00000
     61       6.5692      0.00000
     62       6.6641      0.00000
     63       6.7994      0.00000
     64       6.8675      0.00000
     65       7.0613      0.00000
     66       7.2217      0.00000
     67       7.7305      0.00000
     68       7.7874      0.00000
     69       7.8794      0.00000
     70       7.9543      0.00000

 k-point    64 :      -0.4000    0.1429   -0.4000
  band No.  band energies     occupation 
      1     -33.8379      1.00000
      2     -33.8332      1.00000
      3     -33.8277      1.00000
      4     -33.8181      1.00000
      5     -20.3527      1.00000
      6     -20.3447      1.00000
      7     -20.2238      1.00000
      8     -20.2124      1.00000
      9     -18.8056      1.00000
     10     -18.7915      1.00000
     11     -18.6472      1.00000
     12     -18.6217      1.00000
     13     -15.2217      1.00000
     14     -15.1782      1.00000
     15     -15.1291      1.00000
     16     -15.1210      1.00000
     17     -15.0386      1.00000
     18     -15.0040      1.00000
     19     -14.9856      1.00000
     20     -14.9724      1.00000
     21     -14.9657      1.00000
     22     -14.9320      1.00000
     23     -14.8782      1.00000
     24     -14.8641      1.00000
     25      -6.4660      1.00000
     26      -6.4390      1.00000
     27      -6.4044      1.00000
     28      -6.3755      1.00000
     29      -5.3866      1.00000
     30      -5.3504      1.00000
     31      -5.0325      1.00000
     32      -4.9905      1.00000
     33      -4.3318      1.00000
     34      -4.2761      1.00000
     35      -4.0956      1.00000
     36      -4.0520      1.00000
     37      -3.8473      1.00000
     38      -3.8230      1.00000
     39      -3.7183      1.00000
     40      -3.6472      1.00000
     41      -1.7954      1.00000
     42      -1.6108      1.00000
     43      -1.5284      1.00000
     44      -1.3647      1.00000
     45      -1.2323      1.00000
     46      -1.1205      1.00000
     47      -1.0884      1.00000
     48      -1.0080      1.00000
     49       4.4091      1.00000
     50       4.5194      1.00000
     51       4.7772      1.00000
     52       4.8176      1.00000
     53       5.3054      1.00000
     54       5.3878      0.99867
     55       5.5836      0.00561
     56       5.6551      0.00000
     57       6.1053      0.00000
     58       6.1628      0.00000
     59       6.4088      0.00000
     60       6.4733      0.00000
     61       6.5692      0.00000
     62       6.6641      0.00000
     63       6.7994      0.00000
     64       6.8675      0.00000
     65       7.0613      0.00000
     66       7.2216      0.00000
     67       7.7305      0.00000
     68       7.7874      0.00000
     69       7.8794      0.00000
     70       7.9542      0.00000

 k-point    65 :      -0.4000    0.1429    0.4000
  band No.  band energies     occupation 
      1     -33.8416      1.00000
      2     -33.8320      1.00000
      3     -33.8241      1.00000
      4     -33.8193      1.00000
      5     -20.3527      1.00000
      6     -20.3450      1.00000
      7     -20.2242      1.00000
      8     -20.2128      1.00000
      9     -18.8017      1.00000
     10     -18.7933      1.00000
     11     -18.6497      1.00000
     12     -18.6200      1.00000
     13     -15.2069      1.00000
     14     -15.1945      1.00000
     15     -15.1500      1.00000
     16     -15.1034      1.00000
     17     -15.0235      1.00000
     18     -15.0072      1.00000
     19     -14.9899      1.00000
     20     -14.9766      1.00000
     21     -14.9605      1.00000
     22     -14.9546      1.00000
     23     -14.8835      1.00000
     24     -14.8375      1.00000
     25      -6.4862      1.00000
     26      -6.4442      1.00000
     27      -6.4305      1.00000
     28      -6.3797      1.00000
     29      -5.3428      1.00000
     30      -5.3070      1.00000
     31      -5.0324      1.00000
     32      -4.9904      1.00000
     33      -4.3368      1.00000
     34      -4.3120      1.00000
     35      -4.0901      1.00000
     36      -4.0472      1.00000
     37      -3.8672      1.00000
     38      -3.8072      1.00000
     39      -3.6924      1.00000
     40      -3.6744      1.00000
     41      -1.7702      1.00000
     42      -1.6357      1.00000
     43      -1.5551      1.00000
     44      -1.3340      1.00000
     45      -1.2132      1.00000
     46      -1.1375      1.00000
     47      -1.0988      1.00000
     48      -1.0068      1.00000
     49       4.4736      1.00000
     50       4.4898      1.00000
     51       4.7507      1.00000
     52       4.7952      1.00000
     53       5.3507      0.99997
     54       5.3874      0.99871
     55       5.5905      0.00316
     56       5.6436      0.00001
     57       5.8433      0.00000
     58       6.0924      0.00000
     59       6.4639      0.00000
     60       6.4951      0.00000
     61       6.6291      0.00000
     62       6.6676      0.00000
     63       6.7682      0.00000
     64       7.0839      0.00000
     65       7.1944      0.00000
     66       7.2206      0.00000
     67       7.7173      0.00000
     68       7.7693      0.00000
     69       7.8954      0.00000
     70       7.9986      0.00000

 k-point    66 :       0.4000    0.1429   -0.4000
  band No.  band energies     occupation 
      1     -33.8416      1.00000
      2     -33.8320      1.00000
      3     -33.8241      1.00000
      4     -33.8193      1.00000
      5     -20.3527      1.00000
      6     -20.3450      1.00000
      7     -20.2242      1.00000
      8     -20.2128      1.00000
      9     -18.8017      1.00000
     10     -18.7933      1.00000
     11     -18.6497      1.00000
     12     -18.6200      1.00000
     13     -15.2069      1.00000
     14     -15.1945      1.00000
     15     -15.1500      1.00000
     16     -15.1034      1.00000
     17     -15.0235      1.00000
     18     -15.0072      1.00000
     19     -14.9899      1.00000
     20     -14.9766      1.00000
     21     -14.9605      1.00000
     22     -14.9546      1.00000
     23     -14.8835      1.00000
     24     -14.8375      1.00000
     25      -6.4862      1.00000
     26      -6.4442      1.00000
     27      -6.4305      1.00000
     28      -6.3797      1.00000
     29      -5.3428      1.00000
     30      -5.3070      1.00000
     31      -5.0324      1.00000
     32      -4.9904      1.00000
     33      -4.3368      1.00000
     34      -4.3120      1.00000
     35      -4.0900      1.00000
     36      -4.0472      1.00000
     37      -3.8672      1.00000
     38      -3.8072      1.00000
     39      -3.6924      1.00000
     40      -3.6744      1.00000
     41      -1.7702      1.00000
     42      -1.6357      1.00000
     43      -1.5551      1.00000
     44      -1.3340      1.00000
     45      -1.2133      1.00000
     46      -1.1375      1.00000
     47      -1.0988      1.00000
     48      -1.0069      1.00000
     49       4.4735      1.00000
     50       4.4899      1.00000
     51       4.7507      1.00000
     52       4.7952      1.00000
     53       5.3507      0.99997
     54       5.3876      0.99869
     55       5.5905      0.00316
     56       5.6434      0.00001
     57       5.8434      0.00000
     58       6.0924      0.00000
     59       6.4639      0.00000
     60       6.4951      0.00000
     61       6.6291      0.00000
     62       6.6677      0.00000
     63       6.7681      0.00000
     64       7.0838      0.00000
     65       7.1944      0.00000
     66       7.2207      0.00000
     67       7.7173      0.00000
     68       7.7693      0.00000
     69       7.8954      0.00000
     70       7.9986      0.00000

 k-point    67 :      -0.2000    0.1429    0.4000
  band No.  band energies     occupation 
      1     -33.8429      1.00000
      2     -33.8288      1.00000
      3     -33.8253      1.00000
      4     -33.8200      1.00000
      5     -20.3461      1.00000
      6     -20.3389      1.00000
      7     -20.2158      1.00000
      8     -20.2050      1.00000
      9     -18.8315      1.00000
     10     -18.8125      1.00000
     11     -18.6730      1.00000
     12     -18.6087      1.00000
     13     -15.1840      1.00000
     14     -15.1694      1.00000
     15     -15.1545      1.00000
     16     -15.0868      1.00000
     17     -15.0394      1.00000
     18     -15.0146      1.00000
     19     -14.9931      1.00000
     20     -14.9677      1.00000
     21     -14.9552      1.00000
     22     -14.9454      1.00000
     23     -14.9006      1.00000
     24     -14.8210      1.00000
     25      -6.6270      1.00000
     26      -6.5696      1.00000
     27      -6.5183      1.00000
     28      -6.4548      1.00000
     29      -5.1557      1.00000
     30      -5.1341      1.00000
     31      -4.9966      1.00000
     32      -4.9520      1.00000
     33      -4.2587      1.00000
     34      -4.1777      1.00000
     35      -4.0607      1.00000
     36      -3.9692      1.00000
     37      -3.8809      1.00000
     38      -3.7723      1.00000
     39      -3.7141      1.00000
     40      -3.6296      1.00000
     41      -1.9307      1.00000
     42      -1.7503      1.00000
     43      -1.5067      1.00000
     44      -1.4466      1.00000
     45      -1.3280      1.00000
     46      -1.2071      1.00000
     47      -1.1307      1.00000
     48      -1.0714      1.00000
     49       4.5470      1.00000
     50       4.6293      1.00000
     51       4.6919      1.00000
     52       4.7292      1.00000
     53       5.2571      1.00000
     54       5.4828      0.62352
     55       5.5515      0.05177
     56       5.7673      0.00000
     57       5.9752      0.00000
     58       6.0463      0.00000
     59       6.4357      0.00000
     60       6.5102      0.00000
     61       6.6003      0.00000
     62       6.6996      0.00000
     63       6.8201      0.00000
     64       7.0420      0.00000
     65       7.1008      0.00000
     66       7.3836      0.00000
     67       7.6810      0.00000
     68       7.7520      0.00000
     69       7.9033      0.00000
     70       7.9674      0.00000

 k-point    68 :       0.2000    0.1429   -0.4000
  band No.  band energies     occupation 
      1     -33.8429      1.00000
      2     -33.8288      1.00000
      3     -33.8253      1.00000
      4     -33.8200      1.00000
      5     -20.3460      1.00000
      6     -20.3389      1.00000
      7     -20.2158      1.00000
      8     -20.2050      1.00000
      9     -18.8315      1.00000
     10     -18.8125      1.00000
     11     -18.6730      1.00000
     12     -18.6087      1.00000
     13     -15.1840      1.00000
     14     -15.1694      1.00000
     15     -15.1544      1.00000
     16     -15.0868      1.00000
     17     -15.0394      1.00000
     18     -15.0146      1.00000
     19     -14.9931      1.00000
     20     -14.9677      1.00000
     21     -14.9552      1.00000
     22     -14.9454      1.00000
     23     -14.9006      1.00000
     24     -14.8210      1.00000
     25      -6.6270      1.00000
     26      -6.5696      1.00000
     27      -6.5183      1.00000
     28      -6.4549      1.00000
     29      -5.1557      1.00000
     30      -5.1341      1.00000
     31      -4.9966      1.00000
     32      -4.9520      1.00000
     33      -4.2588      1.00000
     34      -4.1776      1.00000
     35      -4.0606      1.00000
     36      -3.9693      1.00000
     37      -3.8809      1.00000
     38      -3.7723      1.00000
     39      -3.7141      1.00000
     40      -3.6296      1.00000
     41      -1.9307      1.00000
     42      -1.7503      1.00000
     43      -1.5067      1.00000
     44      -1.4466      1.00000
     45      -1.3280      1.00000
     46      -1.2070      1.00000
     47      -1.1306      1.00000
     48      -1.0715      1.00000
     49       4.5471      1.00000
     50       4.6292      1.00000
     51       4.6917      1.00000
     52       4.7294      1.00000
     53       5.2572      1.00000
     54       5.4828      0.62417
     55       5.5517      0.05131
     56       5.7671      0.00000
     57       5.9753      0.00000
     58       6.0462      0.00000
     59       6.4357      0.00000
     60       6.5101      0.00000
     61       6.6002      0.00000
     62       6.6998      0.00000
     63       6.8201      0.00000
     64       7.0419      0.00000
     65       7.1008      0.00000
     66       7.3837      0.00000
     67       7.6810      0.00000
     68       7.7520      0.00000
     69       7.9033      0.00000
     70       7.9674      0.00000

 k-point    69 :       0.0000    0.2857    0.4000
  band No.  band energies     occupation 
      1     -33.8370      1.00000
      2     -33.8296      1.00000
      3     -33.8240      1.00000
      4     -33.8215      1.00000
      5     -20.3888      1.00000
      6     -20.3825      1.00000
      7     -20.2759      1.00000
      8     -20.2643      1.00000
      9     -18.8340      1.00000
     10     -18.8302      1.00000
     11     -18.7016      1.00000
     12     -18.6498      1.00000
     13     -15.1182      1.00000
     14     -15.1145      1.00000
     15     -15.0842      1.00000
     16     -15.0659      1.00000
     17     -14.9940      1.00000
     18     -14.9791      1.00000
     19     -14.9511      1.00000
     20     -14.9201      1.00000
     21     -14.8403      1.00000
     22     -14.8251      1.00000
     23     -14.8079      1.00000
     24     -14.7942      1.00000
     25      -6.6216      1.00000
     26      -6.5722      1.00000
     27      -6.5165      1.00000
     28      -6.4645      1.00000
     29      -5.0809      1.00000
     30      -5.0688      1.00000
     31      -4.9897      1.00000
     32      -4.9418      1.00000
     33      -4.3760      1.00000
     34      -4.3037      1.00000
     35      -4.2729      1.00000
     36      -4.2164      1.00000
     37      -4.0161      1.00000
     38      -4.0032      1.00000
     39      -3.9707      1.00000
     40      -3.9102      1.00000
     41      -1.7678      1.00000
     42      -1.6593      1.00000
     43      -1.4871      1.00000
     44      -1.4327      1.00000
     45      -1.3859      1.00000
     46      -1.2997      1.00000
     47      -1.1493      1.00000
     48      -1.0532      1.00000
     49       4.2660      1.00000
     50       4.4904      1.00000
     51       4.5559      1.00000
     52       4.7420      1.00000
     53       5.1152      1.00000
     54       5.4906      0.53807
     55       5.5944      0.00224
     56       5.6544      0.00000
     57       5.9166      0.00000
     58       6.3709      0.00000
     59       6.6520      0.00000
     60       6.7087      0.00000
     61       6.7554      0.00000
     62       6.9235      0.00000
     63       7.0148      0.00000
     64       7.1869      0.00000
     65       7.3544      0.00000
     66       7.5003      0.00000
     67       7.5486      0.00000
     68       7.5824      0.00000
     69       7.6673      0.00000
     70       7.7456      0.00000

 k-point    70 :      -0.0000    0.2857   -0.4000
  band No.  band energies     occupation 
      1     -33.8370      1.00000
      2     -33.8296      1.00000
      3     -33.8240      1.00000
      4     -33.8215      1.00000
      5     -20.3888      1.00000
      6     -20.3825      1.00000
      7     -20.2759      1.00000
      8     -20.2643      1.00000
      9     -18.8340      1.00000
     10     -18.8302      1.00000
     11     -18.7016      1.00000
     12     -18.6498      1.00000
     13     -15.1182      1.00000
     14     -15.1145      1.00000
     15     -15.0841      1.00000
     16     -15.0659      1.00000
     17     -14.9940      1.00000
     18     -14.9791      1.00000
     19     -14.9511      1.00000
     20     -14.9201      1.00000
     21     -14.8404      1.00000
     22     -14.8251      1.00000
     23     -14.8079      1.00000
     24     -14.7942      1.00000
     25      -6.6216      1.00000
     26      -6.5721      1.00000
     27      -6.5165      1.00000
     28      -6.4645      1.00000
     29      -5.0809      1.00000
     30      -5.0688      1.00000
     31      -4.9897      1.00000
     32      -4.9418      1.00000
     33      -4.3761      1.00000
     34      -4.3037      1.00000
     35      -4.2729      1.00000
     36      -4.2164      1.00000
     37      -4.0160      1.00000
     38      -4.0033      1.00000
     39      -3.9707      1.00000
     40      -3.9102      1.00000
     41      -1.7678      1.00000
     42      -1.6594      1.00000
     43      -1.4871      1.00000
     44      -1.4327      1.00000
     45      -1.3859      1.00000
     46      -1.2997      1.00000
     47      -1.1493      1.00000
     48      -1.0532      1.00000
     49       4.2660      1.00000
     50       4.4904      1.00000
     51       4.5559      1.00000
     52       4.7420      1.00000
     53       5.1151      1.00000
     54       5.4905      0.53863
     55       5.5945      0.00223
     56       5.6544      0.00000
     57       5.9167      0.00000
     58       6.3709      0.00000
     59       6.6520      0.00000
     60       6.7087      0.00000
     61       6.7554      0.00000
     62       6.9235      0.00000
     63       7.0148      0.00000
     64       7.1871      0.00000
     65       7.3543      0.00000
     66       7.5004      0.00000
     67       7.5487      0.00000
     68       7.5823      0.00000
     69       7.6673      0.00000
     70       7.7457      0.00000

 k-point    71 :       0.2000    0.2857    0.4000
  band No.  band energies     occupation 
      1     -33.8342      1.00000
      2     -33.8314      1.00000
      3     -33.8269      1.00000
      4     -33.8196      1.00000
      5     -20.3933      1.00000
      6     -20.3860      1.00000
      7     -20.2808      1.00000
      8     -20.2691      1.00000
      9     -18.8221      1.00000
     10     -18.8155      1.00000
     11     -18.6909      1.00000
     12     -18.6480      1.00000
     13     -15.1805      1.00000
     14     -15.1361      1.00000
     15     -15.0563      1.00000
     16     -15.0414      1.00000
     17     -14.9935      1.00000
     18     -14.9812      1.00000
     19     -14.9663      1.00000
     20     -14.9270      1.00000
     21     -14.8352      1.00000
     22     -14.8236      1.00000
     23     -14.8075      1.00000
     24     -14.7826      1.00000
     25      -6.5410      1.00000
     26      -6.4898      1.00000
     27      -6.4631      1.00000
     28      -6.4179      1.00000
     29      -5.2253      1.00000
     30      -5.2000      1.00000
     31      -4.9835      1.00000
     32      -4.9417      1.00000
     33      -4.4463      1.00000
     34      -4.3889      1.00000
     35      -4.2617      1.00000
     36      -4.1799      1.00000
     37      -4.0725      1.00000
     38      -4.0330      1.00000
     39      -4.0000      1.00000
     40      -3.8968      1.00000
     41      -1.7556      1.00000
     42      -1.5870      1.00000
     43      -1.4110      1.00000
     44      -1.3478      1.00000
     45      -1.3141      1.00000
     46      -1.3011      1.00000
     47      -1.1711      1.00000
     48      -0.9676      1.00000
     49       4.2294      1.00000
     50       4.3454      1.00000
     51       4.5864      1.00000
     52       4.8696      1.00000
     53       5.0239      1.00000
     54       5.4577      0.84781
     55       5.5349      0.12326
     56       5.6569      0.00000
     57       6.0044      0.00000
     58       6.5618      0.00000
     59       6.6128      0.00000
     60       6.6492      0.00000
     61       6.8013      0.00000
     62       6.9909      0.00000
     63       7.0263      0.00000
     64       7.1668      0.00000
     65       7.2270      0.00000
     66       7.3898      0.00000
     67       7.4308      0.00000
     68       7.6425      0.00000
     69       7.7432      0.00000
     70       7.8267      0.00000

 k-point    72 :      -0.2000    0.2857   -0.4000
  band No.  band energies     occupation 
      1     -33.8342      1.00000
      2     -33.8314      1.00000
      3     -33.8269      1.00000
      4     -33.8196      1.00000
      5     -20.3933      1.00000
      6     -20.3860      1.00000
      7     -20.2808      1.00000
      8     -20.2691      1.00000
      9     -18.8221      1.00000
     10     -18.8155      1.00000
     11     -18.6909      1.00000
     12     -18.6480      1.00000
     13     -15.1804      1.00000
     14     -15.1362      1.00000
     15     -15.0563      1.00000
     16     -15.0414      1.00000
     17     -14.9935      1.00000
     18     -14.9812      1.00000
     19     -14.9663      1.00000
     20     -14.9270      1.00000
     21     -14.8352      1.00000
     22     -14.8236      1.00000
     23     -14.8075      1.00000
     24     -14.7826      1.00000
     25      -6.5410      1.00000
     26      -6.4898      1.00000
     27      -6.4631      1.00000
     28      -6.4179      1.00000
     29      -5.2253      1.00000
     30      -5.2000      1.00000
     31      -4.9835      1.00000
     32      -4.9417      1.00000
     33      -4.4462      1.00000
     34      -4.3889      1.00000
     35      -4.2617      1.00000
     36      -4.1799      1.00000
     37      -4.0725      1.00000
     38      -4.0330      1.00000
     39      -3.9999      1.00000
     40      -3.8969      1.00000
     41      -1.7556      1.00000
     42      -1.5870      1.00000
     43      -1.4109      1.00000
     44      -1.3478      1.00000
     45      -1.3141      1.00000
     46      -1.3013      1.00000
     47      -1.1711      1.00000
     48      -0.9676      1.00000
     49       4.2295      1.00000
     50       4.3454      1.00000
     51       4.5864      1.00000
     52       4.8698      1.00000
     53       5.0237      1.00000
     54       5.4574      0.84946
     55       5.5352      0.12189
     56       5.6570      0.00000
     57       6.0043      0.00000
     58       6.5618      0.00000
     59       6.6128      0.00000
     60       6.6491      0.00000
     61       6.8013      0.00000
     62       6.9909      0.00000
     63       7.0263      0.00000
     64       7.1666      0.00000
     65       7.2273      0.00000
     66       7.3899      0.00000
     67       7.4309      0.00000
     68       7.6424      0.00000
     69       7.7432      0.00000
     70       7.8266      0.00000

 k-point    73 :       0.4000    0.2857    0.4000
  band No.  band energies     occupation 
      1     -33.8366      1.00000
      2     -33.8321      1.00000
      3     -33.8254      1.00000
      4     -33.8180      1.00000
      5     -20.4005      1.00000
      6     -20.3924      1.00000
      7     -20.2889      1.00000
      8     -20.2776      1.00000
      9     -18.7993      1.00000
     10     -18.7925      1.00000
     11     -18.6693      1.00000
     12     -18.6501      1.00000
     13     -15.2207      1.00000
     14     -15.1916      1.00000
     15     -15.0309      1.00000
     16     -15.0261      1.00000
     17     -15.0046      1.00000
     18     -14.9776      1.00000
     19     -14.9714      1.00000
     20     -14.9647      1.00000
     21     -14.8172      1.00000
     22     -14.8073      1.00000
     23     -14.7958      1.00000
     24     -14.7794      1.00000
     25      -6.4159      1.00000
     26      -6.3890      1.00000
     27      -6.3616      1.00000
     28      -6.3268      1.00000
     29      -5.3882      1.00000
     30      -5.3490      1.00000
     31      -5.0285      1.00000
     32      -4.9856      1.00000
     33      -4.5487      1.00000
     34      -4.5294      1.00000
     35      -4.2219      1.00000
     36      -4.1956      1.00000
     37      -4.1236      1.00000
     38      -4.0850      1.00000
     39      -3.9937      1.00000
     40      -3.9277      1.00000
     41      -1.6576      1.00000
     42      -1.5019      1.00000
     43      -1.4540      1.00000
     44      -1.3885      1.00000
     45      -1.1398      1.00000
     46      -1.1086      1.00000
     47      -1.0900      1.00000
     48      -0.9268      1.00000
     49       4.2014      1.00000
     50       4.2174      1.00000
     51       4.6892      1.00000
     52       4.7549      1.00000
     53       5.1345      1.00000
     54       5.3463      0.99999
     55       5.4257      0.97326
     56       5.5969      0.00179
     57       6.1987      0.00000
     58       6.2725      0.00000
     59       6.6068      0.00000
     60       6.7093      0.00000
     61       6.8730      0.00000
     62       7.0645      0.00000
     63       7.0813      0.00000
     64       7.2229      0.00000
     65       7.2536      0.00000
     66       7.2846      0.00000
     67       7.3894      0.00000
     68       7.6346      0.00000
     69       7.7733      0.00000
     70       7.8858      0.00000

 k-point    74 :      -0.4000    0.2857   -0.4000
  band No.  band energies     occupation 
      1     -33.8366      1.00000
      2     -33.8321      1.00000
      3     -33.8254      1.00000
      4     -33.8180      1.00000
      5     -20.4005      1.00000
      6     -20.3924      1.00000
      7     -20.2888      1.00000
      8     -20.2776      1.00000
      9     -18.7993      1.00000
     10     -18.7925      1.00000
     11     -18.6693      1.00000
     12     -18.6501      1.00000
     13     -15.2207      1.00000
     14     -15.1916      1.00000
     15     -15.0309      1.00000
     16     -15.0261      1.00000
     17     -15.0046      1.00000
     18     -14.9776      1.00000
     19     -14.9714      1.00000
     20     -14.9646      1.00000
     21     -14.8172      1.00000
     22     -14.8073      1.00000
     23     -14.7959      1.00000
     24     -14.7794      1.00000
     25      -6.4159      1.00000
     26      -6.3891      1.00000
     27      -6.3616      1.00000
     28      -6.3268      1.00000
     29      -5.3882      1.00000
     30      -5.3490      1.00000
     31      -5.0285      1.00000
     32      -4.9856      1.00000
     33      -4.5487      1.00000
     34      -4.5295      1.00000
     35      -4.2219      1.00000
     36      -4.1956      1.00000
     37      -4.1236      1.00000
     38      -4.0850      1.00000
     39      -3.9937      1.00000
     40      -3.9278      1.00000
     41      -1.6576      1.00000
     42      -1.5019      1.00000
     43      -1.4540      1.00000
     44      -1.3885      1.00000
     45      -1.1397      1.00000
     46      -1.1086      1.00000
     47      -1.0902      1.00000
     48      -0.9268      1.00000
     49       4.2014      1.00000
     50       4.2174      1.00000
     51       4.6891      1.00000
     52       4.7549      1.00000
     53       5.1345      1.00000
     54       5.3460      0.99999
     55       5.4260      0.97278
     56       5.5970      0.00179
     57       6.1987      0.00000
     58       6.2724      0.00000
     59       6.6068      0.00000
     60       6.7093      0.00000
     61       6.8729      0.00000
     62       7.0645      0.00000
     63       7.0813      0.00000
     64       7.2229      0.00000
     65       7.2537      0.00000
     66       7.2847      0.00000
     67       7.3894      0.00000
     68       7.6347      0.00000
     69       7.7732      0.00000
     70       7.8857      0.00000

 k-point    75 :      -0.4000    0.2857    0.4000
  band No.  band energies     occupation 
      1     -33.8393      1.00000
      2     -33.8319      1.00000
      3     -33.8228      1.00000
      4     -33.8182      1.00000
      5     -20.4005      1.00000
      6     -20.3929      1.00000
      7     -20.2890      1.00000
      8     -20.2782      1.00000
      9     -18.7982      1.00000
     10     -18.7921      1.00000
     11     -18.6706      1.00000
     12     -18.6493      1.00000
     13     -15.2141      1.00000
     14     -15.2014      1.00000
     15     -15.0287      1.00000
     16     -15.0243      1.00000
     17     -14.9990      1.00000
     18     -14.9963      1.00000
     19     -14.9737      1.00000
     20     -14.9594      1.00000
     21     -14.8082      1.00000
     22     -14.8017      1.00000
     23     -14.7945      1.00000
     24     -14.7839      1.00000
     25      -6.4405      1.00000
     26      -6.3964      1.00000
     27      -6.3846      1.00000
     28      -6.3299      1.00000
     29      -5.3412      1.00000
     30      -5.3059      1.00000
     31      -5.0276      1.00000
     32      -4.9845      1.00000
     33      -4.5602      1.00000
     34      -4.5523      1.00000
     35      -4.2313      1.00000
     36      -4.1841      1.00000
     37      -4.1215      1.00000
     38      -4.0798      1.00000
     39      -3.9752      1.00000
     40      -3.9565      1.00000
     41      -1.6206      1.00000
     42      -1.5496      1.00000
     43      -1.5170      1.00000
     44      -1.3104      1.00000
     45      -1.1858      1.00000
     46      -1.0572      1.00000
     47      -1.0341      1.00000
     48      -0.9977      1.00000
     49       4.2386      1.00000
     50       4.2535      1.00000
     51       4.5414      1.00000
     52       4.7880      1.00000
     53       5.2777      1.00000
     54       5.3804      0.99934
     55       5.4909      0.53494
     56       5.5380      0.10637
     57       5.7936      0.00000
     58       6.2265      0.00000
     59       6.5953      0.00000
     60       6.6476      0.00000
     61       7.0449      0.00000
     62       7.0656      0.00000
     63       7.2045      0.00000
     64       7.2360      0.00000
     65       7.2835      0.00000
     66       7.4542      0.00000
     67       7.5184      0.00000
     68       7.5597      0.00000
     69       7.6793      0.00000
     70       7.7936      0.00000

 k-point    76 :       0.4000    0.2857   -0.4000
  band No.  band energies     occupation 
      1     -33.8393      1.00000
      2     -33.8319      1.00000
      3     -33.8228      1.00000
      4     -33.8182      1.00000
      5     -20.4005      1.00000
      6     -20.3929      1.00000
      7     -20.2890      1.00000
      8     -20.2782      1.00000
      9     -18.7982      1.00000
     10     -18.7921      1.00000
     11     -18.6706      1.00000
     12     -18.6493      1.00000
     13     -15.2141      1.00000
     14     -15.2014      1.00000
     15     -15.0287      1.00000
     16     -15.0243      1.00000
     17     -14.9990      1.00000
     18     -14.9963      1.00000
     19     -14.9737      1.00000
     20     -14.9594      1.00000
     21     -14.8082      1.00000
     22     -14.8016      1.00000
     23     -14.7946      1.00000
     24     -14.7838      1.00000
     25      -6.4405      1.00000
     26      -6.3963      1.00000
     27      -6.3846      1.00000
     28      -6.3299      1.00000
     29      -5.3412      1.00000
     30      -5.3059      1.00000
     31      -5.0276      1.00000
     32      -4.9845      1.00000
     33      -4.5603      1.00000
     34      -4.5522      1.00000
     35      -4.2313      1.00000
     36      -4.1841      1.00000
     37      -4.1215      1.00000
     38      -4.0798      1.00000
     39      -3.9752      1.00000
     40      -3.9565      1.00000
     41      -1.6206      1.00000
     42      -1.5496      1.00000
     43      -1.5170      1.00000
     44      -1.3104      1.00000
     45      -1.1858      1.00000
     46      -1.0571      1.00000
     47      -1.0342      1.00000
     48      -0.9978      1.00000
     49       4.2386      1.00000
     50       4.2536      1.00000
     51       4.5415      1.00000
     52       4.7879      1.00000
     53       5.2778      1.00000
     54       5.3806      0.99933
     55       5.4908      0.53599
     56       5.5378      0.10730
     57       5.7936      0.00000
     58       6.2265      0.00000
     59       6.5953      0.00000
     60       6.6476      0.00000
     61       7.0449      0.00000
     62       7.0656      0.00000
     63       7.2046      0.00000
     64       7.2361      0.00000
     65       7.2834      0.00000
     66       7.4542      0.00000
     67       7.5184      0.00000
     68       7.5597      0.00000
     69       7.6792      0.00000
     70       7.7937      0.00000

 k-point    77 :      -0.2000    0.2857    0.4000
  band No.  band energies     occupation 
      1     -33.8397      1.00000
      2     -33.8292      1.00000
      3     -33.8241      1.00000
      4     -33.8191      1.00000
      5     -20.3933      1.00000
      6     -20.3868      1.00000
      7     -20.2811      1.00000
      8     -20.2699      1.00000
      9     -18.8197      1.00000
     10     -18.8155      1.00000
     11     -18.6918      1.00000
     12     -18.6475      1.00000
     13     -15.1726      1.00000
     14     -15.1537      1.00000
     15     -15.0549      1.00000
     16     -15.0306      1.00000
     17     -15.0055      1.00000
     18     -14.9806      1.00000
     19     -14.9549      1.00000
     20     -14.9498      1.00000
     21     -14.8247      1.00000
     22     -14.8091      1.00000
     23     -14.7990      1.00000
     24     -14.7922      1.00000
     25      -6.5755      1.00000
     26      -6.5311      1.00000
     27      -6.4647      1.00000
     28      -6.4109      1.00000
     29      -5.1522      1.00000
     30      -5.1329      1.00000
     31      -4.9936      1.00000
     32      -4.9491      1.00000
     33      -4.4781      1.00000
     34      -4.4223      1.00000
     35      -4.2643      1.00000
     36      -4.1748      1.00000
     37      -4.0575      1.00000
     38      -4.0037      1.00000
     39      -3.9893      1.00000
     40      -3.9423      1.00000
     41      -1.7196      1.00000
     42      -1.6396      1.00000
     43      -1.4831      1.00000
     44      -1.3929      1.00000
     45      -1.2325      1.00000
     46      -1.2140      1.00000
     47      -1.1247      1.00000
     48      -1.0578      1.00000
     49       4.3310      1.00000
     50       4.3970      1.00000
     51       4.4362      1.00000
     52       4.7547      1.00000
     53       5.1056      1.00000
     54       5.5383      0.10478
     55       5.5954      0.00205
     56       5.6638      0.00000
     57       5.8112      0.00000
     58       6.1872      0.00000
     59       6.7253      0.00000
     60       6.7716      0.00000
     61       6.8764      0.00000
     62       6.9463      0.00000
     63       7.0928      0.00000
     64       7.1149      0.00000
     65       7.2770      0.00000
     66       7.5053      0.00000
     67       7.5873      0.00000
     68       7.6289      0.00000
     69       7.6675      0.00000
     70       7.8068      0.00000

 k-point    78 :       0.2000    0.2857   -0.4000
  band No.  band energies     occupation 
      1     -33.8397      1.00000
      2     -33.8292      1.00000
      3     -33.8241      1.00000
      4     -33.8191      1.00000
      5     -20.3933      1.00000
      6     -20.3868      1.00000
      7     -20.2811      1.00000
      8     -20.2699      1.00000
      9     -18.8197      1.00000
     10     -18.8154      1.00000
     11     -18.6918      1.00000
     12     -18.6475      1.00000
     13     -15.1726      1.00000
     14     -15.1537      1.00000
     15     -15.0549      1.00000
     16     -15.0306      1.00000
     17     -15.0055      1.00000
     18     -14.9806      1.00000
     19     -14.9549      1.00000
     20     -14.9498      1.00000
     21     -14.8248      1.00000
     22     -14.8090      1.00000
     23     -14.7990      1.00000
     24     -14.7921      1.00000
     25      -6.5755      1.00000
     26      -6.5311      1.00000
     27      -6.4647      1.00000
     28      -6.4109      1.00000
     29      -5.1522      1.00000
     30      -5.1329      1.00000
     31      -4.9936      1.00000
     32      -4.9491      1.00000
     33      -4.4781      1.00000
     34      -4.4222      1.00000
     35      -4.2643      1.00000
     36      -4.1748      1.00000
     37      -4.0574      1.00000
     38      -4.0037      1.00000
     39      -3.9894      1.00000
     40      -3.9423      1.00000
     41      -1.7196      1.00000
     42      -1.6396      1.00000
     43      -1.4831      1.00000
     44      -1.3929      1.00000
     45      -1.2325      1.00000
     46      -1.2140      1.00000
     47      -1.1246      1.00000
     48      -1.0579      1.00000
     49       4.3310      1.00000
     50       4.3971      1.00000
     51       4.4362      1.00000
     52       4.7546      1.00000
     53       5.1057      1.00000
     54       5.5387      0.10309
     55       5.5951      0.00212
     56       5.6635      0.00000
     57       5.8115      0.00000
     58       6.1872      0.00000
     59       6.7252      0.00000
     60       6.7716      0.00000
     61       6.8764      0.00000
     62       6.9463      0.00000
     63       7.0929      0.00000
     64       7.1148      0.00000
     65       7.2768      0.00000
     66       7.5053      0.00000
     67       7.5870      0.00000
     68       7.6289      0.00000
     69       7.6677      0.00000
     70       7.8069      0.00000

 k-point    79 :       0.0000    0.4286    0.4000
  band No.  band energies     occupation 
      1     -33.8334      1.00000
      2     -33.8283      1.00000
      3     -33.8253      1.00000
      4     -33.8211      1.00000
      5     -20.4257      1.00000
      6     -20.4205      1.00000
      7     -20.3275      1.00000
      8     -20.3144      1.00000
      9     -18.8311      1.00000
     10     -18.8101      1.00000
     11     -18.7157      1.00000
     12     -18.6904      1.00000
     13     -15.1067      1.00000
     14     -15.0931      1.00000
     15     -15.0777      1.00000
     16     -15.0672      1.00000
     17     -15.0035      1.00000
     18     -14.9954      1.00000
     19     -14.9521      1.00000
     20     -14.9354      1.00000
     21     -14.6874      1.00000
     22     -14.6762      1.00000
     23     -14.6684      1.00000
     24     -14.6608      1.00000
     25      -6.5704      1.00000
     26      -6.5262      1.00000
     27      -6.4622      1.00000
     28      -6.4152      1.00000
     29      -5.0813      1.00000
     30      -5.0705      1.00000
     31      -4.9942      1.00000
     32      -4.9446      1.00000
     33      -4.6263      1.00000
     34      -4.5914      1.00000
     35      -4.5798      1.00000
     36      -4.5626      1.00000
     37      -4.1115      1.00000
     38      -4.0741      1.00000
     39      -4.0512      1.00000
     40      -4.0012      1.00000
     41      -1.5578      1.00000
     42      -1.5101      1.00000
     43      -1.4593      1.00000
     44      -1.4048      1.00000
     45      -1.3173      1.00000
     46      -1.2489      1.00000
     47      -1.1478      1.00000
     48      -1.1198      1.00000
     49       4.1304      1.00000
     50       4.2422      1.00000
     51       4.4085      1.00000
     52       4.4930      1.00000
     53       5.3183      1.00000
     54       5.4339      0.95537
     55       5.6495      0.00001
     56       5.6778      0.00000
     57       6.1837      0.00000
     58       6.4571      0.00000
     59       6.6880      0.00000
     60       6.7277      0.00000
     61       6.8235      0.00000
     62       6.9313      0.00000
     63       6.9972      0.00000
     64       7.1248      0.00000
     65       7.1974      0.00000
     66       7.3127      0.00000
     67       7.5005      0.00000
     68       7.6388      0.00000
     69       7.8089      0.00000
     70       7.9707      0.00000

 k-point    80 :      -0.0000    0.4286   -0.4000
  band No.  band energies     occupation 
      1     -33.8334      1.00000
      2     -33.8283      1.00000
      3     -33.8253      1.00000
      4     -33.8211      1.00000
      5     -20.4256      1.00000
      6     -20.4205      1.00000
      7     -20.3275      1.00000
      8     -20.3144      1.00000
      9     -18.8311      1.00000
     10     -18.8101      1.00000
     11     -18.7157      1.00000
     12     -18.6904      1.00000
     13     -15.1067      1.00000
     14     -15.0931      1.00000
     15     -15.0777      1.00000
     16     -15.0672      1.00000
     17     -15.0036      1.00000
     18     -14.9954      1.00000
     19     -14.9521      1.00000
     20     -14.9354      1.00000
     21     -14.6874      1.00000
     22     -14.6762      1.00000
     23     -14.6684      1.00000
     24     -14.6608      1.00000
     25      -6.5704      1.00000
     26      -6.5262      1.00000
     27      -6.4622      1.00000
     28      -6.4152      1.00000
     29      -5.0813      1.00000
     30      -5.0705      1.00000
     31      -4.9942      1.00000
     32      -4.9446      1.00000
     33      -4.6263      1.00000
     34      -4.5914      1.00000
     35      -4.5798      1.00000
     36      -4.5626      1.00000
     37      -4.1115      1.00000
     38      -4.0741      1.00000
     39      -4.0512      1.00000
     40      -4.0012      1.00000
     41      -1.5578      1.00000
     42      -1.5101      1.00000
     43      -1.4593      1.00000
     44      -1.4048      1.00000
     45      -1.3173      1.00000
     46      -1.2489      1.00000
     47      -1.1478      1.00000
     48      -1.1198      1.00000
     49       4.1304      1.00000
     50       4.2422      1.00000
     51       4.4085      1.00000
     52       4.4930      1.00000
     53       5.3182      1.00000
     54       5.4339      0.95535
     55       5.6495      0.00001
     56       5.6778      0.00000
     57       6.1837      0.00000
     58       6.4571      0.00000
     59       6.6880      0.00000
     60       6.7277      0.00000
     61       6.8235      0.00000
     62       6.9312      0.00000
     63       6.9972      0.00000
     64       7.1249      0.00000
     65       7.1974      0.00000
     66       7.3127      0.00000
     67       7.5006      0.00000
     68       7.6388      0.00000
     69       7.8089      0.00000
     70       7.9706      0.00000

 k-point    81 :       0.2000    0.4286    0.4000
  band No.  band energies     occupation 
      1     -33.8328      1.00000
      2     -33.8287      1.00000
      3     -33.8259      1.00000
      4     -33.8208      1.00000
      5     -20.4307      1.00000
      6     -20.4236      1.00000
      7     -20.3322      1.00000
      8     -20.3194      1.00000
      9     -18.8185      1.00000
     10     -18.8006      1.00000
     11     -18.7048      1.00000
     12     -18.6828      1.00000
     13     -15.1630      1.00000
     14     -15.1434      1.00000
     15     -15.0441      1.00000
     16     -15.0353      1.00000
     17     -14.9974      1.00000
     18     -14.9873      1.00000
     19     -14.9683      1.00000
     20     -14.9588      1.00000
     21     -14.6839      1.00000
     22     -14.6741      1.00000
     23     -14.6628      1.00000
     24     -14.6425      1.00000
     25      -6.4895      1.00000
     26      -6.4396      1.00000
     27      -6.4144      1.00000
     28      -6.3656      1.00000
     29      -5.2280      1.00000
     30      -5.2008      1.00000
     31      -4.9835      1.00000
     32      -4.9397      1.00000
     33      -4.6975      1.00000
     34      -4.6764      1.00000
     35      -4.5549      1.00000
     36      -4.5308      1.00000
     37      -4.1291      1.00000
     38      -4.0907      1.00000
     39      -4.0867      1.00000
     40      -4.0395      1.00000
     41      -1.5834      1.00000
     42      -1.4615      1.00000
     43      -1.4037      1.00000
     44      -1.3298      1.00000
     45      -1.2806      1.00000
     46      -1.2102      1.00000
     47      -1.1367      1.00000
     48      -0.9867      1.00000
     49       4.0900      1.00000
     50       4.1549      1.00000
     51       4.4906      1.00000
     52       4.5910      1.00000
     53       5.1228      1.00000
     54       5.2437      1.00000
     55       5.5819      0.00644
     56       5.6494      0.00001
     57       6.4644      0.00000
     58       6.6424      0.00000
     59       6.7066      0.00000
     60       6.7707      0.00000
     61       6.8755      0.00000
     62       6.8930      0.00000
     63       6.9447      0.00000
     64       7.1585      0.00000
     65       7.3069      0.00000
     66       7.3914      0.00000
     67       7.4701      0.00000
     68       7.5808      0.00000
     69       7.6454      0.00000
     70       7.8481      0.00000

 k-point    82 :      -0.2000    0.4286   -0.4000
  band No.  band energies     occupation 
      1     -33.8328      1.00000
      2     -33.8287      1.00000
      3     -33.8259      1.00000
      4     -33.8208      1.00000
      5     -20.4307      1.00000
      6     -20.4236      1.00000
      7     -20.3322      1.00000
      8     -20.3194      1.00000
      9     -18.8185      1.00000
     10     -18.8006      1.00000
     11     -18.7048      1.00000
     12     -18.6828      1.00000
     13     -15.1630      1.00000
     14     -15.1434      1.00000
     15     -15.0441      1.00000
     16     -15.0353      1.00000
     17     -14.9974      1.00000
     18     -14.9873      1.00000
     19     -14.9683      1.00000
     20     -14.9588      1.00000
     21     -14.6839      1.00000
     22     -14.6741      1.00000
     23     -14.6628      1.00000
     24     -14.6425      1.00000
     25      -6.4895      1.00000
     26      -6.4396      1.00000
     27      -6.4144      1.00000
     28      -6.3656      1.00000
     29      -5.2280      1.00000
     30      -5.2008      1.00000
     31      -4.9835      1.00000
     32      -4.9397      1.00000
     33      -4.6974      1.00000
     34      -4.6765      1.00000
     35      -4.5549      1.00000
     36      -4.5307      1.00000
     37      -4.1291      1.00000
     38      -4.0907      1.00000
     39      -4.0867      1.00000
     40      -4.0395      1.00000
     41      -1.5834      1.00000
     42      -1.4615      1.00000
     43      -1.4037      1.00000
     44      -1.3298      1.00000
     45      -1.2806      1.00000
     46      -1.2102      1.00000
     47      -1.1367      1.00000
     48      -0.9867      1.00000
     49       4.0900      1.00000
     50       4.1549      1.00000
     51       4.4906      1.00000
     52       4.5910      1.00000
     53       5.1229      1.00000
     54       5.2436      1.00000
     55       5.5819      0.00642
     56       5.6494      0.00001
     57       6.4644      0.00000
     58       6.6423      0.00000
     59       6.7066      0.00000
     60       6.7707      0.00000
     61       6.8755      0.00000
     62       6.8930      0.00000
     63       6.9447      0.00000
     64       7.1584      0.00000
     65       7.3070      0.00000
     66       7.3914      0.00000
     67       7.4701      0.00000
     68       7.5808      0.00000
     69       7.6454      0.00000
     70       7.8480      0.00000

 k-point    83 :       0.4000    0.4286    0.4000
  band No.  band energies     occupation 
      1     -33.8356      1.00000
      2     -33.8311      1.00000
      3     -33.8232      1.00000
      4     -33.8183      1.00000
      5     -20.4383      1.00000
      6     -20.4300      1.00000
      7     -20.3397      1.00000
      8     -20.3284      1.00000
      9     -18.7962      1.00000
     10     -18.7859      1.00000
     11     -18.6858      1.00000
     12     -18.6714      1.00000
     13     -15.2139      1.00000
     14     -15.1978      1.00000
     15     -15.0194      1.00000
     16     -15.0155      1.00000
     17     -15.0123      1.00000
     18     -14.9970      1.00000
     19     -14.9751      1.00000
     20     -14.9720      1.00000
     21     -14.6754      1.00000
     22     -14.6670      1.00000
     23     -14.6432      1.00000
     24     -14.6290      1.00000
     25      -6.3663      1.00000
     26      -6.3355      1.00000
     27      -6.3131      1.00000
     28      -6.2713      1.00000
     29      -5.3920      1.00000
     30      -5.3490      1.00000
     31      -5.0249      1.00000
     32      -4.9774      1.00000
     33      -4.7900      1.00000
     34      -4.7792      1.00000
     35      -4.5462      1.00000
     36      -4.5334      1.00000
     37      -4.1572      1.00000
     38      -4.1265      1.00000
     39      -4.1221      1.00000
     40      -4.0899      1.00000
     41      -1.5422      1.00000
     42      -1.4669      1.00000
     43      -1.3684      1.00000
     44      -1.3528      1.00000
     45      -1.1355      1.00000
     46      -1.1006      1.00000
     47      -0.9658      1.00000
     48      -0.8811      1.00000
     49       4.0768      1.00000
     50       4.0979      1.00000
     51       4.5232      1.00000
     52       4.5494      1.00000
     53       5.1269      1.00000
     54       5.1892      1.00000
     55       5.4565      0.85531
     56       5.5205      0.22612
     57       6.4608      0.00000
     58       6.5083      0.00000
     59       6.6704      0.00000
     60       6.7550      0.00000
     61       6.8286      0.00000
     62       6.9345      0.00000
     63       7.0487      0.00000
     64       7.1891      0.00000
     65       7.4377      0.00000
     66       7.4695      0.00000
     67       7.6119      0.00000
     68       7.6389      0.00000
     69       7.7494      0.00000
     70       7.9970      0.00000

 k-point    84 :      -0.4000    0.4286   -0.4000
  band No.  band energies     occupation 
      1     -33.8356      1.00000
      2     -33.8311      1.00000
      3     -33.8232      1.00000
      4     -33.8183      1.00000
      5     -20.4383      1.00000
      6     -20.4300      1.00000
      7     -20.3397      1.00000
      8     -20.3284      1.00000
      9     -18.7962      1.00000
     10     -18.7859      1.00000
     11     -18.6858      1.00000
     12     -18.6714      1.00000
     13     -15.2139      1.00000
     14     -15.1978      1.00000
     15     -15.0194      1.00000
     16     -15.0155      1.00000
     17     -15.0123      1.00000
     18     -14.9970      1.00000
     19     -14.9751      1.00000
     20     -14.9720      1.00000
     21     -14.6754      1.00000
     22     -14.6670      1.00000
     23     -14.6432      1.00000
     24     -14.6290      1.00000
     25      -6.3663      1.00000
     26      -6.3355      1.00000
     27      -6.3131      1.00000
     28      -6.2713      1.00000
     29      -5.3920      1.00000
     30      -5.3490      1.00000
     31      -5.0249      1.00000
     32      -4.9774      1.00000
     33      -4.7900      1.00000
     34      -4.7792      1.00000
     35      -4.5462      1.00000
     36      -4.5334      1.00000
     37      -4.1572      1.00000
     38      -4.1265      1.00000
     39      -4.1220      1.00000
     40      -4.0900      1.00000
     41      -1.5421      1.00000
     42      -1.4669      1.00000
     43      -1.3685      1.00000
     44      -1.3528      1.00000
     45      -1.1355      1.00000
     46      -1.1006      1.00000
     47      -0.9658      1.00000
     48      -0.8810      1.00000
     49       4.0768      1.00000
     50       4.0979      1.00000
     51       4.5232      1.00000
     52       4.5494      1.00000
     53       5.1269      1.00000
     54       5.1891      1.00000
     55       5.4566      0.85488
     56       5.5205      0.22622
     57       6.4607      0.00000
     58       6.5083      0.00000
     59       6.6704      0.00000
     60       6.7550      0.00000
     61       6.8286      0.00000
     62       6.9345      0.00000
     63       7.0487      0.00000
     64       7.1892      0.00000
     65       7.4378      0.00000
     66       7.4695      0.00000
     67       7.6118      0.00000
     68       7.6389      0.00000
     69       7.7495      0.00000
     70       7.9970      0.00000

 k-point    85 :      -0.4000    0.4286    0.4000
  band No.  band energies     occupation 
      1     -33.8370      1.00000
      2     -33.8321      1.00000
      3     -33.8218      1.00000
      4     -33.8172      1.00000
      5     -20.4382      1.00000
      6     -20.4307      1.00000
      7     -20.3397      1.00000
      8     -20.3290      1.00000
      9     -18.7953      1.00000
     10     -18.7860      1.00000
     11     -18.6854      1.00000
     12     -18.6715      1.00000
     13     -15.2140      1.00000
     14     -15.2012      1.00000
     15     -15.0246      1.00000
     16     -15.0198      1.00000
     17     -15.0087      1.00000
     18     -15.0024      1.00000
     19     -14.9687      1.00000
     20     -14.9642      1.00000
     21     -14.6756      1.00000
     22     -14.6643      1.00000
     23     -14.6399      1.00000
     24     -14.6318      1.00000
     25      -6.3930      1.00000
     26      -6.3429      1.00000
     27      -6.3361      1.00000
     28      -6.2756      1.00000
     29      -5.3419      1.00000
     30      -5.3040      1.00000
     31      -5.0232      1.00000
     32      -4.9750      1.00000
     33      -4.8021      1.00000
     34      -4.7909      1.00000
     35      -4.5530      1.00000
     36      -4.5332      1.00000
     37      -4.1476      1.00000
     38      -4.1367      1.00000
     39      -4.1184      1.00000
     40      -4.0994      1.00000
     41      -1.5184      1.00000
     42      -1.5000      1.00000
     43      -1.4106      1.00000
     44      -1.3070      1.00000
     45      -1.1522      1.00000
     46      -1.0952      1.00000
     47      -0.9345      1.00000
     48      -0.9007      1.00000
     49       4.1338      1.00000
     50       4.1413      1.00000
     51       4.3819      1.00000
     52       4.4693      1.00000
     53       5.3598      0.99993
     54       5.3864      0.99883
     55       5.4090      0.99190
     56       5.4500      0.89303
     57       6.1891      0.00000
     58       6.4151      0.00000
     59       6.5778      0.00000
     60       6.6699      0.00000
     61       6.7295      0.00000
     62       6.7894      0.00000
     63       7.1098      0.00000
     64       7.1616      0.00000
     65       7.5741      0.00000
     66       7.6713      0.00000
     67       7.6941      0.00000
     68       7.7618      0.00000
     69       7.9813      0.00000
     70       7.9901      0.00000

 k-point    86 :       0.4000    0.4286   -0.4000
  band No.  band energies     occupation 
      1     -33.8370      1.00000
      2     -33.8321      1.00000
      3     -33.8218      1.00000
      4     -33.8172      1.00000
      5     -20.4382      1.00000
      6     -20.4307      1.00000
      7     -20.3397      1.00000
      8     -20.3291      1.00000
      9     -18.7953      1.00000
     10     -18.7860      1.00000
     11     -18.6854      1.00000
     12     -18.6715      1.00000
     13     -15.2140      1.00000
     14     -15.2012      1.00000
     15     -15.0246      1.00000
     16     -15.0198      1.00000
     17     -15.0087      1.00000
     18     -15.0024      1.00000
     19     -14.9687      1.00000
     20     -14.9642      1.00000
     21     -14.6756      1.00000
     22     -14.6643      1.00000
     23     -14.6399      1.00000
     24     -14.6318      1.00000
     25      -6.3930      1.00000
     26      -6.3429      1.00000
     27      -6.3361      1.00000
     28      -6.2756      1.00000
     29      -5.3419      1.00000
     30      -5.3040      1.00000
     31      -5.0232      1.00000
     32      -4.9750      1.00000
     33      -4.8022      1.00000
     34      -4.7909      1.00000
     35      -4.5529      1.00000
     36      -4.5332      1.00000
     37      -4.1476      1.00000
     38      -4.1367      1.00000
     39      -4.1184      1.00000
     40      -4.0995      1.00000
     41      -1.5184      1.00000
     42      -1.5000      1.00000
     43      -1.4106      1.00000
     44      -1.3070      1.00000
     45      -1.1522      1.00000
     46      -1.0952      1.00000
     47      -0.9345      1.00000
     48      -0.9008      1.00000
     49       4.1338      1.00000
     50       4.1413      1.00000
     51       4.3819      1.00000
     52       4.4693      1.00000
     53       5.3600      0.99992
     54       5.3857      0.99890
     55       5.4097      0.99142
     56       5.4498      0.89415
     57       6.1891      0.00000
     58       6.4151      0.00000
     59       6.5779      0.00000
     60       6.6699      0.00000
     61       6.7295      0.00000
     62       6.7894      0.00000
     63       7.1098      0.00000
     64       7.1615      0.00000
     65       7.5741      0.00000
     66       7.6713      0.00000
     67       7.6941      0.00000
     68       7.7618      0.00000
     69       7.9812      0.00000
     70       7.9901      0.00000

 k-point    87 :      -0.2000    0.4286    0.4000
  band No.  band energies     occupation 
      1     -33.8362      1.00000
      2     -33.8306      1.00000
      3     -33.8230      1.00000
      4     -33.8184      1.00000
      5     -20.4304      1.00000
      6     -20.4248      1.00000
      7     -20.3323      1.00000
      8     -20.3204      1.00000
      9     -18.8175      1.00000
     10     -18.8003      1.00000
     11     -18.7043      1.00000
     12     -18.6827      1.00000
     13     -15.1659      1.00000
     14     -15.1524      1.00000
     15     -15.0307      1.00000
     16     -15.0237      1.00000
     17     -15.0194      1.00000
     18     -15.0060      1.00000
     19     -14.9544      1.00000
     20     -14.9459      1.00000
     21     -14.6862      1.00000
     22     -14.6696      1.00000
     23     -14.6557      1.00000
     24     -14.6473      1.00000
     25      -6.5274      1.00000
     26      -6.4829      1.00000
     27      -6.4116      1.00000
     28      -6.3603      1.00000
     29      -5.1516      1.00000
     30      -5.1311      1.00000
     31      -4.9937      1.00000
     32      -4.9481      1.00000
     33      -4.7139      1.00000
     34      -4.6901      1.00000
     35      -4.5652      1.00000
     36      -4.5344      1.00000
     37      -4.1280      1.00000
     38      -4.1004      1.00000
     39      -4.0826      1.00000
     40      -4.0424      1.00000
     41      -1.5562      1.00000
     42      -1.5014      1.00000
     43      -1.4472      1.00000
     44      -1.3201      1.00000
     45      -1.2775      1.00000
     46      -1.2046      1.00000
     47      -1.0854      1.00000
     48      -1.0096      1.00000
     49       4.2004      1.00000
     50       4.2736      1.00000
     51       4.2939      1.00000
     52       4.3829      1.00000
     53       5.3771      0.99953
     54       5.4789      0.66469
     55       5.5687      0.01725
     56       5.5912      0.00299
     57       6.1223      0.00000
     58       6.3619      0.00000
     59       6.6029      0.00000
     60       6.7147      0.00000
     61       6.8093      0.00000
     62       6.8778      0.00000
     63       7.0638      0.00000
     64       7.1604      0.00000
     65       7.3170      0.00000
     66       7.3868      0.00000
     67       7.6805      0.00000
     68       7.7743      0.00000
     69       7.7947      0.00000
     70       7.9395      0.00000

 k-point    88 :       0.2000    0.4286   -0.4000
  band No.  band energies     occupation 
      1     -33.8362      1.00000
      2     -33.8306      1.00000
      3     -33.8230      1.00000
      4     -33.8184      1.00000
      5     -20.4304      1.00000
      6     -20.4248      1.00000
      7     -20.3323      1.00000
      8     -20.3204      1.00000
      9     -18.8175      1.00000
     10     -18.8003      1.00000
     11     -18.7043      1.00000
     12     -18.6827      1.00000
     13     -15.1659      1.00000
     14     -15.1524      1.00000
     15     -15.0307      1.00000
     16     -15.0237      1.00000
     17     -15.0194      1.00000
     18     -15.0060      1.00000
     19     -14.9544      1.00000
     20     -14.9459      1.00000
     21     -14.6863      1.00000
     22     -14.6695      1.00000
     23     -14.6557      1.00000
     24     -14.6473      1.00000
     25      -6.5274      1.00000
     26      -6.4829      1.00000
     27      -6.4116      1.00000
     28      -6.3603      1.00000
     29      -5.1516      1.00000
     30      -5.1311      1.00000
     31      -4.9937      1.00000
     32      -4.9481      1.00000
     33      -4.7139      1.00000
     34      -4.6900      1.00000
     35      -4.5652      1.00000
     36      -4.5345      1.00000
     37      -4.1279      1.00000
     38      -4.1005      1.00000
     39      -4.0826      1.00000
     40      -4.0424      1.00000
     41      -1.5562      1.00000
     42      -1.5014      1.00000
     43      -1.4472      1.00000
     44      -1.3201      1.00000
     45      -1.2775      1.00000
     46      -1.2046      1.00000
     47      -1.0854      1.00000
     48      -1.0097      1.00000
     49       4.2003      1.00000
     50       4.2736      1.00000
     51       4.2940      1.00000
     52       4.3829      1.00000
     53       5.3770      0.99953
     54       5.4792      0.66210
     55       5.5685      0.01758
     56       5.5912      0.00297
     57       6.1223      0.00000
     58       6.3619      0.00000
     59       6.6029      0.00000
     60       6.7147      0.00000
     61       6.8092      0.00000
     62       6.8778      0.00000
     63       7.0637      0.00000
     64       7.1604      0.00000
     65       7.3170      0.00000
     66       7.3868      0.00000
     67       7.6805      0.00000
     68       7.7742      0.00000
     69       7.7947      0.00000
     70       7.9396      0.00000
 Fermi energy:         5.4939725035

 spin component 2

 k-point     1 :       0.0000    0.0000    0.0000
  band No.  band energies     occupation 
      1     -33.8531      1.00000
      2     -33.8261      1.00000
      3     -33.8219      1.00000
      4     -33.8184      1.00000
      5     -20.3004      1.00000
      6     -20.2909      1.00000
      7     -20.1609      1.00000
      8     -20.1487      1.00000
      9     -18.9058      1.00000
     10     -18.8836      1.00000
     11     -18.7298      1.00000
     12     -18.5898      1.00000
     13     -15.2986      1.00000
     14     -15.1925      1.00000
     15     -15.1572      1.00000
     16     -15.1027      1.00000
     17     -15.0546      1.00000
     18     -15.0336      1.00000
     19     -15.0223      1.00000
     20     -14.9800      1.00000
     21     -14.9382      1.00000
     22     -14.9244      1.00000
     23     -14.9114      1.00000
     24     -14.7282      1.00000
     25      -7.0027      1.00000
     26      -6.9351      1.00000
     27      -6.7139      1.00000
     28      -6.6672      1.00000
     29      -4.8386      1.00000
     30      -4.7854      1.00000
     31      -4.7176      1.00000
     32      -4.6546      1.00000
     33      -3.9502      1.00000
     34      -3.8979      1.00000
     35      -3.8388      1.00000
     36      -3.7644      1.00000
     37      -3.6412      1.00000
     38      -3.5880      1.00000
     39      -3.4862      1.00000
     40      -3.3666      1.00000
     41      -2.2858      1.00000
     42      -2.0776      1.00000
     43      -1.8635      1.00000
     44      -1.7664      1.00000
     45      -1.6753      1.00000
     46      -1.6152      1.00000
     47      -1.3339      1.00000
     48      -0.8855      1.00000
     49       3.6851      1.00000
     50       4.6293      1.00000
     51       5.3361      1.00000
     52       5.4662      0.78360
     53       5.5618      0.02753
     54       5.7181      0.00000
     55       5.7686      0.00000
     56       6.0186      0.00000
     57       6.0362      0.00000
     58       6.1600      0.00000
     59       6.2589      0.00000
     60       6.3186      0.00000
     61       6.5262      0.00000
     62       6.5318      0.00000
     63       6.6381      0.00000
     64       6.8534      0.00000
     65       6.9702      0.00000
     66       7.4729      0.00000
     67       7.5301      0.00000
     68       7.6739      0.00000
     69       7.9811      0.00000
     70       8.2443      0.00000

 k-point     2 :       0.2000    0.0000    0.0000
  band No.  band energies     occupation 
      1     -33.8505      1.00000
      2     -33.8284      1.00000
      3     -33.8224      1.00000
      4     -33.8180      1.00000
      5     -20.3037      1.00000
      6     -20.2950      1.00000
      7     -20.1649      1.00000
      8     -20.1542      1.00000
      9     -18.8943      1.00000
     10     -18.8719      1.00000
     11     -18.7121      1.00000
     12     -18.5958      1.00000
     13     -15.2886      1.00000
     14     -15.2026      1.00000
     15     -15.1523      1.00000
     16     -15.1080      1.00000
     17     -15.0715      1.00000
     18     -15.0353      1.00000
     19     -15.0182      1.00000
     20     -14.9780      1.00000
     21     -14.9396      1.00000
     22     -14.9245      1.00000
     23     -14.9133      1.00000
     24     -14.7500      1.00000
     25      -6.9248      1.00000
     26      -6.8598      1.00000
     27      -6.6789      1.00000
     28      -6.6371      1.00000
     29      -4.9109      1.00000
     30      -4.8481      1.00000
     31      -4.7949      1.00000
     32      -4.7478      1.00000
     33      -3.9817      1.00000
     34      -3.9060      1.00000
     35      -3.8838      1.00000
     36      -3.7541      1.00000
     37      -3.7156      1.00000
     38      -3.6090      1.00000
     39      -3.4924      1.00000
     40      -3.3918      1.00000
     41      -2.2274      1.00000
     42      -1.9382      1.00000
     43      -1.8777      1.00000
     44      -1.6755      1.00000
     45      -1.6165      1.00000
     46      -1.5167      1.00000
     47      -1.2781      1.00000
     48      -0.9566      1.00000
     49       3.9036      1.00000
     50       4.7476      1.00000
     51       5.2411      1.00000
     52       5.4114      0.99024
     53       5.4363      0.94849
     54       5.5581      0.03490
     55       5.5973      0.00173
     56       5.7663      0.00000
     57       6.1052      0.00000
     58       6.2387      0.00000
     59       6.3117      0.00000
     60       6.3894      0.00000
     61       6.5935      0.00000
     62       6.6121      0.00000
     63       6.7256      0.00000
     64       6.8433      0.00000
     65       6.8888      0.00000
     66       7.2322      0.00000
     67       7.3892      0.00000
     68       7.6097      0.00000
     69       8.0389      0.00000
     70       8.2255      0.00000

 k-point     3 :       0.4000    0.0000   -0.0000
  band No.  band energies     occupation 
      1     -33.8443      1.00000
      2     -33.8345      1.00000
      3     -33.8231      1.00000
      4     -33.8175      1.00000
      5     -20.3092      1.00000
      6     -20.3013      1.00000
      7     -20.1711      1.00000
      8     -20.1630      1.00000
      9     -18.8724      1.00000
     10     -18.8576      1.00000
     11     -18.6691      1.00000
     12     -18.6186      1.00000
     13     -15.2625      1.00000
     14     -15.2292      1.00000
     15     -15.1395      1.00000
     16     -15.1209      1.00000
     17     -15.0940      1.00000
     18     -15.0399      1.00000
     19     -15.0177      1.00000
     20     -14.9662      1.00000
     21     -14.9602      1.00000
     22     -14.9394      1.00000
     23     -14.8714      1.00000
     24     -14.8031      1.00000
     25      -6.7572      1.00000
     26      -6.7102      1.00000
     27      -6.6507      1.00000
     28      -6.5946      1.00000
     29      -5.0150      1.00000
     30      -4.9626      1.00000
     31      -4.9479      1.00000
     32      -4.9180      1.00000
     33      -4.0081      1.00000
     34      -3.9674      1.00000
     35      -3.8906      1.00000
     36      -3.8221      1.00000
     37      -3.7208      1.00000
     38      -3.6653      1.00000
     39      -3.4862      1.00000
     40      -3.4385      1.00000
     41      -2.0945      1.00000
     42      -1.9577      1.00000
     43      -1.7028      1.00000
     44      -1.5809      1.00000
     45      -1.4296      1.00000
     46      -1.3150      1.00000
     47      -1.2214      1.00000
     48      -1.1557      1.00000
     49       4.4270      1.00000
     50       4.8302      1.00000
     51       5.0839      1.00000
     52       5.3011      1.00000
     53       5.3235      1.00000
     54       5.3629      0.99989
     55       5.5844      0.00527
     56       5.6783      0.00000
     57       5.9979      0.00000
     58       6.1126      0.00000
     59       6.2513      0.00000
     60       6.3626      0.00000
     61       6.5473      0.00000
     62       6.5542      0.00000
     63       6.7779      0.00000
     64       6.8547      0.00000
     65       7.0043      0.00000
     66       7.0461      0.00000
     67       7.1279      0.00000
     68       7.4367      0.00000
     69       8.1089      0.00000
     70       8.2367      0.00000

 k-point     4 :       0.0000    0.1429    0.0000
  band No.  band energies     occupation 
      1     -33.8510      1.00000
      2     -33.8253      1.00000
      3     -33.8228      1.00000
      4     -33.8181      1.00000
      5     -20.3219      1.00000
      6     -20.3118      1.00000
      7     -20.1899      1.00000
      8     -20.1776      1.00000
      9     -18.9022      1.00000
     10     -18.8866      1.00000
     11     -18.7416      1.00000
     12     -18.6113      1.00000
     13     -15.2023      1.00000
     14     -15.1066      1.00000
     15     -15.0726      1.00000
     16     -15.0603      1.00000
     17     -15.0280      1.00000
     18     -15.0235      1.00000
     19     -15.0151      1.00000
     20     -14.9867      1.00000
     21     -14.9482      1.00000
     22     -14.9289      1.00000
     23     -14.9117      1.00000
     24     -14.7461      1.00000
     25      -6.9791      1.00000
     26      -6.9245      1.00000
     27      -6.6946      1.00000
     28      -6.6490      1.00000
     29      -4.8328      1.00000
     30      -4.7834      1.00000
     31      -4.7146      1.00000
     32      -4.6574      1.00000
     33      -3.9921      1.00000
     34      -3.9574      1.00000
     35      -3.9013      1.00000
     36      -3.8519      1.00000
     37      -3.7758      1.00000
     38      -3.6899      1.00000
     39      -3.6597      1.00000
     40      -3.5959      1.00000
     41      -2.1930      1.00000
     42      -2.0548      1.00000
     43      -1.7694      1.00000
     44      -1.6930      1.00000
     45      -1.6701      1.00000
     46      -1.6121      1.00000
     47      -1.3703      1.00000
     48      -0.8945      1.00000
     49       3.9624      1.00000
     50       4.3525      1.00000
     51       5.2659      1.00000
     52       5.3261      1.00000
     53       5.4043      0.99439
     54       5.4062      0.99348
     55       5.5323      0.13943
     56       5.6772      0.00000
     57       6.0339      0.00000
     58       6.3864      0.00000
     59       6.4727      0.00000
     60       6.5541      0.00000
     61       6.6775      0.00000
     62       6.7778      0.00000
     63       6.8902      0.00000
     64       6.9231      0.00000
     65       7.0809      0.00000
     66       7.6496      0.00000
     67       7.7011      0.00000
     68       7.9293      0.00000
     69       7.9948      0.00000
     70       8.0697      0.00000

 k-point     5 :       0.2000    0.1429    0.0000
  band No.  band energies     occupation 
      1     -33.8486      1.00000
      2     -33.8275      1.00000
      3     -33.8230      1.00000
      4     -33.8180      1.00000
      5     -20.3254      1.00000
      6     -20.3159      1.00000
      7     -20.1939      1.00000
      8     -20.1831      1.00000
      9     -18.8912      1.00000
     10     -18.8742      1.00000
     11     -18.7243      1.00000
     12     -18.6160      1.00000
     13     -15.1983      1.00000
     14     -15.1283      1.00000
     15     -15.0810      1.00000
     16     -15.0551      1.00000
     17     -15.0419      1.00000
     18     -15.0258      1.00000
     19     -15.0033      1.00000
     20     -14.9836      1.00000
     21     -14.9419      1.00000
     22     -14.9276      1.00000
     23     -14.9148      1.00000
     24     -14.7669      1.00000
     25      -6.9017      1.00000
     26      -6.8485      1.00000
     27      -6.6606      1.00000
     28      -6.6183      1.00000
     29      -4.9063      1.00000
     30      -4.8478      1.00000
     31      -4.7927      1.00000
     32      -4.7497      1.00000
     33      -4.0307      1.00000
     34      -3.9762      1.00000
     35      -3.9255      1.00000
     36      -3.8620      1.00000
     37      -3.7842      1.00000
     38      -3.7434      1.00000
     39      -3.6863      1.00000
     40      -3.5942      1.00000
     41      -2.1423      1.00000
     42      -1.9206      1.00000
     43      -1.7901      1.00000
     44      -1.6415      1.00000
     45      -1.5951      1.00000
     46      -1.4975      1.00000
     47      -1.3155      1.00000
     48      -0.9549      1.00000
     49       4.1762      1.00000
     50       4.4587      1.00000
     51       5.1386      1.00000
     52       5.1613      1.00000
     53       5.2456      1.00000
     54       5.4124      0.98950
     55       5.4865      0.58355
     56       5.8209      0.00000
     57       6.0559      0.00000
     58       6.2850      0.00000
     59       6.3630      0.00000
     60       6.5664      0.00000
     61       6.6225      0.00000
     62       6.8149      0.00000
     63       6.9175      0.00000
     64       7.0032      0.00000
     65       7.0577      0.00000
     66       7.5375      0.00000
     67       7.5642      0.00000
     68       7.7376      0.00000
     69       7.9600      0.00000
     70       8.0873      0.00000

 k-point     6 :      -0.2000    0.1429   -0.0000
  band No.  band energies     occupation 
      1     -33.8486      1.00000
      2     -33.8275      1.00000
      3     -33.8230      1.00000
      4     -33.8180      1.00000
      5     -20.3253      1.00000
      6     -20.3159      1.00000
      7     -20.1939      1.00000
      8     -20.1831      1.00000
      9     -18.8912      1.00000
     10     -18.8742      1.00000
     11     -18.7243      1.00000
     12     -18.6160      1.00000
     13     -15.1983      1.00000
     14     -15.1282      1.00000
     15     -15.0810      1.00000
     16     -15.0551      1.00000
     17     -15.0418      1.00000
     18     -15.0258      1.00000
     19     -15.0033      1.00000
     20     -14.9836      1.00000
     21     -14.9418      1.00000
     22     -14.9276      1.00000
     23     -14.9148      1.00000
     24     -14.7669      1.00000
     25      -6.9017      1.00000
     26      -6.8485      1.00000
     27      -6.6606      1.00000
     28      -6.6183      1.00000
     29      -4.9063      1.00000
     30      -4.8478      1.00000
     31      -4.7927      1.00000
     32      -4.7497      1.00000
     33      -4.0307      1.00000
     34      -3.9764      1.00000
     35      -3.9252      1.00000
     36      -3.8621      1.00000
     37      -3.7843      1.00000
     38      -3.7433      1.00000
     39      -3.6863      1.00000
     40      -3.5942      1.00000
     41      -2.1423      1.00000
     42      -1.9206      1.00000
     43      -1.7901      1.00000
     44      -1.6415      1.00000
     45      -1.5951      1.00000
     46      -1.4975      1.00000
     47      -1.3155      1.00000
     48      -0.9549      1.00000
     49       4.1762      1.00000
     50       4.4586      1.00000
     51       5.1386      1.00000
     52       5.1612      1.00000
     53       5.2456      1.00000
     54       5.4126      0.98931
     55       5.4865      0.58413
     56       5.8205      0.00000
     57       6.0564      0.00000
     58       6.2851      0.00000
     59       6.3628      0.00000
     60       6.5664      0.00000
     61       6.6227      0.00000
     62       6.8147      0.00000
     63       6.9172      0.00000
     64       7.0032      0.00000
     65       7.0578      0.00000
     66       7.5375      0.00000
     67       7.5642      0.00000
     68       7.7377      0.00000
     69       7.9599      0.00000
     70       8.0870      0.00000

 k-point     7 :       0.4000    0.1429   -0.0000
  band No.  band energies     occupation 
      1     -33.8427      1.00000
      2     -33.8333      1.00000
      3     -33.8235      1.00000
      4     -33.8178      1.00000
      5     -20.3309      1.00000
      6     -20.3225      1.00000
      7     -20.2000      1.00000
      8     -20.1921      1.00000
      9     -18.8706      1.00000
     10     -18.8582      1.00000
     11     -18.6833      1.00000
     12     -18.6357      1.00000
     13     -15.1915      1.00000
     14     -15.1547      1.00000
     15     -15.0913      1.00000
     16     -15.0679      1.00000
     17     -15.0560      1.00000
     18     -15.0286      1.00000
     19     -14.9867      1.00000
     20     -14.9712      1.00000
     21     -14.9436      1.00000
     22     -14.9390      1.00000
     23     -14.8831      1.00000
     24     -14.8173      1.00000
     25      -6.7356      1.00000
     26      -6.6959      1.00000
     27      -6.6319      1.00000
     28      -6.5781      1.00000
     29      -5.0134      1.00000
     30      -4.9648      1.00000
     31      -4.9487      1.00000
     32      -4.9175      1.00000
     33      -4.0651      1.00000
     34      -4.0248      1.00000
     35      -3.9477      1.00000
     36      -3.8708      1.00000
     37      -3.8348      1.00000
     38      -3.7963      1.00000
     39      -3.6739      1.00000
     40      -3.6244      1.00000
     41      -2.0155      1.00000
     42      -1.8866      1.00000
     43      -1.6770      1.00000
     44      -1.5646      1.00000
     45      -1.4381      1.00000
     46      -1.2827      1.00000
     47      -1.2738      1.00000
     48      -1.1086      1.00000
     49       4.6162      1.00000
     50       4.6888      1.00000
     51       4.9463      1.00000
     52       4.9772      1.00000
     53       5.1321      1.00000
     54       5.2454      1.00000
     55       5.6479      0.00001
     56       5.7736      0.00000
     57       5.9838      0.00000
     58       6.1736      0.00000
     59       6.4153      0.00000
     60       6.5197      0.00000
     61       6.6239      0.00000
     62       6.6795      0.00000
     63       6.7244      0.00000
     64       6.8598      0.00000
     65       7.0459      0.00000
     66       7.2797      0.00000
     67       7.4520      0.00000
     68       7.5748      0.00000
     69       7.9851      0.00000
     70       8.1195      0.00000

 k-point     8 :      -0.4000    0.1429    0.0000
  band No.  band energies     occupation 
      1     -33.8427      1.00000
      2     -33.8333      1.00000
      3     -33.8235      1.00000
      4     -33.8178      1.00000
      5     -20.3309      1.00000
      6     -20.3225      1.00000
      7     -20.2000      1.00000
      8     -20.1921      1.00000
      9     -18.8706      1.00000
     10     -18.8582      1.00000
     11     -18.6833      1.00000
     12     -18.6357      1.00000
     13     -15.1915      1.00000
     14     -15.1547      1.00000
     15     -15.0913      1.00000
     16     -15.0679      1.00000
     17     -15.0560      1.00000
     18     -15.0286      1.00000
     19     -14.9866      1.00000
     20     -14.9712      1.00000
     21     -14.9436      1.00000
     22     -14.9390      1.00000
     23     -14.8831      1.00000
     24     -14.8173      1.00000
     25      -6.7356      1.00000
     26      -6.6959      1.00000
     27      -6.6319      1.00000
     28      -6.5781      1.00000
     29      -5.0134      1.00000
     30      -4.9648      1.00000
     31      -4.9487      1.00000
     32      -4.9175      1.00000
     33      -4.0650      1.00000
     34      -4.0250      1.00000
     35      -3.9475      1.00000
     36      -3.8709      1.00000
     37      -3.8349      1.00000
     38      -3.7963      1.00000
     39      -3.6739      1.00000
     40      -3.6244      1.00000
     41      -2.0155      1.00000
     42      -1.8866      1.00000
     43      -1.6770      1.00000
     44      -1.5646      1.00000
     45      -1.4381      1.00000
     46      -1.2827      1.00000
     47      -1.2738      1.00000
     48      -1.1086      1.00000
     49       4.6163      1.00000
     50       4.6887      1.00000
     51       4.9462      1.00000
     52       4.9772      1.00000
     53       5.1321      1.00000
     54       5.2456      1.00000
     55       5.6479      0.00001
     56       5.7732      0.00000
     57       5.9842      0.00000
     58       6.1734      0.00000
     59       6.4153      0.00000
     60       6.5198      0.00000
     61       6.6239      0.00000
     62       6.6795      0.00000
     63       6.7242      0.00000
     64       6.8600      0.00000
     65       7.0458      0.00000
     66       7.2797      0.00000
     67       7.4520      0.00000
     68       7.5748      0.00000
     69       7.9851      0.00000
     70       8.1240      0.00000

 k-point     9 :       0.0000    0.2857    0.0000
  band No.  band energies     occupation 
      1     -33.8456      1.00000
      2     -33.8258      1.00000
      3     -33.8234      1.00000
      4     -33.8175      1.00000
      5     -20.3701      1.00000
      6     -20.3586      1.00000
      7     -20.2539      1.00000
      8     -20.2406      1.00000
      9     -18.8912      1.00000
     10     -18.8842      1.00000
     11     -18.7643      1.00000
     12     -18.6639      1.00000
     13     -15.0558      1.00000
     14     -15.0417      1.00000
     15     -15.0184      1.00000
     16     -15.0173      1.00000
     17     -14.9958      1.00000
     18     -14.9459      1.00000
     19     -14.9388      1.00000
     20     -14.9315      1.00000
     21     -14.8852      1.00000
     22     -14.8719      1.00000
     23     -14.8390      1.00000
     24     -14.7817      1.00000
     25      -6.9215      1.00000
     26      -6.8905      1.00000
     27      -6.6436      1.00000
     28      -6.5992      1.00000
     29      -4.8169      1.00000
     30      -4.7798      1.00000
     31      -4.7068      1.00000
     32      -4.6647      1.00000
     33      -4.2847      1.00000
     34      -4.1885      1.00000
     35      -4.1550      1.00000
     36      -4.1480      1.00000
     37      -4.0584      1.00000
     38      -3.9933      1.00000
     39      -3.8512      1.00000
     40      -3.7295      1.00000
     41      -1.9713      1.00000
     42      -1.9124      1.00000
     43      -1.6717      1.00000
     44      -1.6134      1.00000
     45      -1.5986      1.00000
     46      -1.5103      1.00000
     47      -1.4310      1.00000
     48      -0.9586      1.00000
     49       3.9669      1.00000
     50       4.3694      1.00000
     51       4.8413      1.00000
     52       5.1210      1.00000
     53       5.1757      1.00000
     54       5.3184      1.00000
     55       5.4075      0.99275
     56       5.6652      0.00000
     57       6.0424      0.00000
     58       6.2875      0.00000
     59       6.5618      0.00000
     60       6.7838      0.00000
     61       6.8209      0.00000
     62       7.0092      0.00000
     63       7.0750      0.00000
     64       7.1372      0.00000
     65       7.4578      0.00000
     66       7.5621      0.00000
     67       7.6201      0.00000
     68       7.8230      0.00000
     69       7.8805      0.00000
     70       7.9413      0.00000

 k-point    10 :       0.2000    0.2857    0.0000
  band No.  band energies     occupation 
      1     -33.8436      1.00000
      2     -33.8258      1.00000
      3     -33.8250      1.00000
      4     -33.8180      1.00000
      5     -20.3736      1.00000
      6     -20.3630      1.00000
      7     -20.2578      1.00000
      8     -20.2464      1.00000
      9     -18.8800      1.00000
     10     -18.8723      1.00000
     11     -18.7485      1.00000
     12     -18.6649      1.00000
     13     -15.0904      1.00000
     14     -15.0547      1.00000
     15     -15.0317      1.00000
     16     -15.0142      1.00000
     17     -14.9799      1.00000
     18     -14.9725      1.00000
     19     -14.9433      1.00000
     20     -14.9237      1.00000
     21     -14.8772      1.00000
     22     -14.8614      1.00000
     23     -14.8198      1.00000
     24     -14.7931      1.00000
     25      -6.8451      1.00000
     26      -6.8132      1.00000
     27      -6.6119      1.00000
     28      -6.5674      1.00000
     29      -4.8942      1.00000
     30      -4.8501      1.00000
     31      -4.7878      1.00000
     32      -4.7548      1.00000
     33      -4.2926      1.00000
     34      -4.2489      1.00000
     35      -4.1912      1.00000
     36      -4.1488      1.00000
     37      -4.0192      1.00000
     38      -3.9794      1.00000
     39      -3.8880      1.00000
     40      -3.7785      1.00000
     41      -1.9221      1.00000
     42      -1.8018      1.00000
     43      -1.6559      1.00000
     44      -1.6027      1.00000
     45      -1.5222      1.00000
     46      -1.4246      1.00000
     47      -1.3724      1.00000
     48      -0.9901      1.00000
     49       4.0706      1.00000
     50       4.4878      1.00000
     51       4.8626      1.00000
     52       4.9730      1.00000
     53       5.0069      1.00000
     54       5.2846      1.00000
     55       5.5571      0.03720
     56       5.7273      0.00000
     57       5.9545      0.00000
     58       6.2033      0.00000
     59       6.5792      0.00000
     60       6.7145      0.00000
     61       6.7380      0.00000
     62       7.1022      0.00000
     63       7.1343      0.00000
     64       7.2753      0.00000
     65       7.4071      0.00000
     66       7.4976      0.00000
     67       7.5943      0.00000
     68       7.6846      0.00000
     69       7.7844      0.00000
     70       7.8465      0.00000

 k-point    11 :      -0.2000    0.2857   -0.0000
  band No.  band energies     occupation 
      1     -33.8436      1.00000
      2     -33.8258      1.00000
      3     -33.8250      1.00000
      4     -33.8180      1.00000
      5     -20.3736      1.00000
      6     -20.3630      1.00000
      7     -20.2578      1.00000
      8     -20.2464      1.00000
      9     -18.8800      1.00000
     10     -18.8723      1.00000
     11     -18.7485      1.00000
     12     -18.6649      1.00000
     13     -15.0904      1.00000
     14     -15.0547      1.00000
     15     -15.0317      1.00000
     16     -15.0142      1.00000
     17     -14.9799      1.00000
     18     -14.9725      1.00000
     19     -14.9433      1.00000
     20     -14.9236      1.00000
     21     -14.8772      1.00000
     22     -14.8614      1.00000
     23     -14.8198      1.00000
     24     -14.7931      1.00000
     25      -6.8451      1.00000
     26      -6.8132      1.00000
     27      -6.6119      1.00000
     28      -6.5674      1.00000
     29      -4.8942      1.00000
     30      -4.8501      1.00000
     31      -4.7878      1.00000
     32      -4.7548      1.00000
     33      -4.2927      1.00000
     34      -4.2487      1.00000
     35      -4.1912      1.00000
     36      -4.1489      1.00000
     37      -4.0192      1.00000
     38      -3.9794      1.00000
     39      -3.8881      1.00000
     40      -3.7785      1.00000
     41      -1.9222      1.00000
     42      -1.8018      1.00000
     43      -1.6559      1.00000
     44      -1.6027      1.00000
     45      -1.5222      1.00000
     46      -1.4246      1.00000
     47      -1.3724      1.00000
     48      -0.9901      1.00000
     49       4.0706      1.00000
     50       4.4879      1.00000
     51       4.8625      1.00000
     52       4.9730      1.00000
     53       5.0069      1.00000
     54       5.2846      1.00000
     55       5.5570      0.03737
     56       5.7273      0.00000
     57       5.9546      0.00000
     58       6.2032      0.00000
     59       6.5793      0.00000
     60       6.7144      0.00000
     61       6.7380      0.00000
     62       7.1022      0.00000
     63       7.1343      0.00000
     64       7.2753      0.00000
     65       7.4072      0.00000
     66       7.4976      0.00000
     67       7.5943      0.00000
     68       7.6847      0.00000
     69       7.7844      0.00000
     70       7.8464      0.00000

 k-point    12 :       0.4000    0.2857   -0.0000
  band No.  band energies     occupation 
      1     -33.8386      1.00000
      2     -33.8300      1.00000
      3     -33.8248      1.00000
      4     -33.8189      1.00000
      5     -20.3794      1.00000
      6     -20.3699      1.00000
      7     -20.2636      1.00000
      8     -20.2559      1.00000
      9     -18.8621      1.00000
     10     -18.8534      1.00000
     11     -18.7140      1.00000
     12     -18.6748      1.00000
     13     -15.1302      1.00000
     14     -15.0752      1.00000
     15     -15.0544      1.00000
     16     -15.0291      1.00000
     17     -14.9853      1.00000
     18     -14.9565      1.00000
     19     -14.9451      1.00000
     20     -14.9195      1.00000
     21     -14.8701      1.00000
     22     -14.8460      1.00000
     23     -14.8140      1.00000
     24     -14.7995      1.00000
     25      -6.6819      1.00000
     26      -6.6537      1.00000
     27      -6.5832      1.00000
     28      -6.5310      1.00000
     29      -5.0102      1.00000
     30      -4.9743      1.00000
     31      -4.9526      1.00000
     32      -4.9160      1.00000
     33      -4.3075      1.00000
     34      -4.3021      1.00000
     35      -4.2107      1.00000
     36      -4.1774      1.00000
     37      -3.9912      1.00000
     38      -3.9517      1.00000
     39      -3.9299      1.00000
     40      -3.8546      1.00000
     41      -1.8257      1.00000
     42      -1.7066      1.00000
     43      -1.5894      1.00000
     44      -1.4973      1.00000
     45      -1.4624      1.00000
     46      -1.3543      1.00000
     47      -1.2105      1.00000
     48      -1.0654      1.00000
     49       4.3079      1.00000
     50       4.5724      1.00000
     51       4.6400      1.00000
     52       4.7945      1.00000
     53       5.2499      1.00000
     54       5.2865      1.00000
     55       5.6381      0.00002
     56       5.6738      0.00000
     57       5.8533      0.00000
     58       6.2410      0.00000
     59       6.5709      0.00000
     60       6.7144      0.00000
     61       6.8269      0.00000
     62       6.8885      0.00000
     63       7.0037      0.00000
     64       7.2473      0.00000
     65       7.3194      0.00000
     66       7.3504      0.00000
     67       7.5203      0.00000
     68       7.5837      0.00000
     69       7.7274      0.00000
     70       7.8246      0.00000

 k-point    13 :      -0.4000    0.2857    0.0000
  band No.  band energies     occupation 
      1     -33.8386      1.00000
      2     -33.8300      1.00000
      3     -33.8248      1.00000
      4     -33.8189      1.00000
      5     -20.3794      1.00000
      6     -20.3699      1.00000
      7     -20.2636      1.00000
      8     -20.2559      1.00000
      9     -18.8621      1.00000
     10     -18.8534      1.00000
     11     -18.7140      1.00000
     12     -18.6748      1.00000
     13     -15.1302      1.00000
     14     -15.0752      1.00000
     15     -15.0544      1.00000
     16     -15.0291      1.00000
     17     -14.9853      1.00000
     18     -14.9565      1.00000
     19     -14.9451      1.00000
     20     -14.9195      1.00000
     21     -14.8701      1.00000
     22     -14.8460      1.00000
     23     -14.8140      1.00000
     24     -14.7995      1.00000
     25      -6.6819      1.00000
     26      -6.6537      1.00000
     27      -6.5832      1.00000
     28      -6.5310      1.00000
     29      -5.0102      1.00000
     30      -4.9743      1.00000
     31      -4.9526      1.00000
     32      -4.9160      1.00000
     33      -4.3076      1.00000
     34      -4.3020      1.00000
     35      -4.2107      1.00000
     36      -4.1775      1.00000
     37      -3.9912      1.00000
     38      -3.9514      1.00000
     39      -3.9301      1.00000
     40      -3.8546      1.00000
     41      -1.8257      1.00000
     42      -1.7065      1.00000
     43      -1.5894      1.00000
     44      -1.4972      1.00000
     45      -1.4623      1.00000
     46      -1.3544      1.00000
     47      -1.2105      1.00000
     48      -1.0654      1.00000
     49       4.3079      1.00000
     50       4.5726      1.00000
     51       4.6398      1.00000
     52       4.7945      1.00000
     53       5.2499      1.00000
     54       5.2866      1.00000
     55       5.6381      0.00002
     56       5.6737      0.00000
     57       5.8534      0.00000
     58       6.2410      0.00000
     59       6.5709      0.00000
     60       6.7145      0.00000
     61       6.8269      0.00000
     62       6.8884      0.00000
     63       7.0036      0.00000
     64       7.2472      0.00000
     65       7.3195      0.00000
     66       7.3504      0.00000
     67       7.5203      0.00000
     68       7.5837      0.00000
     69       7.7274      0.00000
     70       7.8247      0.00000

 k-point    14 :       0.0000    0.4286    0.0000
  band No.  band energies     occupation 
      1     -33.8389      1.00000
      2     -33.8306      1.00000
      3     -33.8219      1.00000
      4     -33.8171      1.00000
      5     -20.4082      1.00000
      6     -20.3963      1.00000
      7     -20.3039      1.00000
      8     -20.2897      1.00000
      9     -18.8931      1.00000
     10     -18.8521      1.00000
     11     -18.7794      1.00000
     12     -18.7189      1.00000
     13     -15.0500      1.00000
     14     -15.0433      1.00000
     15     -15.0240      1.00000
     16     -15.0142      1.00000
     17     -14.9903      1.00000
     18     -14.9646      1.00000
     19     -14.9031      1.00000
     20     -14.8632      1.00000
     21     -14.7584      1.00000
     22     -14.7223      1.00000
     23     -14.7161      1.00000
     24     -14.7019      1.00000
     25      -6.8719      1.00000
     26      -6.8455      1.00000
     27      -6.5918      1.00000
     28      -6.5460      1.00000
     29      -4.7969      1.00000
     30      -4.7795      1.00000
     31      -4.6984      1.00000
     32      -4.6723      1.00000
     33      -4.5756      1.00000
     34      -4.5339      1.00000
     35      -4.5302      1.00000
     36      -4.5103      1.00000
     37      -4.1206      1.00000
     38      -4.0834      1.00000
     39      -3.8541      1.00000
     40      -3.7928      1.00000
     41      -1.8343      1.00000
     42      -1.6813      1.00000
     43      -1.6763      1.00000
     44      -1.6614      1.00000
     45      -1.4864      1.00000
     46      -1.3547      1.00000
     47      -1.3219      1.00000
     48      -1.1546      1.00000
     49       3.8322      1.00000
     50       4.0063      1.00000
     51       5.0169      1.00000
     52       5.0422      1.00000
     53       5.1975      1.00000
     54       5.2242      1.00000
     55       5.5643      0.02336
     56       5.8677      0.00000
     57       6.0674      0.00000
     58       6.1452      0.00000
     59       6.4502      0.00000
     60       6.5607      0.00000
     61       6.6640      0.00000
     62       6.8772      0.00000
     63       7.0546      0.00000
     64       7.1771      0.00000
     65       7.1850      0.00000
     66       7.3387      0.00000
     67       7.9429      0.00000
     68       7.9642      0.00000
     69       8.1668      0.00000
     70       8.2048      0.00000

 k-point    15 :       0.2000    0.4286    0.0000
  band No.  band energies     occupation 
      1     -33.8374      1.00000
      2     -33.8296      1.00000
      3     -33.8232      1.00000
      4     -33.8182      1.00000
      5     -20.4119      1.00000
      6     -20.4007      1.00000
      7     -20.3076      1.00000
      8     -20.2957      1.00000
      9     -18.8786      1.00000
     10     -18.8453      1.00000
     11     -18.7657      1.00000
     12     -18.7143      1.00000
     13     -15.0723      1.00000
     14     -15.0593      1.00000
     15     -15.0198      1.00000
     16     -15.0157      1.00000
     17     -14.9934      1.00000
     18     -14.9821      1.00000
     19     -14.9195      1.00000
     20     -14.8861      1.00000
     21     -14.7354      1.00000
     22     -14.7144      1.00000
     23     -14.6989      1.00000
     24     -14.6936      1.00000
     25      -6.7955      1.00000
     26      -6.7675      1.00000
     27      -6.5613      1.00000
     28      -6.5135      1.00000
     29      -4.8808      1.00000
     30      -4.8617      1.00000
     31      -4.7880      1.00000
     32      -4.7584      1.00000
     33      -4.5850      1.00000
     34      -4.5493      1.00000
     35      -4.5310      1.00000
     36      -4.5232      1.00000
     37      -4.1001      1.00000
     38      -4.0658      1.00000
     39      -3.9013      1.00000
     40      -3.8467      1.00000
     41      -1.7688      1.00000
     42      -1.6485      1.00000
     43      -1.6264      1.00000
     44      -1.5564      1.00000
     45      -1.4576      1.00000
     46      -1.3291      1.00000
     47      -1.2769      1.00000
     48      -1.1413      1.00000
     49       3.9325      1.00000
     50       4.0935      1.00000
     51       4.7968      1.00000
     52       4.8390      1.00000
     53       5.2479      1.00000
     54       5.2964      1.00000
     55       5.7306      0.00000
     56       5.8640      0.00000
     57       5.9300      0.00000
     58       6.1545      0.00000
     59       6.5157      0.00000
     60       6.6060      0.00000
     61       6.7212      0.00000
     62       6.9215      0.00000
     63       7.0440      0.00000
     64       7.1550      0.00000
     65       7.2787      0.00000
     66       7.3848      0.00000
     67       7.7249      0.00000
     68       7.7860      0.00000
     69       8.0517      0.00000
     70       8.1247      0.00000

 k-point    16 :      -0.2000    0.4286   -0.0000
  band No.  band energies     occupation 
      1     -33.8374      1.00000
      2     -33.8296      1.00000
      3     -33.8232      1.00000
      4     -33.8182      1.00000
      5     -20.4119      1.00000
      6     -20.4007      1.00000
      7     -20.3076      1.00000
      8     -20.2957      1.00000
      9     -18.8787      1.00000
     10     -18.8453      1.00000
     11     -18.7657      1.00000
     12     -18.7143      1.00000
     13     -15.0723      1.00000
     14     -15.0593      1.00000
     15     -15.0198      1.00000
     16     -15.0157      1.00000
     17     -14.9934      1.00000
     18     -14.9821      1.00000
     19     -14.9195      1.00000
     20     -14.8861      1.00000
     21     -14.7354      1.00000
     22     -14.7143      1.00000
     23     -14.6990      1.00000
     24     -14.6936      1.00000
     25      -6.7955      1.00000
     26      -6.7675      1.00000
     27      -6.5613      1.00000
     28      -6.5135      1.00000
     29      -4.8809      1.00000
     30      -4.8617      1.00000
     31      -4.7880      1.00000
     32      -4.7584      1.00000
     33      -4.5851      1.00000
     34      -4.5491      1.00000
     35      -4.5309      1.00000
     36      -4.5234      1.00000
     37      -4.1001      1.00000
     38      -4.0658      1.00000
     39      -3.9013      1.00000
     40      -3.8467      1.00000
     41      -1.7688      1.00000
     42      -1.6485      1.00000
     43      -1.6264      1.00000
     44      -1.5565      1.00000
     45      -1.4576      1.00000
     46      -1.3291      1.00000
     47      -1.2769      1.00000
     48      -1.1413      1.00000
     49       3.9325      1.00000
     50       4.0935      1.00000
     51       4.7968      1.00000
     52       4.8390      1.00000
     53       5.2479      1.00000
     54       5.2964      1.00000
     55       5.7306      0.00000
     56       5.8641      0.00000
     57       5.9300      0.00000
     58       6.1545      0.00000
     59       6.5157      0.00000
     60       6.6060      0.00000
     61       6.7212      0.00000
     62       6.9215      0.00000
     63       7.0440      0.00000
     64       7.1550      0.00000
     65       7.2787      0.00000
     66       7.3848      0.00000
     67       7.7249      0.00000
     68       7.7859      0.00000
     69       8.0516      0.00000
     70       8.1249      0.00000

 k-point    17 :       0.4000    0.4286   -0.0000
  band No.  band energies     occupation 
      1     -33.8339      1.00000
      2     -33.8275      1.00000
      3     -33.8264      1.00000
      4     -33.8206      1.00000
      5     -20.4179      1.00000
      6     -20.4076      1.00000
      7     -20.3132      1.00000
      8     -20.3055      1.00000
      9     -18.8527      1.00000
     10     -18.8369      1.00000
     11     -18.7410      1.00000
     12     -18.7094      1.00000
     13     -15.1072      1.00000
     14     -15.0849      1.00000
     15     -15.0369      1.00000
     16     -15.0285      1.00000
     17     -14.9845      1.00000
     18     -14.9685      1.00000
     19     -14.9469      1.00000
     20     -14.9251      1.00000
     21     -14.7098      1.00000
     22     -14.7030      1.00000
     23     -14.6797      1.00000
     24     -14.6784      1.00000
     25      -6.6321      1.00000
     26      -6.6039      1.00000
     27      -6.5338      1.00000
     28      -6.4782      1.00000
     29      -5.0087      1.00000
     30      -4.9954      1.00000
     31      -4.9615      1.00000
     32      -4.9155      1.00000
     33      -4.5990      1.00000
     34      -4.5680      1.00000
     35      -4.5441      1.00000
     36      -4.5336      1.00000
     37      -4.0522      1.00000
     38      -4.0191      1.00000
     39      -3.9832      1.00000
     40      -3.9383      1.00000
     41      -1.6889      1.00000
     42      -1.5849      1.00000
     43      -1.5404      1.00000
     44      -1.4281      1.00000
     45      -1.3947      1.00000
     46      -1.3006      1.00000
     47      -1.1957      1.00000
     48      -1.1039      1.00000
     49       4.1716      1.00000
     50       4.2857      1.00000
     51       4.4826      1.00000
     52       4.5627      1.00000
     53       5.3036      1.00000
     54       5.3459      0.99999
     55       5.5855      0.00480
     56       5.6428      0.00001
     57       6.2172      0.00000
     58       6.4819      0.00000
     59       6.6423      0.00000
     60       6.7081      0.00000
     61       6.9134      0.00000
     62       6.9437      0.00000
     63       7.0513      0.00000
     64       7.0869      0.00000
     65       7.2255      0.00000
     66       7.3449      0.00000
     67       7.4406      0.00000
     68       7.6299      0.00000
     69       7.8046      0.00000
     70       7.8743      0.00000

 k-point    18 :      -0.4000    0.4286    0.0000
  band No.  band energies     occupation 
      1     -33.8339      1.00000
      2     -33.8275      1.00000
      3     -33.8264      1.00000
      4     -33.8206      1.00000
      5     -20.4179      1.00000
      6     -20.4076      1.00000
      7     -20.3132      1.00000
      8     -20.3055      1.00000
      9     -18.8527      1.00000
     10     -18.8369      1.00000
     11     -18.7410      1.00000
     12     -18.7094      1.00000
     13     -15.1072      1.00000
     14     -15.0849      1.00000
     15     -15.0369      1.00000
     16     -15.0285      1.00000
     17     -14.9846      1.00000
     18     -14.9685      1.00000
     19     -14.9469      1.00000
     20     -14.9251      1.00000
     21     -14.7098      1.00000
     22     -14.7030      1.00000
     23     -14.6796      1.00000
     24     -14.6784      1.00000
     25      -6.6321      1.00000
     26      -6.6039      1.00000
     27      -6.5338      1.00000
     28      -6.4782      1.00000
     29      -5.0087      1.00000
     30      -4.9954      1.00000
     31      -4.9615      1.00000
     32      -4.9155      1.00000
     33      -4.5991      1.00000
     34      -4.5680      1.00000
     35      -4.5441      1.00000
     36      -4.5337      1.00000
     37      -4.0522      1.00000
     38      -4.0190      1.00000
     39      -3.9832      1.00000
     40      -3.9383      1.00000
     41      -1.6889      1.00000
     42      -1.5849      1.00000
     43      -1.5404      1.00000
     44      -1.4281      1.00000
     45      -1.3947      1.00000
     46      -1.3006      1.00000
     47      -1.1957      1.00000
     48      -1.1039      1.00000
     49       4.1716      1.00000
     50       4.2857      1.00000
     51       4.4825      1.00000
     52       4.5627      1.00000
     53       5.3036      1.00000
     54       5.3459      0.99999
     55       5.5855      0.00480
     56       5.6429      0.00001
     57       6.2172      0.00000
     58       6.4818      0.00000
     59       6.6423      0.00000
     60       6.7081      0.00000
     61       6.9134      0.00000
     62       6.9436      0.00000
     63       7.0514      0.00000
     64       7.0869      0.00000
     65       7.2255      0.00000
     66       7.3449      0.00000
     67       7.4405      0.00000
     68       7.6299      0.00000
     69       7.8045      0.00000
     70       7.8743      0.00000

 k-point    19 :      -0.0000    0.0000    0.2000
  band No.  band energies     occupation 
      1     -33.8500      1.00000
      2     -33.8264      1.00000
      3     -33.8230      1.00000
      4     -33.8200      1.00000
      5     -20.3083      1.00000
      6     -20.2996      1.00000
      7     -20.1684      1.00000
      8     -20.1571      1.00000
      9     -18.8862      1.00000
     10     -18.8598      1.00000
     11     -18.7106      1.00000
     12     -18.5867      1.00000
     13     -15.2854      1.00000
     14     -15.1845      1.00000
     15     -15.1705      1.00000
     16     -15.1111      1.00000
     17     -15.0660      1.00000
     18     -15.0351      1.00000
     19     -15.0326      1.00000
     20     -14.9620      1.00000
     21     -14.9496      1.00000
     22     -14.9394      1.00000
     23     -14.9173      1.00000
     24     -14.7546      1.00000
     25      -6.9057      1.00000
     26      -6.8333      1.00000
     27      -6.6626      1.00000
     28      -6.6077      1.00000
     29      -4.9144      1.00000
     30      -4.8960      1.00000
     31      -4.8026      1.00000
     32      -4.7572      1.00000
     33      -4.0064      1.00000
     34      -3.9558      1.00000
     35      -3.9201      1.00000
     36      -3.7649      1.00000
     37      -3.7475      1.00000
     38      -3.6020      1.00000
     39      -3.5113      1.00000
     40      -3.3803      1.00000
     41      -2.2221      1.00000
     42      -1.9014      1.00000
     43      -1.8226      1.00000
     44      -1.7135      1.00000
     45      -1.5650      1.00000
     46      -1.4774      1.00000
     47      -1.2381      1.00000
     48      -0.9497      1.00000
     49       3.9116      1.00000
     50       4.7501      1.00000
     51       5.1784      1.00000
     52       5.3303      1.00000
     53       5.4098      0.99137
     54       5.4650      0.79344
     55       5.6797      0.00000
     56       5.7857      0.00000
     57       6.0316      0.00000
     58       6.2378      0.00000
     59       6.3317      0.00000
     60       6.3739      0.00000
     61       6.5833      0.00000
     62       6.6799      0.00000
     63       6.7150      0.00000
     64       6.8100      0.00000
     65       7.0460      0.00000
     66       7.3488      0.00000
     67       7.3847      0.00000
     68       7.6546      0.00000
     69       8.0180      0.00000
     70       8.2326      0.00000

 k-point    20 :       0.2000    0.0000    0.2000
  band No.  band energies     occupation 
      1     -33.8454      1.00000
      2     -33.8305      1.00000
      3     -33.8252      1.00000
      4     -33.8183      1.00000
      5     -20.3119      1.00000
      6     -20.3031      1.00000
      7     -20.1726      1.00000
      8     -20.1617      1.00000
      9     -18.8761      1.00000
     10     -18.8466      1.00000
     11     -18.6947      1.00000
     12     -18.5921      1.00000
     13     -15.2717      1.00000
     14     -15.1982      1.00000
     15     -15.1698      1.00000
     16     -15.1121      1.00000
     17     -15.0950      1.00000
     18     -15.0277      1.00000
     19     -15.0149      1.00000
     20     -14.9713      1.00000
     21     -14.9544      1.00000
     22     -14.9324      1.00000
     23     -14.9138      1.00000
     24     -14.7866      1.00000
     25      -6.8140      1.00000
     26      -6.7381      1.00000
     27      -6.6212      1.00000
     28      -6.5744      1.00000
     29      -5.0475      1.00000
     30      -5.0192      1.00000
     31      -4.8404      1.00000
     32      -4.8117      1.00000
     33      -4.0134      1.00000
     34      -3.9741      1.00000
     35      -3.9495      1.00000
     36      -3.8348      1.00000
     37      -3.7539      1.00000
     38      -3.6203      1.00000
     39      -3.5252      1.00000
     40      -3.3978      1.00000
     41      -2.1738      1.00000
     42      -1.7796      1.00000
     43      -1.7671      1.00000
     44      -1.6790      1.00000
     45      -1.4580      1.00000
     46      -1.4118      1.00000
     47      -1.1901      1.00000
     48      -1.0184      1.00000
     49       4.2360      1.00000
     50       4.8432      1.00000
     51       4.9909      1.00000
     52       5.0496      1.00000
     53       5.1838      1.00000
     54       5.3403      0.99999
     55       5.7724      0.00000
     56       6.0379      0.00000
     57       6.1198      0.00000
     58       6.2029      0.00000
     59       6.2602      0.00000
     60       6.3645      0.00000
     61       6.5473      0.00000
     62       6.6653      0.00000
     63       6.8056      0.00000
     64       6.8966      0.00000
     65       6.9420      0.00000
     66       7.0572      0.00000
     67       7.2056      0.00000
     68       7.7210      0.00000
     69       8.1940      0.00000
     70       8.2009      0.00000

 k-point    21 :       0.4000    0.0000    0.2000
  band No.  band energies     occupation 
      1     -33.8402      1.00000
      2     -33.8352      1.00000
      3     -33.8269      1.00000
      4     -33.8170      1.00000
      5     -20.3177      1.00000
      6     -20.3096      1.00000
      7     -20.1800      1.00000
      8     -20.1704      1.00000
      9     -18.8505      1.00000
     10     -18.8310      1.00000
     11     -18.6567      1.00000
     12     -18.6131      1.00000
     13     -15.2442      1.00000
     14     -15.2259      1.00000
     15     -15.1583      1.00000
     16     -15.1247      1.00000
     17     -15.1193      1.00000
     18     -15.0511      1.00000
     19     -15.0109      1.00000
     20     -14.9726      1.00000
     21     -14.9605      1.00000
     22     -14.9323      1.00000
     23     -14.8693      1.00000
     24     -14.8372      1.00000
     25      -6.6541      1.00000
     26      -6.6080      1.00000
     27      -6.5781      1.00000
     28      -6.5246      1.00000
     29      -5.1719      1.00000
     30      -5.1460      1.00000
     31      -4.9489      1.00000
     32      -4.9131      1.00000
     33      -4.1148      1.00000
     34      -4.0190      1.00000
     35      -3.9743      1.00000
     36      -3.9320      1.00000
     37      -3.7211      1.00000
     38      -3.6721      1.00000
     39      -3.5201      1.00000
     40      -3.4485      1.00000
     41      -2.0323      1.00000
     42      -1.8471      1.00000
     43      -1.5454      1.00000
     44      -1.4558      1.00000
     45      -1.3982      1.00000
     46      -1.2140      1.00000
     47      -1.2101      1.00000
     48      -1.1427      1.00000
     49       4.6473      1.00000
     50       4.7121      1.00000
     51       4.8845      1.00000
     52       4.9730      1.00000
     53       5.2147      1.00000
     54       5.4665      0.78156
     55       5.6251      0.00010
     56       5.9429      0.00000
     57       5.9918      0.00000
     58       6.1792      0.00000
     59       6.2112      0.00000
     60       6.3816      0.00000
     61       6.4912      0.00000
     62       6.6073      0.00000
     63       6.6408      0.00000
     64       6.6706      0.00000
     65       6.9463      0.00000
     66       6.9922      0.00000
     67       7.4279      0.00000
     68       7.6708      0.00000
     69       7.9686      0.00000
     70       8.1829      0.00000

 k-point    22 :      -0.4000    0.0000    0.2000
  band No.  band energies     occupation 
      1     -33.8458      1.00000
      2     -33.8296      1.00000
      3     -33.8266      1.00000
      4     -33.8173      1.00000
      5     -20.3177      1.00000
      6     -20.3103      1.00000
      7     -20.1806      1.00000
      8     -20.1711      1.00000
      9     -18.8445      1.00000
     10     -18.8337      1.00000
     11     -18.6586      1.00000
     12     -18.6120      1.00000
     13     -15.2576      1.00000
     14     -15.2123      1.00000
     15     -15.1446      1.00000
     16     -15.1390      1.00000
     17     -15.1136      1.00000
     18     -15.0667      1.00000
     19     -15.0138      1.00000
     20     -14.9809      1.00000
     21     -14.9450      1.00000
     22     -14.9277      1.00000
     23     -14.8977      1.00000
     24     -14.8033      1.00000
     25      -6.6868      1.00000
     26      -6.6459      1.00000
     27      -6.5736      1.00000
     28      -6.5203      1.00000
     29      -5.1057      1.00000
     30      -5.0804      1.00000
     31      -4.9673      1.00000
     32      -4.9155      1.00000
     33      -4.1476      1.00000
     34      -4.0623      1.00000
     35      -3.9779      1.00000
     36      -3.9091      1.00000
     37      -3.7245      1.00000
     38      -3.6680      1.00000
     39      -3.4980      1.00000
     40      -3.4746      1.00000
     41      -1.9932      1.00000
     42      -1.8787      1.00000
     43      -1.5176      1.00000
     44      -1.4729      1.00000
     45      -1.4270      1.00000
     46      -1.2383      1.00000
     47      -1.2002      1.00000
     48      -1.1159      1.00000
     49       4.3660      1.00000
     50       4.7840      1.00000
     51       4.9064      1.00000
     52       5.1265      1.00000
     53       5.2804      1.00000
     54       5.5937      0.00239
     55       5.7034      0.00000
     56       5.8453      0.00000
     57       5.9535      0.00000
     58       5.9873      0.00000
     59       6.1973      0.00000
     60       6.3388      0.00000
     61       6.3818      0.00000
     62       6.4726      0.00000
     63       6.5448      0.00000
     64       7.0154      0.00000
     65       7.1449      0.00000
     66       7.2424      0.00000
     67       7.4263      0.00000
     68       7.5059      0.00000
     69       7.9009      0.00000
     70       8.1984      0.00000

 k-point    23 :      -0.2000    0.0000    0.2000
  band No.  band energies     occupation 
      1     -33.8501      1.00000
      2     -33.8256      1.00000
      3     -33.8247      1.00000
      4     -33.8189      1.00000
      5     -20.3119      1.00000
      6     -20.3042      1.00000
      7     -20.1736      1.00000
      8     -20.1629      1.00000
      9     -18.8695      1.00000
     10     -18.8481      1.00000
     11     -18.6964      1.00000
     12     -18.5916      1.00000
     13     -15.2801      1.00000
     14     -15.1896      1.00000
     15     -15.1608      1.00000
     16     -15.1219      1.00000
     17     -15.0832      1.00000
     18     -15.0574      1.00000
     19     -15.0233      1.00000
     20     -14.9762      1.00000
     21     -14.9452      1.00000
     22     -14.9325      1.00000
     23     -14.9091      1.00000
     24     -14.7623      1.00000
     25      -6.8480      1.00000
     26      -6.7883      1.00000
     27      -6.6210      1.00000
     28      -6.5733      1.00000
     29      -4.9291      1.00000
     30      -4.9254      1.00000
     31      -4.8682      1.00000
     32      -4.8303      1.00000
     33      -4.0787      1.00000
     34      -4.0398      1.00000
     35      -3.9321      1.00000
     36      -3.8179      1.00000
     37      -3.7556      1.00000
     38      -3.6175      1.00000
     39      -3.5116      1.00000
     40      -3.4184      1.00000
     41      -2.1432      1.00000
     42      -1.7927      1.00000
     43      -1.7548      1.00000
     44      -1.6935      1.00000
     45      -1.4742      1.00000
     46      -1.4220      1.00000
     47      -1.1769      1.00000
     48      -1.0151      1.00000
     49       3.9748      1.00000
     50       4.7358      1.00000
     51       5.1533      1.00000
     52       5.1879      1.00000
     53       5.4778      0.67617
     54       5.5370      0.11186
     55       5.6704      0.00000
     56       5.9939      0.00000
     57       6.0438      0.00000
     58       6.1595      0.00000
     59       6.2203      0.00000
     60       6.2542      0.00000
     61       6.4163      0.00000
     62       6.4600      0.00000
     63       6.5498      0.00000
     64       7.0084      0.00000
     65       7.2002      0.00000
     66       7.4448      0.00000
     67       7.4756      0.00000
     68       7.5436      0.00000
     69       7.9335      0.00000
     70       8.2055      0.00000

 k-point    24 :      -0.0000    0.1429    0.2000
  band No.  band energies     occupation 
      1     -33.8481      1.00000
      2     -33.8259      1.00000
      3     -33.8233      1.00000
      4     -33.8199      1.00000
      5     -20.3297      1.00000
      6     -20.3207      1.00000
      7     -20.1978      1.00000
      8     -20.1862      1.00000
      9     -18.8825      1.00000
     10     -18.8628      1.00000
     11     -18.7217      1.00000
     12     -18.6070      1.00000
     13     -15.1979      1.00000
     14     -15.1132      1.00000
     15     -15.1046      1.00000
     16     -15.0594      1.00000
     17     -15.0483      1.00000
     18     -15.0189      1.00000
     19     -15.0098      1.00000
     20     -14.9678      1.00000
     21     -14.9534      1.00000
     22     -14.9346      1.00000
     23     -14.9158      1.00000
     24     -14.7710      1.00000
     25      -6.8824      1.00000
     26      -6.8229      1.00000
     27      -6.6427      1.00000
     28      -6.5905      1.00000
     29      -4.9104      1.00000
     30      -4.8932      1.00000
     31      -4.8007      1.00000
     32      -4.7585      1.00000
     33      -4.0627      1.00000
     34      -4.0051      1.00000
     35      -3.9699      1.00000
     36      -3.8754      1.00000
     37      -3.8208      1.00000
     38      -3.7346      1.00000
     39      -3.6958      1.00000
     40      -3.5934      1.00000
     41      -2.1333      1.00000
     42      -1.8831      1.00000
     43      -1.7364      1.00000
     44      -1.6673      1.00000
     45      -1.5503      1.00000
     46      -1.4664      1.00000
     47      -1.2744      1.00000
     48      -0.9494      1.00000
     49       4.1821      1.00000
     50       4.4547      1.00000
     51       5.0506      1.00000
     52       5.1001      1.00000
     53       5.2160      1.00000
     54       5.4376      0.94465
     55       5.5249      0.19058
     56       5.7450      0.00000
     57       6.1495      0.00000
     58       6.2365      0.00000
     59       6.4374      0.00000
     60       6.4905      0.00000
     61       6.6395      0.00000
     62       6.8399      0.00000
     63       6.9352      0.00000
     64       6.9848      0.00000
     65       7.1445      0.00000
     66       7.5293      0.00000
     67       7.6399      0.00000
     68       7.8296      0.00000
     69       8.0021      0.00000
     70       8.0473      0.00000

 k-point    25 :       0.0000    0.1429   -0.2000
  band No.  band energies     occupation 
      1     -33.8481      1.00000
      2     -33.8259      1.00000
      3     -33.8233      1.00000
      4     -33.8199      1.00000
      5     -20.3297      1.00000
      6     -20.3207      1.00000
      7     -20.1978      1.00000
      8     -20.1862      1.00000
      9     -18.8825      1.00000
     10     -18.8628      1.00000
     11     -18.7217      1.00000
     12     -18.6070      1.00000
     13     -15.1979      1.00000
     14     -15.1133      1.00000
     15     -15.1046      1.00000
     16     -15.0593      1.00000
     17     -15.0483      1.00000
     18     -15.0189      1.00000
     19     -15.0098      1.00000
     20     -14.9678      1.00000
     21     -14.9533      1.00000
     22     -14.9346      1.00000
     23     -14.9158      1.00000
     24     -14.7710      1.00000
     25      -6.8824      1.00000
     26      -6.8229      1.00000
     27      -6.6427      1.00000
     28      -6.5905      1.00000
     29      -4.9104      1.00000
     30      -4.8932      1.00000
     31      -4.8007      1.00000
     32      -4.7585      1.00000
     33      -4.0626      1.00000
     34      -4.0052      1.00000
     35      -3.9699      1.00000
     36      -3.8754      1.00000
     37      -3.8208      1.00000
     38      -3.7346      1.00000
     39      -3.6958      1.00000
     40      -3.5934      1.00000
     41      -2.1333      1.00000
     42      -1.8831      1.00000
     43      -1.7364      1.00000
     44      -1.6673      1.00000
     45      -1.5503      1.00000
     46      -1.4664      1.00000
     47      -1.2744      1.00000
     48      -0.9494      1.00000
     49       4.1821      1.00000
     50       4.4547      1.00000
     51       5.0507      1.00000
     52       5.1001      1.00000
     53       5.2158      1.00000
     54       5.4377      0.94440
     55       5.5251      0.18946
     56       5.7448      0.00000
     57       6.1495      0.00000
     58       6.2369      0.00000
     59       6.4377      0.00000
     60       6.4902      0.00000
     61       6.6396      0.00000
     62       6.8396      0.00000
     63       6.9353      0.00000
     64       6.9843      0.00000
     65       7.1449      0.00000
     66       7.5293      0.00000
     67       7.6399      0.00000
     68       7.8297      0.00000
     69       8.0021      0.00000
     70       8.0475      0.00000

 k-point    26 :       0.2000    0.1429    0.2000
  band No.  band energies     occupation 
      1     -33.8436      1.00000
      2     -33.8298      1.00000
      3     -33.8250      1.00000
      4     -33.8188      1.00000
      5     -20.3333      1.00000
      6     -20.3242      1.00000
      7     -20.2019      1.00000
      8     -20.1908      1.00000
      9     -18.8724      1.00000
     10     -18.8494      1.00000
     11     -18.7061      1.00000
     12     -18.6111      1.00000
     13     -15.2043      1.00000
     14     -15.1176      1.00000
     15     -15.0943      1.00000
     16     -15.0806      1.00000
     17     -15.0633      1.00000
     18     -15.0192      1.00000
     19     -14.9995      1.00000
     20     -14.9604      1.00000
     21     -14.9420      1.00000
     22     -14.9342      1.00000
     23     -14.9163      1.00000
     24     -14.8030      1.00000
     25      -6.7906      1.00000
     26      -6.7269      1.00000
     27      -6.6033      1.00000
     28      -6.5566      1.00000
     29      -5.0452      1.00000
     30      -5.0178      1.00000
     31      -4.8394      1.00000
     32      -4.8108      1.00000
     33      -4.0697      1.00000
     34      -4.0153      1.00000
     35      -4.0025      1.00000
     36      -3.9105      1.00000
     37      -3.8545      1.00000
     38      -3.7774      1.00000
     39      -3.7103      1.00000
     40      -3.5804      1.00000
     41      -2.0894      1.00000
     42      -1.7639      1.00000
     43      -1.6890      1.00000
     44      -1.6250      1.00000
     45      -1.4546      1.00000
     46      -1.4115      1.00000
     47      -1.2425      1.00000
     48      -0.9854      1.00000
     49       4.4771      1.00000
     50       4.5524      1.00000
     51       4.8436      1.00000
     52       4.9631      1.00000
     53       5.0146      1.00000
     54       5.4312      0.96213
     55       5.6997      0.00000
     56       5.7157      0.00000
     57       6.1596      0.00000
     58       6.2627      0.00000
     59       6.3935      0.00000
     60       6.4503      0.00000
     61       6.5418      0.00000
     62       6.9053      0.00000
     63       6.9481      0.00000
     64       7.0031      0.00000
     65       7.1941      0.00000
     66       7.3136      0.00000
     67       7.3861      0.00000
     68       7.7968      0.00000
     69       7.9478      0.00000
     70       8.0127      0.00000

 k-point    27 :      -0.2000    0.1429   -0.2000
  band No.  band energies     occupation 
      1     -33.8436      1.00000
      2     -33.8298      1.00000
      3     -33.8250      1.00000
      4     -33.8188      1.00000
      5     -20.3333      1.00000
      6     -20.3242      1.00000
      7     -20.2019      1.00000
      8     -20.1908      1.00000
      9     -18.8724      1.00000
     10     -18.8494      1.00000
     11     -18.7061      1.00000
     12     -18.6111      1.00000
     13     -15.2043      1.00000
     14     -15.1176      1.00000
     15     -15.0943      1.00000
     16     -15.0806      1.00000
     17     -15.0633      1.00000
     18     -15.0193      1.00000
     19     -14.9994      1.00000
     20     -14.9605      1.00000
     21     -14.9420      1.00000
     22     -14.9342      1.00000
     23     -14.9163      1.00000
     24     -14.8030      1.00000
     25      -6.7906      1.00000
     26      -6.7269      1.00000
     27      -6.6033      1.00000
     28      -6.5566      1.00000
     29      -5.0452      1.00000
     30      -5.0178      1.00000
     31      -4.8394      1.00000
     32      -4.8108      1.00000
     33      -4.0699      1.00000
     34      -4.0151      1.00000
     35      -4.0025      1.00000
     36      -3.9106      1.00000
     37      -3.8545      1.00000
     38      -3.7774      1.00000
     39      -3.7103      1.00000
     40      -3.5804      1.00000
     41      -2.0894      1.00000
     42      -1.7639      1.00000
     43      -1.6890      1.00000
     44      -1.6250      1.00000
     45      -1.4546      1.00000
     46      -1.4115      1.00000
     47      -1.2425      1.00000
     48      -0.9854      1.00000
     49       4.4771      1.00000
     50       4.5523      1.00000
     51       4.8434      1.00000
     52       4.9631      1.00000
     53       5.0147      1.00000
     54       5.4312      0.96204
     55       5.6998      0.00000
     56       5.7156      0.00000
     57       6.1597      0.00000
     58       6.2627      0.00000
     59       6.3936      0.00000
     60       6.4505      0.00000
     61       6.5416      0.00000
     62       6.9049      0.00000
     63       6.9481      0.00000
     64       7.0033      0.00000
     65       7.1939      0.00000
     66       7.3134      0.00000
     67       7.3864      0.00000
     68       7.7968      0.00000
     69       7.9478      0.00000
     70       8.0127      0.00000

 k-point    28 :       0.4000    0.1429    0.2000
  band No.  band energies     occupation 
      1     -33.8391      1.00000
      2     -33.8339      1.00000
      3     -33.8269      1.00000
      4     -33.8173      1.00000
      5     -20.3393      1.00000
      6     -20.3309      1.00000
      7     -20.2093      1.00000
      8     -20.1997      1.00000
      9     -18.8483      1.00000
     10     -18.8322      1.00000
     11     -18.6699      1.00000
     12     -18.6287      1.00000
     13     -15.2087      1.00000
     14     -15.1422      1.00000
     15     -15.1192      1.00000
     16     -15.0879      1.00000
     17     -15.0584      1.00000
     18     -15.0159      1.00000
     19     -14.9876      1.00000
     20     -14.9691      1.00000
     21     -14.9510      1.00000
     22     -14.9271      1.00000
     23     -14.8782      1.00000
     24     -14.8482      1.00000
     25      -6.6324      1.00000
     26      -6.5923      1.00000
     27      -6.5613      1.00000
     28      -6.5084      1.00000
     29      -5.1720      1.00000
     30      -5.1453      1.00000
     31      -4.9479      1.00000
     32      -4.9130      1.00000
     33      -4.1791      1.00000
     34      -4.0940      1.00000
     35      -4.0166      1.00000
     36      -3.9627      1.00000
     37      -3.8334      1.00000
     38      -3.8199      1.00000
     39      -3.7042      1.00000
     40      -3.6139      1.00000
     41      -1.9581      1.00000
     42      -1.7916      1.00000
     43      -1.5216      1.00000
     44      -1.4264      1.00000
     45      -1.3962      1.00000
     46      -1.2729      1.00000
     47      -1.2126      1.00000
     48      -1.0712      1.00000
     49       4.5770      1.00000
     50       4.6371      1.00000
     51       4.8208      1.00000
     52       4.8646      1.00000
     53       5.1380      1.00000
     54       5.4773      0.68115
     55       5.5911      0.00301
     56       5.7311      0.00000
     57       6.0293      0.00000
     58       6.1678      0.00000
     59       6.4331      0.00000
     60       6.4779      0.00000
     61       6.6075      0.00000
     62       6.6772      0.00000
     63       6.7757      0.00000
     64       6.8922      0.00000
     65       6.9816      0.00000
     66       7.1646      0.00000
     67       7.5513      0.00000
     68       7.7114      0.00000
     69       7.9192      0.00000
     70       8.0184      0.00000

 k-point    29 :      -0.4000    0.1429   -0.2000
  band No.  band energies     occupation 
      1     -33.8391      1.00000
      2     -33.8339      1.00000
      3     -33.8269      1.00000
      4     -33.8173      1.00000
      5     -20.3393      1.00000
      6     -20.3309      1.00000
      7     -20.2093      1.00000
      8     -20.1997      1.00000
      9     -18.8483      1.00000
     10     -18.8322      1.00000
     11     -18.6699      1.00000
     12     -18.6287      1.00000
     13     -15.2087      1.00000
     14     -15.1422      1.00000
     15     -15.1192      1.00000
     16     -15.0878      1.00000
     17     -15.0584      1.00000
     18     -15.0160      1.00000
     19     -14.9876      1.00000
     20     -14.9691      1.00000
     21     -14.9510      1.00000
     22     -14.9271      1.00000
     23     -14.8782      1.00000
     24     -14.8482      1.00000
     25      -6.6324      1.00000
     26      -6.5923      1.00000
     27      -6.5613      1.00000
     28      -6.5084      1.00000
     29      -5.1720      1.00000
     30      -5.1453      1.00000
     31      -4.9479      1.00000
     32      -4.9130      1.00000
     33      -4.1791      1.00000
     34      -4.0938      1.00000
     35      -4.0167      1.00000
     36      -3.9627      1.00000
     37      -3.8334      1.00000
     38      -3.8199      1.00000
     39      -3.7042      1.00000
     40      -3.6139      1.00000
     41      -1.9581      1.00000
     42      -1.7916      1.00000
     43      -1.5216      1.00000
     44      -1.4264      1.00000
     45      -1.3961      1.00000
     46      -1.2729      1.00000
     47      -1.2125      1.00000
     48      -1.0712      1.00000
     49       4.5772      1.00000
     50       4.6370      1.00000
     51       4.8205      1.00000
     52       4.8648      1.00000
     53       5.1379      1.00000
     54       5.4776      0.67824
     55       5.5909      0.00307
     56       5.7312      0.00000
     57       6.0293      0.00000
     58       6.1679      0.00000
     59       6.4330      0.00000
     60       6.4778      0.00000
     61       6.6075      0.00000
     62       6.6773      0.00000
     63       6.7756      0.00000
     64       6.8921      0.00000
     65       6.9817      0.00000
     66       7.1645      0.00000
     67       7.5513      0.00000
     68       7.7114      0.00000
     69       7.9192      0.00000
     70       8.0184      0.00000

 k-point    30 :      -0.4000    0.1429    0.2000
  band No.  band energies     occupation 
      1     -33.8443      1.00000
      2     -33.8286      1.00000
      3     -33.8270      1.00000
      4     -33.8173      1.00000
      5     -20.3393      1.00000
      6     -20.3316      1.00000
      7     -20.2097      1.00000
      8     -20.2005      1.00000
      9     -18.8436      1.00000
     10     -18.8339      1.00000
     11     -18.6714      1.00000
     12     -18.6280      1.00000
     13     -15.1939      1.00000
     14     -15.1672      1.00000
     15     -15.1339      1.00000
     16     -15.0729      1.00000
     17     -15.0429      1.00000
     18     -15.0151      1.00000
     19     -14.9907      1.00000
     20     -14.9852      1.00000
     21     -14.9446      1.00000
     22     -14.9327      1.00000
     23     -14.8975      1.00000
     24     -14.8131      1.00000
     25      -6.6671      1.00000
     26      -6.6314      1.00000
     27      -6.5553      1.00000
     28      -6.5029      1.00000
     29      -5.1040      1.00000
     30      -5.0812      1.00000
     31      -4.9654      1.00000
     32      -4.9156      1.00000
     33      -4.2152      1.00000
     34      -4.1470      1.00000
     35      -4.0009      1.00000
     36      -3.9334      1.00000
     37      -3.8683      1.00000
     38      -3.7917      1.00000
     39      -3.6720      1.00000
     40      -3.6520      1.00000
     41      -1.9311      1.00000
     42      -1.8197      1.00000
     43      -1.5231      1.00000
     44      -1.4559      1.00000
     45      -1.3964      1.00000
     46      -1.2130      1.00000
     47      -1.1899      1.00000
     48      -1.1246      1.00000
     49       4.5637      1.00000
     50       4.6439      1.00000
     51       4.7042      1.00000
     52       4.8096      1.00000
     53       5.3731      0.99968
     54       5.4735      0.71852
     55       5.6404      0.00002
     56       5.7817      0.00000
     57       5.7976      0.00000
     58       5.9759      0.00000
     59       6.4639      0.00000
     60       6.5191      0.00000
     61       6.5799      0.00000
     62       6.7265      0.00000
     63       6.7763      0.00000
     64       7.0082      0.00000
     65       7.0635      0.00000
     66       7.2779      0.00000
     67       7.6651      0.00000
     68       7.6824      0.00000
     69       7.9073      0.00000
     70       8.0533      0.00000

 k-point    31 :       0.4000    0.1429   -0.2000
  band No.  band energies     occupation 
      1     -33.8443      1.00000
      2     -33.8286      1.00000
      3     -33.8270      1.00000
      4     -33.8173      1.00000
      5     -20.3393      1.00000
      6     -20.3316      1.00000
      7     -20.2097      1.00000
      8     -20.2005      1.00000
      9     -18.8436      1.00000
     10     -18.8339      1.00000
     11     -18.6714      1.00000
     12     -18.6280      1.00000
     13     -15.1939      1.00000
     14     -15.1672      1.00000
     15     -15.1339      1.00000
     16     -15.0729      1.00000
     17     -15.0429      1.00000
     18     -15.0151      1.00000
     19     -14.9907      1.00000
     20     -14.9852      1.00000
     21     -14.9446      1.00000
     22     -14.9327      1.00000
     23     -14.8975      1.00000
     24     -14.8131      1.00000
     25      -6.6671      1.00000
     26      -6.6314      1.00000
     27      -6.5553      1.00000
     28      -6.5029      1.00000
     29      -5.1040      1.00000
     30      -5.0812      1.00000
     31      -4.9654      1.00000
     32      -4.9156      1.00000
     33      -4.2153      1.00000
     34      -4.1469      1.00000
     35      -4.0009      1.00000
     36      -3.9333      1.00000
     37      -3.8683      1.00000
     38      -3.7917      1.00000
     39      -3.6720      1.00000
     40      -3.6519      1.00000
     41      -1.9311      1.00000
     42      -1.8197      1.00000
     43      -1.5230      1.00000
     44      -1.4559      1.00000
     45      -1.3964      1.00000
     46      -1.2129      1.00000
     47      -1.1899      1.00000
     48      -1.1246      1.00000
     49       4.5637      1.00000
     50       4.6442      1.00000
     51       4.7039      1.00000
     52       4.8097      1.00000
     53       5.3729      0.99969
     54       5.4736      0.71755
     55       5.6406      0.00002
     56       5.7818      0.00000
     57       5.7973      0.00000
     58       5.9760      0.00000
     59       6.4638      0.00000
     60       6.5191      0.00000
     61       6.5799      0.00000
     62       6.7267      0.00000
     63       6.7763      0.00000
     64       7.0083      0.00000
     65       7.0634      0.00000
     66       7.2778      0.00000
     67       7.6651      0.00000
     68       7.6824      0.00000
     69       7.9074      0.00000
     70       8.0532      0.00000

 k-point    32 :      -0.2000    0.1429    0.2000
  band No.  band energies     occupation 
      1     -33.8484      1.00000
      2     -33.8255      1.00000
      3     -33.8249      1.00000
      4     -33.8185      1.00000
      5     -20.3334      1.00000
      6     -20.3254      1.00000
      7     -20.2027      1.00000
      8     -20.1922      1.00000
      9     -18.8668      1.00000
     10     -18.8503      1.00000
     11     -18.7075      1.00000
     12     -18.6107      1.00000
     13     -15.1899      1.00000
     14     -15.1484      1.00000
     15     -15.1228      1.00000
     16     -15.0566      1.00000
     17     -15.0367      1.00000
     18     -15.0139      1.00000
     19     -15.0066      1.00000
     20     -14.9842      1.00000
     21     -14.9546      1.00000
     22     -14.9361      1.00000
     23     -14.9026      1.00000
     24     -14.7761      1.00000
     25      -6.8260      1.00000
     26      -6.7770      1.00000
     27      -6.6023      1.00000
     28      -6.5551      1.00000
     29      -4.9258      1.00000
     30      -4.9222      1.00000
     31      -4.8675      1.00000
     32      -4.8305      1.00000
     33      -4.1431      1.00000
     34      -4.1168      1.00000
     35      -3.9455      1.00000
     36      -3.9017      1.00000
     37      -3.8502      1.00000
     38      -3.7518      1.00000
     39      -3.6825      1.00000
     40      -3.6250      1.00000
     41      -2.0687      1.00000
     42      -1.7723      1.00000
     43      -1.7038      1.00000
     44      -1.6549      1.00000
     45      -1.4400      1.00000
     46      -1.3989      1.00000
     47      -1.2074      1.00000
     48      -1.0188      1.00000
     49       4.2392      1.00000
     50       4.4975      1.00000
     51       4.9029      1.00000
     52       4.9552      1.00000
     53       5.3662      0.99985
     54       5.5429      0.08314
     55       5.6175      0.00024
     56       5.7014      0.00000
     57       5.9872      0.00000
     58       6.1270      0.00000
     59       6.4899      0.00000
     60       6.5265      0.00000
     61       6.5929      0.00000
     62       6.7520      0.00000
     63       6.8094      0.00000
     64       7.0379      0.00000
     65       7.1014      0.00000
     66       7.5950      0.00000
     67       7.7007      0.00000
     68       7.7529      0.00000
     69       7.9257      0.00000
     70       8.0862      0.00000

 k-point    33 :       0.2000    0.1429   -0.2000
  band No.  band energies     occupation 
      1     -33.8484      1.00000
      2     -33.8254      1.00000
      3     -33.8249      1.00000
      4     -33.8185      1.00000
      5     -20.3334      1.00000
      6     -20.3254      1.00000
      7     -20.2028      1.00000
      8     -20.1921      1.00000
      9     -18.8668      1.00000
     10     -18.8503      1.00000
     11     -18.7075      1.00000
     12     -18.6107      1.00000
     13     -15.1899      1.00000
     14     -15.1484      1.00000
     15     -15.1228      1.00000
     16     -15.0565      1.00000
     17     -15.0367      1.00000
     18     -15.0140      1.00000
     19     -15.0066      1.00000
     20     -14.9842      1.00000
     21     -14.9546      1.00000
     22     -14.9361      1.00000
     23     -14.9026      1.00000
     24     -14.7761      1.00000
     25      -6.8260      1.00000
     26      -6.7770      1.00000
     27      -6.6023      1.00000
     28      -6.5551      1.00000
     29      -4.9257      1.00000
     30      -4.9222      1.00000
     31      -4.8675      1.00000
     32      -4.8305      1.00000
     33      -4.1430      1.00000
     34      -4.1168      1.00000
     35      -3.9456      1.00000
     36      -3.9017      1.00000
     37      -3.8501      1.00000
     38      -3.7518      1.00000
     39      -3.6825      1.00000
     40      -3.6249      1.00000
     41      -2.0687      1.00000
     42      -1.7723      1.00000
     43      -1.7037      1.00000
     44      -1.6550      1.00000
     45      -1.4400      1.00000
     46      -1.3989      1.00000
     47      -1.2074      1.00000
     48      -1.0188      1.00000
     49       4.2392      1.00000
     50       4.4976      1.00000
     51       4.9029      1.00000
     52       4.9552      1.00000
     53       5.3661      0.99985
     54       5.5428      0.08354
     55       5.6175      0.00024
     56       5.7015      0.00000
     57       5.9869      0.00000
     58       6.1274      0.00000
     59       6.4900      0.00000
     60       6.5263      0.00000
     61       6.5928      0.00000
     62       6.7522      0.00000
     63       6.8093      0.00000
     64       7.0380      0.00000
     65       7.1013      0.00000
     66       7.5950      0.00000
     67       7.7007      0.00000
     68       7.7530      0.00000
     69       7.9257      0.00000
     70       8.0681      0.00000

 k-point    34 :      -0.0000    0.2857    0.2000
  band No.  band energies     occupation 
      1     -33.8432      1.00000
      2     -33.8261      1.00000
      3     -33.8239      1.00000
      4     -33.8191      1.00000
      5     -20.3774      1.00000
      6     -20.3679      1.00000
      7     -20.2625      1.00000
      8     -20.2499      1.00000
      9     -18.8680      1.00000
     10     -18.8647      1.00000
     11     -18.7428      1.00000
     12     -18.6562      1.00000
     13     -15.0772      1.00000
     14     -15.0682      1.00000
     15     -15.0511      1.00000
     16     -15.0111      1.00000
     17     -15.0071      1.00000
     18     -14.9938      1.00000
     19     -14.9391      1.00000
     20     -14.9215      1.00000
     21     -14.8609      1.00000
     22     -14.8539      1.00000
     23     -14.8117      1.00000
     24     -14.7932      1.00000
     25      -6.8251      1.00000
     26      -6.7895      1.00000
     27      -6.5909      1.00000
     28      -6.5429      1.00000
     29      -4.9012      1.00000
     30      -4.8864      1.00000
     31      -4.7962      1.00000
     32      -4.7615      1.00000
     33      -4.3176      1.00000
     34      -4.2494      1.00000
     35      -4.2174      1.00000
     36      -4.1720      1.00000
     37      -4.0300      1.00000
     38      -3.9873      1.00000
     39      -3.9248      1.00000
     40      -3.8078      1.00000
     41      -1.8897      1.00000
     42      -1.7850      1.00000
     43      -1.6032      1.00000
     44      -1.5853      1.00000
     45      -1.4758      1.00000
     46      -1.4363      1.00000
     47      -1.3338      1.00000
     48      -0.9883      1.00000
     49       4.0638      1.00000
     50       4.4710      1.00000
     51       4.8164      1.00000
     52       4.8969      1.00000
     53       5.0132      1.00000
     54       5.3639      0.99988
     55       5.5335      0.13201
     56       5.6962      0.00000
     57       6.0006      0.00000
     58       6.2424      0.00000
     59       6.5984      0.00000
     60       6.6779      0.00000
     61       6.7706      0.00000
     62       7.0267      0.00000
     63       7.1387      0.00000
     64       7.3311      0.00000
     65       7.4545      0.00000
     66       7.5155      0.00000
     67       7.5667      0.00000
     68       7.6736      0.00000
     69       7.7331      0.00000
     70       7.8599      0.00000

 k-point    35 :       0.0000    0.2857   -0.2000
  band No.  band energies     occupation 
      1     -33.8432      1.00000
      2     -33.8261      1.00000
      3     -33.8239      1.00000
      4     -33.8191      1.00000
      5     -20.3774      1.00000
      6     -20.3679      1.00000
      7     -20.2625      1.00000
      8     -20.2499      1.00000
      9     -18.8679      1.00000
     10     -18.8648      1.00000
     11     -18.7428      1.00000
     12     -18.6562      1.00000
     13     -15.0772      1.00000
     14     -15.0682      1.00000
     15     -15.0512      1.00000
     16     -15.0111      1.00000
     17     -15.0071      1.00000
     18     -14.9938      1.00000
     19     -14.9391      1.00000
     20     -14.9215      1.00000
     21     -14.8609      1.00000
     22     -14.8539      1.00000
     23     -14.8117      1.00000
     24     -14.7932      1.00000
     25      -6.8251      1.00000
     26      -6.7895      1.00000
     27      -6.5909      1.00000
     28      -6.5429      1.00000
     29      -4.9012      1.00000
     30      -4.8864      1.00000
     31      -4.7962      1.00000
     32      -4.7615      1.00000
     33      -4.3175      1.00000
     34      -4.2494      1.00000
     35      -4.2174      1.00000
     36      -4.1719      1.00000
     37      -4.0300      1.00000
     38      -3.9874      1.00000
     39      -3.9248      1.00000
     40      -3.8078      1.00000
     41      -1.8898      1.00000
     42      -1.7850      1.00000
     43      -1.6032      1.00000
     44      -1.5853      1.00000
     45      -1.4758      1.00000
     46      -1.4364      1.00000
     47      -1.3338      1.00000
     48      -0.9883      1.00000
     49       4.0638      1.00000
     50       4.4710      1.00000
     51       4.8164      1.00000
     52       4.8968      1.00000
     53       5.0132      1.00000
     54       5.3640      0.99988
     55       5.5334      0.13229
     56       5.6962      0.00000
     57       6.0006      0.00000
     58       6.2425      0.00000
     59       6.5985      0.00000
     60       6.6779      0.00000
     61       6.7705      0.00000
     62       7.0266      0.00000
     63       7.1387      0.00000
     64       7.3310      0.00000
     65       7.4544      0.00000
     66       7.5156      0.00000
     67       7.5667      0.00000
     68       7.6737      0.00000
     69       7.7332      0.00000
     70       7.8599      0.00000

 k-point    36 :       0.2000    0.2857    0.2000
  band No.  band energies     occupation 
      1     -33.8392      1.00000
      2     -33.8282      1.00000
      3     -33.8249      1.00000
      4     -33.8200      1.00000
      5     -20.3813      1.00000
      6     -20.3715      1.00000
      7     -20.2666      1.00000
      8     -20.2547      1.00000
      9     -18.8582      1.00000
     10     -18.8516      1.00000
     11     -18.7283      1.00000
     12     -18.6564      1.00000
     13     -15.1333      1.00000
     14     -15.0690      1.00000
     15     -15.0210      1.00000
     16     -15.0165      1.00000
     17     -15.0071      1.00000
     18     -15.0045      1.00000
     19     -14.9581      1.00000
     20     -14.8870      1.00000
     21     -14.8712      1.00000
     22     -14.8561      1.00000
     23     -14.8131      1.00000
     24     -14.7921      1.00000
     25      -6.7326      1.00000
     26      -6.6924      1.00000
     27      -6.5549      1.00000
     28      -6.5073      1.00000
     29      -5.0406      1.00000
     30      -5.0158      1.00000
     31      -4.8372      1.00000
     32      -4.8084      1.00000
     33      -4.3488      1.00000
     34      -4.2768      1.00000
     35      -4.2021      1.00000
     36      -4.1645      1.00000
     37      -4.0605      1.00000
     38      -4.0125      1.00000
     39      -3.9532      1.00000
     40      -3.8210      1.00000
     41      -1.8839      1.00000
     42      -1.6375      1.00000
     43      -1.5369      1.00000
     44      -1.4868      1.00000
     45      -1.4559      1.00000
     46      -1.4159      1.00000
     47      -1.3317      1.00000
     48      -0.9689      1.00000
     49       4.1306      1.00000
     50       4.4216      1.00000
     51       4.8560      1.00000
     52       4.9107      1.00000
     53       5.1111      1.00000
     54       5.3377      1.00000
     55       5.4090      0.99185
     56       5.6162      0.00027
     57       5.9569      0.00000
     58       6.3787      0.00000
     59       6.5827      0.00000
     60       6.6479      0.00000
     61       6.7763      0.00000
     62       7.1428      0.00000
     63       7.1741      0.00000
     64       7.2508      0.00000
     65       7.3222      0.00000
     66       7.4654      0.00000
     67       7.5671      0.00000
     68       7.6008      0.00000
     69       7.7518      0.00000
     70       7.8452      0.00000

 k-point    37 :      -0.2000    0.2857   -0.2000
  band No.  band energies     occupation 
      1     -33.8392      1.00000
      2     -33.8282      1.00000
      3     -33.8249      1.00000
      4     -33.8200      1.00000
      5     -20.3813      1.00000
      6     -20.3715      1.00000
      7     -20.2666      1.00000
      8     -20.2547      1.00000
      9     -18.8582      1.00000
     10     -18.8516      1.00000
     11     -18.7283      1.00000
     12     -18.6564      1.00000
     13     -15.1333      1.00000
     14     -15.0690      1.00000
     15     -15.0210      1.00000
     16     -15.0166      1.00000
     17     -15.0071      1.00000
     18     -15.0045      1.00000
     19     -14.9581      1.00000
     20     -14.8870      1.00000
     21     -14.8711      1.00000
     22     -14.8561      1.00000
     23     -14.8131      1.00000
     24     -14.7921      1.00000
     25      -6.7326      1.00000
     26      -6.6924      1.00000
     27      -6.5549      1.00000
     28      -6.5073      1.00000
     29      -5.0406      1.00000
     30      -5.0158      1.00000
     31      -4.8372      1.00000
     32      -4.8084      1.00000
     33      -4.3489      1.00000
     34      -4.2767      1.00000
     35      -4.2020      1.00000
     36      -4.1646      1.00000
     37      -4.0605      1.00000
     38      -4.0126      1.00000
     39      -3.9532      1.00000
     40      -3.8210      1.00000
     41      -1.8839      1.00000
     42      -1.6375      1.00000
     43      -1.5369      1.00000
     44      -1.4868      1.00000
     45      -1.4558      1.00000
     46      -1.4159      1.00000
     47      -1.3317      1.00000
     48      -0.9689      1.00000
     49       4.1306      1.00000
     50       4.4217      1.00000
     51       4.8560      1.00000
     52       4.9106      1.00000
     53       5.1111      1.00000
     54       5.3378      1.00000
     55       5.4091      0.99184
     56       5.6161      0.00028
     57       5.9569      0.00000
     58       6.3786      0.00000
     59       6.5827      0.00000
     60       6.6480      0.00000
     61       6.7763      0.00000
     62       7.1427      0.00000
     63       7.1742      0.00000
     64       7.2508      0.00000
     65       7.3221      0.00000
     66       7.4654      0.00000
     67       7.5672      0.00000
     68       7.6008      0.00000
     69       7.7518      0.00000
     70       7.8451      0.00000

 k-point    38 :       0.4000    0.2857    0.2000
  band No.  band energies     occupation 
      1     -33.8361      1.00000
      2     -33.8305      1.00000
      3     -33.8271      1.00000
      4     -33.8185      1.00000
      5     -20.3875      1.00000
      6     -20.3784      1.00000
      7     -20.2735      1.00000
      8     -20.2639      1.00000
      9     -18.8390      1.00000
     10     -18.8305      1.00000
     11     -18.6976      1.00000
     12     -18.6640      1.00000
     13     -15.1758      1.00000
     14     -15.1225      1.00000
     15     -15.0224      1.00000
     16     -15.0171      1.00000
     17     -14.9880      1.00000
     18     -14.9845      1.00000
     19     -14.9775      1.00000
     20     -14.9191      1.00000
     21     -14.8518      1.00000
     22     -14.8336      1.00000
     23     -14.8124      1.00000
     24     -14.7835      1.00000
     25      -6.5780      1.00000
     26      -6.5475      1.00000
     27      -6.5168      1.00000
     28      -6.4616      1.00000
     29      -5.1733      1.00000
     30      -5.1449      1.00000
     31      -4.9468      1.00000
     32      -4.9132      1.00000
     33      -4.4123      1.00000
     34      -4.3704      1.00000
     35      -4.2201      1.00000
     36      -4.1725      1.00000
     37      -4.0519      1.00000
     38      -4.0129      1.00000
     39      -3.9753      1.00000
     40      -3.8741      1.00000
     41      -1.7912      1.00000
     42      -1.6226      1.00000
     43      -1.4285      1.00000
     44      -1.4090      1.00000
     45      -1.3687      1.00000
     46      -1.3061      1.00000
     47      -1.2241      1.00000
     48      -0.9886      1.00000
     49       4.2599      1.00000
     50       4.3735      1.00000
     51       4.6706      1.00000
     52       4.8783      1.00000
     53       5.1681      1.00000
     54       5.2519      1.00000
     55       5.5452      0.07369
     56       5.6809      0.00000
     57       6.0320      0.00000
     58       6.3057      0.00000
     59       6.6240      0.00000
     60       6.7667      0.00000
     61       6.8359      0.00000
     62       6.8600      0.00000
     63       7.0689      0.00000
     64       7.1399      0.00000
     65       7.2121      0.00000
     66       7.3551      0.00000
     67       7.4972      0.00000
     68       7.6100      0.00000
     69       7.7515      0.00000
     70       7.8763      0.00000

 k-point    39 :      -0.4000    0.2857   -0.2000
  band No.  band energies     occupation 
      1     -33.8361      1.00000
      2     -33.8305      1.00000
      3     -33.8271      1.00000
      4     -33.8185      1.00000
      5     -20.3876      1.00000
      6     -20.3784      1.00000
      7     -20.2735      1.00000
      8     -20.2639      1.00000
      9     -18.8390      1.00000
     10     -18.8306      1.00000
     11     -18.6976      1.00000
     12     -18.6640      1.00000
     13     -15.1758      1.00000
     14     -15.1225      1.00000
     15     -15.0224      1.00000
     16     -15.0171      1.00000
     17     -14.9880      1.00000
     18     -14.9845      1.00000
     19     -14.9775      1.00000
     20     -14.9191      1.00000
     21     -14.8517      1.00000
     22     -14.8336      1.00000
     23     -14.8124      1.00000
     24     -14.7835      1.00000
     25      -6.5780      1.00000
     26      -6.5475      1.00000
     27      -6.5168      1.00000
     28      -6.4616      1.00000
     29      -5.1734      1.00000
     30      -5.1449      1.00000
     31      -4.9468      1.00000
     32      -4.9132      1.00000
     33      -4.4123      1.00000
     34      -4.3703      1.00000
     35      -4.2202      1.00000
     36      -4.1725      1.00000
     37      -4.0518      1.00000
     38      -4.0129      1.00000
     39      -3.9754      1.00000
     40      -3.8741      1.00000
     41      -1.7913      1.00000
     42      -1.6226      1.00000
     43      -1.4285      1.00000
     44      -1.4089      1.00000
     45      -1.3688      1.00000
     46      -1.3062      1.00000
     47      -1.2240      1.00000
     48      -0.9886      1.00000
     49       4.2599      1.00000
     50       4.3736      1.00000
     51       4.6705      1.00000
     52       4.8783      1.00000
     53       5.1682      1.00000
     54       5.2519      1.00000
     55       5.5452      0.07380
     56       5.6809      0.00000
     57       6.0321      0.00000
     58       6.3058      0.00000
     59       6.6240      0.00000
     60       6.7667      0.00000
     61       6.8360      0.00000
     62       6.8599      0.00000
     63       7.0688      0.00000
     64       7.1399      0.00000
     65       7.2121      0.00000
     66       7.3551      0.00000
     67       7.4972      0.00000
     68       7.6099      0.00000
     69       7.7516      0.00000
     70       7.8762      0.00000

 k-point    40 :      -0.4000    0.2857    0.2000
  band No.  band energies     occupation 
      1     -33.8406      1.00000
      2     -33.8282      1.00000
      3     -33.8260      1.00000
      4     -33.8175      1.00000
      5     -20.3876      1.00000
      6     -20.3791      1.00000
      7     -20.2736      1.00000
      8     -20.2649      1.00000
      9     -18.8377      1.00000
     10     -18.8295      1.00000
     11     -18.6983      1.00000
     12     -18.6637      1.00000
     13     -15.1720      1.00000
     14     -15.1376      1.00000
     15     -15.0155      1.00000
     16     -15.0098      1.00000
     17     -14.9969      1.00000
     18     -14.9819      1.00000
     19     -14.9636      1.00000
     20     -14.9546      1.00000
     21     -14.8404      1.00000
     22     -14.8172      1.00000
     23     -14.8084      1.00000
     24     -14.7868      1.00000
     25      -6.6184      1.00000
     26      -6.5878      1.00000
     27      -6.5071      1.00000
     28      -6.4542      1.00000
     29      -5.1021      1.00000
     30      -5.0825      1.00000
     31      -4.9613      1.00000
     32      -4.9169      1.00000
     33      -4.4339      1.00000
     34      -4.4066      1.00000
     35      -4.2445      1.00000
     36      -4.1575      1.00000
     37      -4.0295      1.00000
     38      -3.9907      1.00000
     39      -3.9628      1.00000
     40      -3.9168      1.00000
     41      -1.7455      1.00000
     42      -1.6861      1.00000
     43      -1.5223      1.00000
     44      -1.4230      1.00000
     45      -1.3019      1.00000
     46      -1.2321      1.00000
     47      -1.1517      1.00000
     48      -1.0841      1.00000
     49       4.3739      1.00000
     50       4.4401      1.00000
     51       4.4587      1.00000
     52       4.8015      1.00000
     53       5.1753      1.00000
     54       5.4316      0.96116
     55       5.5714      0.01423
     56       5.6583      0.00000
     57       5.7761      0.00000
     58       6.1542      0.00000
     59       6.7064      0.00000
     60       6.7727      0.00000
     61       6.8606      0.00000
     62       6.9590      0.00000
     63       7.1255      0.00000
     64       7.1630      0.00000
     65       7.1888      0.00000
     66       7.4814      0.00000
     67       7.5434      0.00000
     68       7.6196      0.00000
     69       7.6839      0.00000
     70       7.9180      0.00000

 k-point    41 :       0.4000    0.2857   -0.2000
  band No.  band energies     occupation 
      1     -33.8406      1.00000
      2     -33.8282      1.00000
      3     -33.8260      1.00000
      4     -33.8175      1.00000
      5     -20.3876      1.00000
      6     -20.3791      1.00000
      7     -20.2736      1.00000
      8     -20.2649      1.00000
      9     -18.8377      1.00000
     10     -18.8296      1.00000
     11     -18.6983      1.00000
     12     -18.6637      1.00000
     13     -15.1720      1.00000
     14     -15.1376      1.00000
     15     -15.0155      1.00000
     16     -15.0098      1.00000
     17     -14.9969      1.00000
     18     -14.9819      1.00000
     19     -14.9636      1.00000
     20     -14.9545      1.00000
     21     -14.8404      1.00000
     22     -14.8172      1.00000
     23     -14.8084      1.00000
     24     -14.7868      1.00000
     25      -6.6184      1.00000
     26      -6.5878      1.00000
     27      -6.5071      1.00000
     28      -6.4542      1.00000
     29      -5.1021      1.00000
     30      -5.0825      1.00000
     31      -4.9613      1.00000
     32      -4.9169      1.00000
     33      -4.4339      1.00000
     34      -4.4065      1.00000
     35      -4.2446      1.00000
     36      -4.1574      1.00000
     37      -4.0295      1.00000
     38      -3.9907      1.00000
     39      -3.9628      1.00000
     40      -3.9167      1.00000
     41      -1.7455      1.00000
     42      -1.6861      1.00000
     43      -1.5222      1.00000
     44      -1.4231      1.00000
     45      -1.3020      1.00000
     46      -1.2321      1.00000
     47      -1.1517      1.00000
     48      -1.0841      1.00000
     49       4.3740      1.00000
     50       4.4401      1.00000
     51       4.4586      1.00000
     52       4.8015      1.00000
     53       5.1753      1.00000
     54       5.4314      0.96160
     55       5.5716      0.01408
     56       5.6585      0.00000
     57       5.7760      0.00000
     58       6.1543      0.00000
     59       6.7064      0.00000
     60       6.7728      0.00000
     61       6.8606      0.00000
     62       6.9590      0.00000
     63       7.1255      0.00000
     64       7.1630      0.00000
     65       7.1887      0.00000
     66       7.4813      0.00000
     67       7.5436      0.00000
     68       7.6196      0.00000
     69       7.6840      0.00000
     70       7.9179      0.00000

 k-point    42 :      -0.2000    0.2857    0.2000
  band No.  band energies     occupation 
      1     -33.8438      1.00000
      2     -33.8276      1.00000
      3     -33.8232      1.00000
      4     -33.8177      1.00000
      5     -20.3813      1.00000
      6     -20.3727      1.00000
      7     -20.2670      1.00000
      8     -20.2562      1.00000
      9     -18.8560      1.00000
     10     -18.8502      1.00000
     11     -18.7290      1.00000
     12     -18.6561      1.00000
     13     -15.1242      1.00000
     14     -15.1101      1.00000
     15     -15.0173      1.00000
     16     -15.0117      1.00000
     17     -15.0009      1.00000
     18     -14.9739      1.00000
     19     -14.9628      1.00000
     20     -14.9465      1.00000
     21     -14.8448      1.00000
     22     -14.8340      1.00000
     23     -14.8121      1.00000
     24     -14.7846      1.00000
     25      -6.7724      1.00000
     26      -6.7407      1.00000
     27      -6.5529      1.00000
     28      -6.5055      1.00000
     29      -4.9179      1.00000
     30      -4.9156      1.00000
     31      -4.8661      1.00000
     32      -4.8285      1.00000
     33      -4.3752      1.00000
     34      -4.3564      1.00000
     35      -4.2532      1.00000
     36      -4.1449      1.00000
     37      -3.9993      1.00000
     38      -3.9699      1.00000
     39      -3.9531      1.00000
     40      -3.8776      1.00000
     41      -1.8304      1.00000
     42      -1.7105      1.00000
     43      -1.6331      1.00000
     44      -1.5795      1.00000
     45      -1.3433      1.00000
     46      -1.3168      1.00000
     47      -1.2634      1.00000
     48      -1.0532      1.00000
     49       4.1498      1.00000
     50       4.5547      1.00000
     51       4.6487      1.00000
     52       4.7356      1.00000
     53       4.9695      1.00000
     54       5.5300      0.15414
     55       5.5887      0.00368
     56       5.8667      0.00000
     57       5.8804      0.00000
     58       5.9696      0.00000
     59       6.6301      0.00000
     60       6.8228      0.00000
     61       6.8561      0.00000
     62       6.9669      0.00000
     63       7.1306      0.00000
     64       7.1650      0.00000
     65       7.3131      0.00000
     66       7.5108      0.00000
     67       7.6098      0.00000
     68       7.6791      0.00000
     69       7.7882      0.00000
     70       7.9698      0.00000

 k-point    43 :       0.2000    0.2857   -0.2000
  band No.  band energies     occupation 
      1     -33.8438      1.00000
      2     -33.8276      1.00000
      3     -33.8232      1.00000
      4     -33.8177      1.00000
      5     -20.3813      1.00000
      6     -20.3727      1.00000
      7     -20.2670      1.00000
      8     -20.2562      1.00000
      9     -18.8559      1.00000
     10     -18.8502      1.00000
     11     -18.7290      1.00000
     12     -18.6561      1.00000
     13     -15.1242      1.00000
     14     -15.1101      1.00000
     15     -15.0173      1.00000
     16     -15.0117      1.00000
     17     -15.0009      1.00000
     18     -14.9739      1.00000
     19     -14.9628      1.00000
     20     -14.9465      1.00000
     21     -14.8448      1.00000
     22     -14.8340      1.00000
     23     -14.8121      1.00000
     24     -14.7846      1.00000
     25      -6.7724      1.00000
     26      -6.7407      1.00000
     27      -6.5529      1.00000
     28      -6.5055      1.00000
     29      -4.9178      1.00000
     30      -4.9156      1.00000
     31      -4.8661      1.00000
     32      -4.8285      1.00000
     33      -4.3751      1.00000
     34      -4.3564      1.00000
     35      -4.2532      1.00000
     36      -4.1449      1.00000
     37      -3.9994      1.00000
     38      -3.9701      1.00000
     39      -3.9528      1.00000
     40      -3.8776      1.00000
     41      -1.8304      1.00000
     42      -1.7104      1.00000
     43      -1.6331      1.00000
     44      -1.5796      1.00000
     45      -1.3434      1.00000
     46      -1.3167      1.00000
     47      -1.2633      1.00000
     48      -1.0532      1.00000
     49       4.1498      1.00000
     50       4.5547      1.00000
     51       4.6487      1.00000
     52       4.7357      1.00000
     53       4.9694      1.00000
     54       5.5299      0.15506
     55       5.5889      0.00362
     56       5.8667      0.00000
     57       5.8802      0.00000
     58       5.9698      0.00000
     59       6.6302      0.00000
     60       6.8227      0.00000
     61       6.8562      0.00000
     62       6.9669      0.00000
     63       7.1306      0.00000
     64       7.1649      0.00000
     65       7.3132      0.00000
     66       7.5108      0.00000
     67       7.6098      0.00000
     68       7.6792      0.00000
     69       7.7882      0.00000
     70       7.9697      0.00000

 k-point    44 :      -0.0000    0.4286    0.2000
  band No.  band energies     occupation 
      1     -33.8373      1.00000
      2     -33.8297      1.00000
      3     -33.8230      1.00000
      4     -33.8184      1.00000
      5     -20.4152      1.00000
      6     -20.4056      1.00000
      7     -20.3132      1.00000
      8     -20.2994      1.00000
      9     -18.8700      1.00000
     10     -18.8355      1.00000
     11     -18.7567      1.00000
     12     -18.7064      1.00000
     13     -15.0623      1.00000
     14     -15.0545      1.00000
     15     -15.0295      1.00000
     16     -15.0265      1.00000
     17     -15.0224      1.00000
     18     -15.0033      1.00000
     19     -14.9236      1.00000
     20     -14.8924      1.00000
     21     -14.7233      1.00000
     22     -14.7019      1.00000
     23     -14.6905      1.00000
     24     -14.6873      1.00000
     25      -6.7751      1.00000
     26      -6.7451      1.00000
     27      -6.5385      1.00000
     28      -6.4908      1.00000
     29      -4.8948      1.00000
     30      -4.8810      1.00000
     31      -4.7941      1.00000
     32      -4.7636      1.00000
     33      -4.5958      1.00000
     34      -4.5599      1.00000
     35      -4.5493      1.00000
     36      -4.5359      1.00000
     37      -4.1255      1.00000
     38      -4.0908      1.00000
     39      -3.9375      1.00000
     40      -3.8794      1.00000
     41      -1.7118      1.00000
     42      -1.5977      1.00000
     43      -1.5920      1.00000
     44      -1.5500      1.00000
     45      -1.4374      1.00000
     46      -1.3119      1.00000
     47      -1.2646      1.00000
     48      -1.1480      1.00000
     49       3.9258      1.00000
     50       4.0849      1.00000
     51       4.7309      1.00000
     52       4.7962      1.00000
     53       5.2696      1.00000
     54       5.3650      0.99987
     55       5.7098      0.00000
     56       5.8585      0.00000
     57       5.9607      0.00000
     58       6.1776      0.00000
     59       6.5189      0.00000
     60       6.6050      0.00000
     61       6.7431      0.00000
     62       6.9011      0.00000
     63       7.0546      0.00000
     64       7.1370      0.00000
     65       7.2285      0.00000
     66       7.3400      0.00000
     67       7.7597      0.00000
     68       7.7823      0.00000
     69       8.0315      0.00000
     70       8.2018      0.00000

 k-point    45 :       0.0000    0.4286   -0.2000
  band No.  band energies     occupation 
      1     -33.8373      1.00000
      2     -33.8297      1.00000
      3     -33.8230      1.00000
      4     -33.8184      1.00000
      5     -20.4152      1.00000
      6     -20.4056      1.00000
      7     -20.3132      1.00000
      8     -20.2994      1.00000
      9     -18.8700      1.00000
     10     -18.8355      1.00000
     11     -18.7567      1.00000
     12     -18.7064      1.00000
     13     -15.0623      1.00000
     14     -15.0545      1.00000
     15     -15.0295      1.00000
     16     -15.0265      1.00000
     17     -15.0223      1.00000
     18     -15.0032      1.00000
     19     -14.9236      1.00000
     20     -14.8924      1.00000
     21     -14.7233      1.00000
     22     -14.7020      1.00000
     23     -14.6904      1.00000
     24     -14.6874      1.00000
     25      -6.7751      1.00000
     26      -6.7451      1.00000
     27      -6.5385      1.00000
     28      -6.4908      1.00000
     29      -4.8948      1.00000
     30      -4.8810      1.00000
     31      -4.7941      1.00000
     32      -4.7636      1.00000
     33      -4.5958      1.00000
     34      -4.5599      1.00000
     35      -4.5493      1.00000
     36      -4.5359      1.00000
     37      -4.1255      1.00000
     38      -4.0909      1.00000
     39      -3.9375      1.00000
     40      -3.8794      1.00000
     41      -1.7118      1.00000
     42      -1.5977      1.00000
     43      -1.5919      1.00000
     44      -1.5500      1.00000
     45      -1.4374      1.00000
     46      -1.3119      1.00000
     47      -1.2646      1.00000
     48      -1.1480      1.00000
     49       3.9258      1.00000
     50       4.0849      1.00000
     51       4.7309      1.00000
     52       4.7962      1.00000
     53       5.2697      1.00000
     54       5.3650      0.99987
     55       5.7097      0.00000
     56       5.8585      0.00000
     57       5.9607      0.00000
     58       6.1776      0.00000
     59       6.5189      0.00000
     60       6.6050      0.00000
     61       6.7431      0.00000
     62       6.9011      0.00000
     63       7.0546      0.00000
     64       7.1370      0.00000
     65       7.2285      0.00000
     66       7.3400      0.00000
     67       7.7597      0.00000
     68       7.7822      0.00000
     69       8.0315      0.00000
     70       8.2020      0.00000

 k-point    46 :       0.2000    0.4286    0.2000
  band No.  band energies     occupation 
      1     -33.8340      1.00000
      2     -33.8277      1.00000
      3     -33.8257      1.00000
      4     -33.8210      1.00000
      5     -20.4193      1.00000
      6     -20.4091      1.00000
      7     -20.3173      1.00000
      8     -20.3044      1.00000
      9     -18.8566      1.00000
     10     -18.8281      1.00000
     11     -18.7440      1.00000
     12     -18.7011      1.00000
     13     -15.1026      1.00000
     14     -15.0783      1.00000
     15     -15.0241      1.00000
     16     -15.0194      1.00000
     17     -15.0086      1.00000
     18     -15.0023      1.00000
     19     -14.9452      1.00000
     20     -14.9116      1.00000
     21     -14.7072      1.00000
     22     -14.6994      1.00000
     23     -14.6920      1.00000
     24     -14.6670      1.00000
     25      -6.6811      1.00000
     26      -6.6479      1.00000
     27      -6.5042      1.00000
     28      -6.4538      1.00000
     29      -5.0394      1.00000
     30      -5.0174      1.00000
     31      -4.8353      1.00000
     32      -4.8045      1.00000
     33      -4.6334      1.00000
     34      -4.6064      1.00000
     35      -4.5285      1.00000
     36      -4.5123      1.00000
     37      -4.1133      1.00000
     38      -4.0792      1.00000
     39      -3.9885      1.00000
     40      -3.9302      1.00000
     41      -1.7006      1.00000
     42      -1.5538      1.00000
     43      -1.4718      1.00000
     44      -1.4480      1.00000
     45      -1.3681      1.00000
     46      -1.3446      1.00000
     47      -1.2825      1.00000
     48      -1.0714      1.00000
     49       3.9836      1.00000
     50       4.1046      1.00000
     51       4.8001      1.00000
     52       4.8530      1.00000
     53       5.0366      1.00000
     54       5.1063      1.00000
     55       5.7284      0.00000
     56       5.8061      0.00000
     57       6.0574      0.00000
     58       6.4643      0.00000
     59       6.6141      0.00000
     60       6.6574      0.00000
     61       6.8817      0.00000
     62       6.9435      0.00000
     63       7.0449      0.00000
     64       7.0961      0.00000
     65       7.2933      0.00000
     66       7.3866      0.00000
     67       7.4412      0.00000
     68       7.5358      0.00000
     69       8.0017      0.00000
     70       8.0860      0.00000

 k-point    47 :      -0.2000    0.4286   -0.2000
  band No.  band energies     occupation 
      1     -33.8340      1.00000
      2     -33.8277      1.00000
      3     -33.8257      1.00000
      4     -33.8210      1.00000
      5     -20.4193      1.00000
      6     -20.4091      1.00000
      7     -20.3173      1.00000
      8     -20.3044      1.00000
      9     -18.8566      1.00000
     10     -18.8281      1.00000
     11     -18.7440      1.00000
     12     -18.7011      1.00000
     13     -15.1026      1.00000
     14     -15.0783      1.00000
     15     -15.0241      1.00000
     16     -15.0194      1.00000
     17     -15.0086      1.00000
     18     -15.0023      1.00000
     19     -14.9452      1.00000
     20     -14.9116      1.00000
     21     -14.7071      1.00000
     22     -14.6994      1.00000
     23     -14.6920      1.00000
     24     -14.6670      1.00000
     25      -6.6811      1.00000
     26      -6.6479      1.00000
     27      -6.5042      1.00000
     28      -6.4538      1.00000
     29      -5.0394      1.00000
     30      -5.0174      1.00000
     31      -4.8353      1.00000
     32      -4.8045      1.00000
     33      -4.6335      1.00000
     34      -4.6064      1.00000
     35      -4.5285      1.00000
     36      -4.5123      1.00000
     37      -4.1133      1.00000
     38      -4.0792      1.00000
     39      -3.9885      1.00000
     40      -3.9302      1.00000
     41      -1.7006      1.00000
     42      -1.5538      1.00000
     43      -1.4718      1.00000
     44      -1.4481      1.00000
     45      -1.3681      1.00000
     46      -1.3446      1.00000
     47      -1.2825      1.00000
     48      -1.0714      1.00000
     49       3.9836      1.00000
     50       4.1046      1.00000
     51       4.8001      1.00000
     52       4.8530      1.00000
     53       5.0367      1.00000
     54       5.1063      1.00000
     55       5.7284      0.00000
     56       5.8060      0.00000
     57       6.0575      0.00000
     58       6.4643      0.00000
     59       6.6141      0.00000
     60       6.6574      0.00000
     61       6.8817      0.00000
     62       6.9435      0.00000
     63       7.0449      0.00000
     64       7.0961      0.00000
     65       7.2933      0.00000
     66       7.3865      0.00000
     67       7.4413      0.00000
     68       7.5358      0.00000
     69       8.0016      0.00000
     70       8.0860      0.00000

 k-point    48 :       0.4000    0.4286    0.2000
  band No.  band energies     occupation 
      1     -33.8332      1.00000
      2     -33.8280      1.00000
      3     -33.8266      1.00000
      4     -33.8206      1.00000
      5     -20.4259      1.00000
      6     -20.4160      1.00000
      7     -20.3237      1.00000
      8     -20.3140      1.00000
      9     -18.8317      1.00000
     10     -18.8174      1.00000
     11     -18.7209      1.00000
     12     -18.6942      1.00000
     13     -15.1548      1.00000
     14     -15.1330      1.00000
     15     -15.0171      1.00000
     16     -15.0122      1.00000
     17     -14.9844      1.00000
     18     -14.9800      1.00000
     19     -14.9744      1.00000
     20     -14.9556      1.00000
     21     -14.6991      1.00000
     22     -14.6833      1.00000
     23     -14.6744      1.00000
     24     -14.6494      1.00000
     25      -6.5270      1.00000
     26      -6.4960      1.00000
     27      -6.4700      1.00000
     28      -6.4085      1.00000
     29      -5.1767      1.00000
     30      -5.1489      1.00000
     31      -4.9503      1.00000
     32      -4.9149      1.00000
     33      -4.6750      1.00000
     34      -4.6542      1.00000
     35      -4.5378      1.00000
     36      -4.5206      1.00000
     37      -4.0909      1.00000
     38      -4.0617      1.00000
     39      -4.0549      1.00000
     40      -4.0098      1.00000
     41      -1.6425      1.00000
     42      -1.5267      1.00000
     43      -1.4069      1.00000
     44      -1.3636      1.00000
     45      -1.3090      1.00000
     46      -1.2763      1.00000
     47      -1.1490      1.00000
     48      -0.9995      1.00000
     49       4.1159      1.00000
     50       4.1780      1.00000
     51       4.5729      1.00000
     52       4.6595      1.00000
     53       5.0878      1.00000
     54       5.1220      1.00000
     55       5.5649      0.02242
     56       5.6406      0.00002
     57       6.4846      0.00000
     58       6.6205      0.00000
     59       6.6936      0.00000
     60       6.8061      0.00000
     61       6.9177      0.00000
     62       6.9347      0.00000
     63       6.9821      0.00000
     64       7.0886      0.00000
     65       7.2835      0.00000
     66       7.3576      0.00000
     67       7.4832      0.00000
     68       7.5847      0.00000
     69       7.6678      0.00000
     70       7.7561      0.00000

 k-point    49 :      -0.4000    0.4286   -0.2000
  band No.  band energies     occupation 
      1     -33.8332      1.00000
      2     -33.8280      1.00000
      3     -33.8266      1.00000
      4     -33.8206      1.00000
      5     -20.4259      1.00000
      6     -20.4160      1.00000
      7     -20.3237      1.00000
      8     -20.3140      1.00000
      9     -18.8317      1.00000
     10     -18.8174      1.00000
     11     -18.7209      1.00000
     12     -18.6942      1.00000
     13     -15.1548      1.00000
     14     -15.1330      1.00000
     15     -15.0171      1.00000
     16     -15.0122      1.00000
     17     -14.9844      1.00000
     18     -14.9800      1.00000
     19     -14.9743      1.00000
     20     -14.9556      1.00000
     21     -14.6991      1.00000
     22     -14.6834      1.00000
     23     -14.6744      1.00000
     24     -14.6495      1.00000
     25      -6.5270      1.00000
     26      -6.4960      1.00000
     27      -6.4700      1.00000
     28      -6.4085      1.00000
     29      -5.1767      1.00000
     30      -5.1489      1.00000
     31      -4.9503      1.00000
     32      -4.9149      1.00000
     33      -4.6750      1.00000
     34      -4.6541      1.00000
     35      -4.5378      1.00000
     36      -4.5206      1.00000
     37      -4.0908      1.00000
     38      -4.0616      1.00000
     39      -4.0551      1.00000
     40      -4.0098      1.00000
     41      -1.6425      1.00000
     42      -1.5267      1.00000
     43      -1.4068      1.00000
     44      -1.3636      1.00000
     45      -1.3090      1.00000
     46      -1.2763      1.00000
     47      -1.1489      1.00000
     48      -0.9995      1.00000
     49       4.1159      1.00000
     50       4.1780      1.00000
     51       4.5729      1.00000
     52       4.6596      1.00000
     53       5.0878      1.00000
     54       5.1220      1.00000
     55       5.5649      0.02244
     56       5.6406      0.00002
     57       6.4847      0.00000
     58       6.6206      0.00000
     59       6.6936      0.00000
     60       6.8061      0.00000
     61       6.9178      0.00000
     62       6.9347      0.00000
     63       6.9821      0.00000
     64       7.0886      0.00000
     65       7.2835      0.00000
     66       7.3576      0.00000
     67       7.4832      0.00000
     68       7.5848      0.00000
     69       7.6677      0.00000
     70       7.7561      0.00000

 k-point    50 :      -0.4000    0.4286    0.2000
  band No.  band energies     occupation 
      1     -33.8365      1.00000
      2     -33.8304      1.00000
      3     -33.8234      1.00000
      4     -33.8182      1.00000
      5     -20.4258      1.00000
      6     -20.4168      1.00000
      7     -20.3236      1.00000
      8     -20.3151      1.00000
      9     -18.8305      1.00000
     10     -18.8172      1.00000
     11     -18.7204      1.00000
     12     -18.6940      1.00000
     13     -15.1586      1.00000
     14     -15.1427      1.00000
     15     -15.0155      1.00000
     16     -15.0017      1.00000
     17     -14.9935      1.00000
     18     -14.9874      1.00000
     19     -14.9599      1.00000
     20     -14.9535      1.00000
     21     -14.7000      1.00000
     22     -14.6803      1.00000
     23     -14.6693      1.00000
     24     -14.6517      1.00000
     25      -6.5710      1.00000
     26      -6.5375      1.00000
     27      -6.4578      1.00000
     28      -6.4010      1.00000
     29      -5.1046      1.00000
     30      -5.0852      1.00000
     31      -4.9617      1.00000
     32      -4.9193      1.00000
     33      -4.6863      1.00000
     34      -4.6691      1.00000
     35      -4.5526      1.00000
     36      -4.5228      1.00000
     37      -4.1065      1.00000
     38      -4.0730      1.00000
     39      -4.0412      1.00000
     40      -4.0046      1.00000
     41      -1.6239      1.00000
     42      -1.5603      1.00000
     43      -1.4480      1.00000
     44      -1.3741      1.00000
     45      -1.2994      1.00000
     46      -1.2458      1.00000
     47      -1.1053      1.00000
     48      -1.0254      1.00000
     49       4.2456      1.00000
     50       4.3021      1.00000
     51       4.3234      1.00000
     52       4.4156      1.00000
     53       5.3722      0.99971
     54       5.4030      0.99495
     55       5.5112      0.31259
     56       5.5804      0.00726
     57       6.1328      0.00000
     58       6.3666      0.00000
     59       6.6232      0.00000
     60       6.7080      0.00000
     61       6.7748      0.00000
     62       6.9065      0.00000
     63       7.0556      0.00000
     64       7.1624      0.00000
     65       7.3899      0.00000
     66       7.4681      0.00000
     67       7.6424      0.00000
     68       7.7597      0.00000
     69       7.7871      0.00000
     70       7.9423      0.00000

 k-point    51 :       0.4000    0.4286   -0.2000
  band No.  band energies     occupation 
      1     -33.8365      1.00000
      2     -33.8303      1.00000
      3     -33.8234      1.00000
      4     -33.8182      1.00000
      5     -20.4258      1.00000
      6     -20.4168      1.00000
      7     -20.3236      1.00000
      8     -20.3151      1.00000
      9     -18.8305      1.00000
     10     -18.8172      1.00000
     11     -18.7204      1.00000
     12     -18.6940      1.00000
     13     -15.1586      1.00000
     14     -15.1427      1.00000
     15     -15.0155      1.00000
     16     -15.0016      1.00000
     17     -14.9935      1.00000
     18     -14.9874      1.00000
     19     -14.9598      1.00000
     20     -14.9535      1.00000
     21     -14.6999      1.00000
     22     -14.6804      1.00000
     23     -14.6692      1.00000
     24     -14.6517      1.00000
     25      -6.5710      1.00000
     26      -6.5375      1.00000
     27      -6.4578      1.00000
     28      -6.4009      1.00000
     29      -5.1046      1.00000
     30      -5.0852      1.00000
     31      -4.9617      1.00000
     32      -4.9193      1.00000
     33      -4.6863      1.00000
     34      -4.6691      1.00000
     35      -4.5526      1.00000
     36      -4.5228      1.00000
     37      -4.1064      1.00000
     38      -4.0731      1.00000
     39      -4.0412      1.00000
     40      -4.0046      1.00000
     41      -1.6240      1.00000
     42      -1.5603      1.00000
     43      -1.4480      1.00000
     44      -1.3741      1.00000
     45      -1.2994      1.00000
     46      -1.2458      1.00000
     47      -1.1053      1.00000
     48      -1.0254      1.00000
     49       4.2457      1.00000
     50       4.3021      1.00000
     51       4.3234      1.00000
     52       4.4156      1.00000
     53       5.3722      0.99971
     54       5.4030      0.99496
     55       5.5112      0.31282
     56       5.5804      0.00726
     57       6.1328      0.00000
     58       6.3666      0.00000
     59       6.6232      0.00000
     60       6.7080      0.00000
     61       6.7749      0.00000
     62       6.9066      0.00000
     63       7.0555      0.00000
     64       7.1624      0.00000
     65       7.3899      0.00000
     66       7.4681      0.00000
     67       7.6424      0.00000
     68       7.7598      0.00000
     69       7.7870      0.00000
     70       7.9424      0.00000

 k-point    52 :      -0.2000    0.4286    0.2000
  band No.  band energies     occupation 
      1     -33.8383      1.00000
      2     -33.8311      1.00000
      3     -33.8219      1.00000
      4     -33.8172      1.00000
      5     -20.4192      1.00000
      6     -20.4105      1.00000
      7     -20.3173      1.00000
      8     -20.3060      1.00000
      9     -18.8553      1.00000
     10     -18.8273      1.00000
     11     -18.7434      1.00000
     12     -18.7007      1.00000
     13     -15.1147      1.00000
     14     -15.1048      1.00000
     15     -15.0305      1.00000
     16     -15.0233      1.00000
     17     -14.9863      1.00000
     18     -14.9663      1.00000
     19     -14.9455      1.00000
     20     -14.9230      1.00000
     21     -14.7153      1.00000
     22     -14.6900      1.00000
     23     -14.6828      1.00000
     24     -14.6695      1.00000
     25      -6.7249      1.00000
     26      -6.6941      1.00000
     27      -6.5021      1.00000
     28      -6.4523      1.00000
     29      -4.9157      1.00000
     30      -4.9111      1.00000
     31      -4.8645      1.00000
     32      -4.8199      1.00000
     33      -4.6496      1.00000
     34      -4.6285      1.00000
     35      -4.5601      1.00000
     36      -4.5235      1.00000
     37      -4.1244      1.00000
     38      -4.0939      1.00000
     39      -3.9754      1.00000
     40      -3.9291      1.00000
     41      -1.6530      1.00000
     42      -1.6142      1.00000
     43      -1.5373      1.00000
     44      -1.4826      1.00000
     45      -1.4142      1.00000
     46      -1.2226      1.00000
     47      -1.1916      1.00000
     48      -1.1399      1.00000
     49       4.0157      1.00000
     50       4.1769      1.00000
     51       4.5401      1.00000
     52       4.5583      1.00000
     53       5.4196      0.98234
     54       5.4731      0.72207
     55       5.7765      0.00000
     56       5.8267      0.00000
     57       5.8575      0.00000
     58       6.0874      0.00000
     59       6.5087      0.00000
     60       6.6164      0.00000
     61       6.6753      0.00000
     62       6.8293      0.00000
     63       7.0760      0.00000
     64       7.1719      0.00000
     65       7.3222      0.00000
     66       7.4490      0.00000
     67       7.8128      0.00000
     68       7.9039      0.00000
     69       7.9382      0.00000
     70       8.0884      0.00000

 k-point    53 :       0.2000    0.4286   -0.2000
  band No.  band energies     occupation 
      1     -33.8383      1.00000
      2     -33.8311      1.00000
      3     -33.8219      1.00000
      4     -33.8172      1.00000
      5     -20.4192      1.00000
      6     -20.4105      1.00000
      7     -20.3173      1.00000
      8     -20.3060      1.00000
      9     -18.8553      1.00000
     10     -18.8273      1.00000
     11     -18.7434      1.00000
     12     -18.7007      1.00000
     13     -15.1147      1.00000
     14     -15.1048      1.00000
     15     -15.0305      1.00000
     16     -15.0233      1.00000
     17     -14.9864      1.00000
     18     -14.9662      1.00000
     19     -14.9455      1.00000
     20     -14.9230      1.00000
     21     -14.7153      1.00000
     22     -14.6900      1.00000
     23     -14.6828      1.00000
     24     -14.6695      1.00000
     25      -6.7249      1.00000
     26      -6.6941      1.00000
     27      -6.5021      1.00000
     28      -6.4523      1.00000
     29      -4.9157      1.00000
     30      -4.9111      1.00000
     31      -4.8645      1.00000
     32      -4.8199      1.00000
     33      -4.6495      1.00000
     34      -4.6285      1.00000
     35      -4.5601      1.00000
     36      -4.5235      1.00000
     37      -4.1244      1.00000
     38      -4.0940      1.00000
     39      -3.9754      1.00000
     40      -3.9291      1.00000
     41      -1.6529      1.00000
     42      -1.6142      1.00000
     43      -1.5374      1.00000
     44      -1.4826      1.00000
     45      -1.4142      1.00000
     46      -1.2226      1.00000
     47      -1.1916      1.00000
     48      -1.1399      1.00000
     49       4.0157      1.00000
     50       4.1769      1.00000
     51       4.5401      1.00000
     52       4.5583      1.00000
     53       5.4196      0.98227
     54       5.4731      0.72268
     55       5.7765      0.00000
     56       5.8267      0.00000
     57       5.8575      0.00000
     58       6.0874      0.00000
     59       6.5087      0.00000
     60       6.6164      0.00000
     61       6.6754      0.00000
     62       6.8293      0.00000
     63       7.0760      0.00000
     64       7.1719      0.00000
     65       7.3222      0.00000
     66       7.4490      0.00000
     67       7.8128      0.00000
     68       7.9040      0.00000
     69       7.9383      0.00000
     70       8.0884      0.00000

 k-point    54 :       0.0000    0.0000    0.4000
  band No.  band energies     occupation 
      1     -33.8419      1.00000
      2     -33.8321      1.00000
      3     -33.8236      1.00000
      4     -33.8217      1.00000
      5     -20.3208      1.00000
      6     -20.3133      1.00000
      7     -20.1805      1.00000
      8     -20.1705      1.00000
      9     -18.8539      1.00000
     10     -18.8236      1.00000
     11     -18.6717      1.00000
     12     -18.5890      1.00000
     13     -15.2508      1.00000
     14     -15.2074      1.00000
     15     -15.1609      1.00000
     16     -15.1333      1.00000
     17     -15.0892      1.00000
     18     -15.0527      1.00000
     19     -15.0263      1.00000
     20     -14.9883      1.00000
     21     -14.9488      1.00000
     22     -14.9409      1.00000
     23     -14.8965      1.00000
     24     -14.8172      1.00000
     25      -6.7005      1.00000
     26      -6.6203      1.00000
     27      -6.5931      1.00000
     28      -6.5202      1.00000
     29      -5.0854      1.00000
     30      -5.0720      1.00000
     31      -4.9882      1.00000
     32      -4.9423      1.00000
     33      -4.0992      1.00000
     34      -4.0397      1.00000
     35      -3.9748      1.00000
     36      -3.8821      1.00000
     37      -3.7637      1.00000
     38      -3.6289      1.00000
     39      -3.5447      1.00000
     40      -3.3999      1.00000
     41      -2.0963      1.00000
     42      -1.8704      1.00000
     43      -1.6075      1.00000
     44      -1.4809      1.00000
     45      -1.4714      1.00000
     46      -1.2169      1.00000
     47      -1.1245      1.00000
     48      -1.1142      1.00000
     49       4.4138      1.00000
     50       4.8347      1.00000
     51       4.9306      1.00000
     52       5.1070      1.00000
     53       5.2931      1.00000
     54       5.4904      0.54048
     55       5.5277      0.16979
     56       5.6546      0.00000
     57       5.8250      0.00000
     58       6.0952      0.00000
     59       6.1781      0.00000
     60       6.4812      0.00000
     61       6.5874      0.00000
     62       6.7075      0.00000
     63       6.8664      0.00000
     64       6.9201      0.00000
     65       7.0281      0.00000
     66       7.1136      0.00000
     67       7.3102      0.00000
     68       7.5230      0.00000
     69       8.1108      0.00000
     70       8.2670      0.00000

 k-point    55 :       0.2000    0.0000    0.4000
  band No.  band energies     occupation 
      1     -33.8371      1.00000
      2     -33.8350      1.00000
      3     -33.8284      1.00000
      4     -33.8188      1.00000
      5     -20.3248      1.00000
      6     -20.3169      1.00000
      7     -20.1857      1.00000
      8     -20.1750      1.00000
      9     -18.8393      1.00000
     10     -18.8089      1.00000
     11     -18.6614      1.00000
     12     -18.5926      1.00000
     13     -15.2356      1.00000
     14     -15.2077      1.00000
     15     -15.1764      1.00000
     16     -15.1334      1.00000
     17     -15.1194      1.00000
     18     -15.0605      1.00000
     19     -15.0095      1.00000
     20     -14.9901      1.00000
     21     -14.9610      1.00000
     22     -14.9192      1.00000
     23     -14.8890      1.00000
     24     -14.8468      1.00000
     25      -6.6191      1.00000
     26      -6.5539      1.00000
     27      -6.5209      1.00000
     28      -6.4776      1.00000
     29      -5.2262      1.00000
     30      -5.2027      1.00000
     31      -4.9865      1.00000
     32      -4.9454      1.00000
     33      -4.1621      1.00000
     34      -4.0535      1.00000
     35      -4.0369      1.00000
     36      -3.9543      1.00000
     37      -3.7538      1.00000
     38      -3.6387      1.00000
     39      -3.5596      1.00000
     40      -3.4251      1.00000
     41      -2.0338      1.00000
     42      -1.7745      1.00000
     43      -1.5116      1.00000
     44      -1.4852      1.00000
     45      -1.3433      1.00000
     46      -1.1863      1.00000
     47      -1.1567      1.00000
     48      -1.0745      1.00000
     49       4.5758      1.00000
     50       4.7579      1.00000
     51       4.8444      1.00000
     52       4.9191      1.00000
     53       5.1631      1.00000
     54       5.4531      0.87618
     55       5.6148      0.00032
     56       5.8766      0.00000
     57       5.9772      0.00000
     58       6.0568      0.00000
     59       6.2733      0.00000
     60       6.4326      0.00000
     61       6.4742      0.00000
     62       6.6327      0.00000
     63       6.7400      0.00000
     64       6.8227      0.00000
     65       6.9969      0.00000
     66       7.0172      0.00000
     67       7.5064      0.00000
     68       7.7001      0.00000
     69       8.1156      0.00000
     70       8.1960      0.00000

 k-point    56 :       0.4000    0.0000    0.4000
  band No.  band energies     occupation 
      1     -33.8386      1.00000
      2     -33.8338      1.00000
      3     -33.8287      1.00000
      4     -33.8183      1.00000
      5     -20.3313      1.00000
      6     -20.3232      1.00000
      7     -20.1945      1.00000
      8     -20.1830      1.00000
      9     -18.8075      1.00000
     10     -18.7901      1.00000
     11     -18.6361      1.00000
     12     -18.6083      1.00000
     13     -15.2095      1.00000
     14     -15.2046      1.00000
     15     -15.1921      1.00000
     16     -15.1486      1.00000
     17     -15.1422      1.00000
     18     -15.1019      1.00000
     19     -14.9884      1.00000
     20     -14.9857      1.00000
     21     -14.9639      1.00000
     22     -14.9200      1.00000
     23     -14.8801      1.00000
     24     -14.8659      1.00000
     25      -6.4858      1.00000
     26      -6.4571      1.00000
     27      -6.4200      1.00000
     28      -6.3929      1.00000
     29      -5.3865      1.00000
     30      -5.3513      1.00000
     31      -5.0343      1.00000
     32      -4.9922      1.00000
     33      -4.2596      1.00000
     34      -4.1873      1.00000
     35      -4.0740      1.00000
     36      -4.0317      1.00000
     37      -3.7241      1.00000
     38      -3.6795      1.00000
     39      -3.5519      1.00000
     40      -3.4858      1.00000
     41      -1.8601      1.00000
     42      -1.6491      1.00000
     43      -1.5443      1.00000
     44      -1.3511      1.00000
     45      -1.2692      1.00000
     46      -1.1233      1.00000
     47      -1.0926      1.00000
     48      -1.0358      1.00000
     49       4.5483      1.00000
     50       4.7365      1.00000
     51       4.7835      1.00000
     52       4.8590      1.00000
     53       5.2364      1.00000
     54       5.3755      0.99960
     55       5.6806      0.00000
     56       5.7313      0.00000
     57       6.1170      0.00000
     58       6.1931      0.00000
     59       6.2499      0.00000
     60       6.2852      0.00000
     61       6.4316      0.00000
     62       6.4819      0.00000
     63       6.5938      0.00000
     64       6.7315      0.00000
     65       7.1307      0.00000
     66       7.1754      0.00000
     67       7.7303      0.00000
     68       7.7975      0.00000
     69       7.8914      0.00000
     70       8.0198      0.00000

 k-point    57 :      -0.4000    0.0000    0.4000
  band No.  band energies     occupation 
      1     -33.8427      1.00000
      2     -33.8321      1.00000
      3     -33.8247      1.00000
      4     -33.8198      1.00000
      5     -20.3313      1.00000
      6     -20.3237      1.00000
      7     -20.1949      1.00000
      8     -20.1834      1.00000
      9     -18.8024      1.00000
     10     -18.7928      1.00000
     11     -18.6391      1.00000
     12     -18.6063      1.00000
     13     -15.2315      1.00000
     14     -15.1822      1.00000
     15     -15.1709      1.00000
     16     -15.1699      1.00000
     17     -15.1346      1.00000
     18     -15.1141      1.00000
     19     -14.9975      1.00000
     20     -14.9731      1.00000
     21     -14.9521      1.00000
     22     -14.9488      1.00000
     23     -14.8911      1.00000
     24     -14.8350      1.00000
     25      -6.5039      1.00000
     26      -6.4616      1.00000
     27      -6.4474      1.00000
     28      -6.3981      1.00000
     29      -5.3444      1.00000
     30      -5.3070      1.00000
     31      -5.0346      1.00000
     32      -4.9924      1.00000
     33      -4.2597      1.00000
     34      -4.2262      1.00000
     35      -4.0729      1.00000
     36      -4.0290      1.00000
     37      -3.7267      1.00000
     38      -3.6768      1.00000
     39      -3.5373      1.00000
     40      -3.5024      1.00000
     41      -1.8212      1.00000
     42      -1.6810      1.00000
     43      -1.5699      1.00000
     44      -1.3326      1.00000
     45      -1.2271      1.00000
     46      -1.1732      1.00000
     47      -1.1265      1.00000
     48      -0.9942      1.00000
     49       4.5702      1.00000
     50       4.6739      1.00000
     51       4.7262      1.00000
     52       4.8934      1.00000
     53       5.3512      0.99997
     54       5.3739      0.99966
     55       5.6374      0.00002
     56       5.6901      0.00000
     57       6.0414      0.00000
     58       6.2072      0.00000
     59       6.2486      0.00000
     60       6.2598      0.00000
     61       6.3423      0.00000
     62       6.4841      0.00000
     63       6.5683      0.00000
     64       6.9532      0.00000
     65       7.2337      0.00000
     66       7.2640      0.00000
     67       7.6979      0.00000
     68       7.7249      0.00000
     69       7.8094      0.00000
     70       8.1329      0.00000

 k-point    58 :      -0.2000    0.0000    0.4000
  band No.  band energies     occupation 
      1     -33.8443      1.00000
      2     -33.8289      1.00000
      3     -33.8258      1.00000
      4     -33.8204      1.00000
      5     -20.3248      1.00000
      6     -20.3175      1.00000
      7     -20.1864      1.00000
      8     -20.1756      1.00000
      9     -18.8346      1.00000
     10     -18.8101      1.00000
     11     -18.6633      1.00000
     12     -18.5917      1.00000
     13     -15.2493      1.00000
     14     -15.1935      1.00000
     15     -15.1626      1.00000
     16     -15.1478      1.00000
     17     -15.1088      1.00000
     18     -15.0812      1.00000
     19     -15.0205      1.00000
     20     -14.9681      1.00000
     21     -14.9599      1.00000
     22     -14.9351      1.00000
     23     -14.9053      1.00000
     24     -14.8125      1.00000
     25      -6.6478      1.00000
     26      -6.5821      1.00000
     27      -6.5393      1.00000
     28      -6.4705      1.00000
     29      -5.1581      1.00000
     30      -5.1342      1.00000
     31      -4.9983      1.00000
     32      -4.9532      1.00000
     33      -4.1885      1.00000
     34      -4.1012      1.00000
     35      -4.0358      1.00000
     36      -3.9373      1.00000
     37      -3.7552      1.00000
     38      -3.6365      1.00000
     39      -3.5523      1.00000
     40      -3.4366      1.00000
     41      -2.0050      1.00000
     42      -1.7957      1.00000
     43      -1.5270      1.00000
     44      -1.4682      1.00000
     45      -1.3570      1.00000
     46      -1.1863      1.00000
     47      -1.1737      1.00000
     48      -1.0530      1.00000
     49       4.3540      1.00000
     50       4.8158      1.00000
     51       4.8473      1.00000
     52       5.0569      1.00000
     53       5.2291      1.00000
     54       5.5053      0.37483
     55       5.7250      0.00000
     56       5.8419      0.00000
     57       5.8777      0.00000
     58       5.9936      0.00000
     59       6.1967      0.00000
     60       6.3091      0.00000
     61       6.4242      0.00000
     62       6.4740      0.00000
     63       6.6987      0.00000
     64       7.0868      0.00000
     65       7.2168      0.00000
     66       7.3065      0.00000
     67       7.4752      0.00000
     68       7.5639      0.00000
     69       7.9198      0.00000
     70       8.2029      0.00000

 k-point    59 :       0.0000    0.1429    0.4000
  band No.  band energies     occupation 
      1     -33.8406      1.00000
      2     -33.8314      1.00000
      3     -33.8236      1.00000
      4     -33.8217      1.00000
      5     -20.3420      1.00000
      6     -20.3347      1.00000
      7     -20.2103      1.00000
      8     -20.1999      1.00000
      9     -18.8498      1.00000
     10     -18.8265      1.00000
     11     -18.6817      1.00000
     12     -18.6073      1.00000
     13     -15.1852      1.00000
     14     -15.1552      1.00000
     15     -15.1154      1.00000
     16     -15.0923      1.00000
     17     -15.0603      1.00000
     18     -15.0141      1.00000
     19     -14.9967      1.00000
     20     -14.9628      1.00000
     21     -14.9449      1.00000
     22     -14.9366      1.00000
     23     -14.9068      1.00000
     24     -14.8296      1.00000
     25      -6.6779      1.00000
     26      -6.6084      1.00000
     27      -6.5720      1.00000
     28      -6.5061      1.00000
     29      -5.0838      1.00000
     30      -5.0707      1.00000
     31      -4.9884      1.00000
     32      -4.9422      1.00000
     33      -4.1462      1.00000
     34      -4.1007      1.00000
     35      -4.0214      1.00000
     36      -3.9523      1.00000
     37      -3.8659      1.00000
     38      -3.7668      1.00000
     39      -3.7131      1.00000
     40      -3.6091      1.00000
     41      -2.0034      1.00000
     42      -1.8116      1.00000
     43      -1.5790      1.00000
     44      -1.4638      1.00000
     45      -1.4455      1.00000
     46      -1.2360      1.00000
     47      -1.1577      1.00000
     48      -1.0718      1.00000
     49       4.6047      1.00000
     50       4.6351      1.00000
     51       4.8501      1.00000
     52       4.8902      1.00000
     53       5.0005      1.00000
     54       5.2923      1.00000
     55       5.5654      0.02168
     56       5.7451      0.00000
     57       6.1337      0.00000
     58       6.2405      0.00000
     59       6.4254      0.00000
     60       6.5588      0.00000
     61       6.6015      0.00000
     62       6.7040      0.00000
     63       6.7581      0.00000
     64       6.9074      0.00000
     65       7.1536      0.00000
     66       7.3447      0.00000
     67       7.5407      0.00000
     68       7.6237      0.00000
     69       8.0313      0.00000
     70       8.0397      0.00000

 k-point    60 :      -0.0000    0.1429   -0.4000
  band No.  band energies     occupation 
      1     -33.8406      1.00000
      2     -33.8314      1.00000
      3     -33.8236      1.00000
      4     -33.8217      1.00000
      5     -20.3420      1.00000
      6     -20.3347      1.00000
      7     -20.2103      1.00000
      8     -20.1999      1.00000
      9     -18.8498      1.00000
     10     -18.8265      1.00000
     11     -18.6817      1.00000
     12     -18.6073      1.00000
     13     -15.1852      1.00000
     14     -15.1552      1.00000
     15     -15.1154      1.00000
     16     -15.0923      1.00000
     17     -15.0603      1.00000
     18     -15.0141      1.00000
     19     -14.9967      1.00000
     20     -14.9628      1.00000
     21     -14.9449      1.00000
     22     -14.9366      1.00000
     23     -14.9068      1.00000
     24     -14.8296      1.00000
     25      -6.6779      1.00000
     26      -6.6085      1.00000
     27      -6.5720      1.00000
     28      -6.5061      1.00000
     29      -5.0838      1.00000
     30      -5.0707      1.00000
     31      -4.9884      1.00000
     32      -4.9422      1.00000
     33      -4.1462      1.00000
     34      -4.1008      1.00000
     35      -4.0214      1.00000
     36      -3.9523      1.00000
     37      -3.8659      1.00000
     38      -3.7668      1.00000
     39      -3.7131      1.00000
     40      -3.6091      1.00000
     41      -2.0034      1.00000
     42      -1.8116      1.00000
     43      -1.5791      1.00000
     44      -1.4639      1.00000
     45      -1.4455      1.00000
     46      -1.2360      1.00000
     47      -1.1576      1.00000
     48      -1.0719      1.00000
     49       4.6048      1.00000
     50       4.6351      1.00000
     51       4.8501      1.00000
     52       4.8901      1.00000
     53       5.0004      1.00000
     54       5.2925      1.00000
     55       5.5654      0.02171
     56       5.7450      0.00000
     57       6.1337      0.00000
     58       6.2406      0.00000
     59       6.4255      0.00000
     60       6.5588      0.00000
     61       6.6015      0.00000
     62       6.7040      0.00000
     63       6.7581      0.00000
     64       6.9071      0.00000
     65       7.1537      0.00000
     66       7.3447      0.00000
     67       7.5406      0.00000
     68       7.6238      0.00000
     69       8.0313      0.00000
     70       8.0396      0.00000

 k-point    61 :       0.2000    0.1429    0.4000
  band No.  band energies     occupation 
      1     -33.8362      1.00000
      2     -33.8340      1.00000
      3     -33.8280      1.00000
      4     -33.8190      1.00000
      5     -20.3461      1.00000
      6     -20.3383      1.00000
      7     -20.2154      1.00000
      8     -20.2045      1.00000
      9     -18.8357      1.00000
     10     -18.8117      1.00000
     11     -18.6714      1.00000
     12     -18.6095      1.00000
     13     -15.2071      1.00000
     14     -15.1385      1.00000
     15     -15.1303      1.00000
     16     -15.1095      1.00000
     17     -15.0578      1.00000
     18     -15.0076      1.00000
     19     -14.9916      1.00000
     20     -14.9686      1.00000
     21     -14.9554      1.00000
     22     -14.9164      1.00000
     23     -14.8972      1.00000
     24     -14.8562      1.00000
     25      -6.5968      1.00000
     26      -6.5362      1.00000
     27      -6.5064      1.00000
     28      -6.4626      1.00000
     29      -5.2256      1.00000
     30      -5.2017      1.00000
     31      -4.9855      1.00000
     32      -4.9444      1.00000
     33      -4.2229      1.00000
     34      -4.1231      1.00000
     35      -4.0831      1.00000
     36      -3.9937      1.00000
     37      -3.8612      1.00000
     38      -3.7869      1.00000
     39      -3.7298      1.00000
     40      -3.6086      1.00000
     41      -1.9496      1.00000
     42      -1.7315      1.00000
     43      -1.4808      1.00000
     44      -1.4492      1.00000
     45      -1.3339      1.00000
     46      -1.2447      1.00000
     47      -1.1475      1.00000
     48      -1.0309      1.00000
     49       4.5487      1.00000
     50       4.6117      1.00000
     51       4.7767      1.00000
     52       4.8029      1.00000
     53       5.1053      1.00000
     54       5.4309      0.96288
     55       5.5183      0.24595
     56       5.7731      0.00000
     57       6.1140      0.00000
     58       6.2923      0.00000
     59       6.3918      0.00000
     60       6.4987      0.00000
     61       6.5817      0.00000
     62       6.7165      0.00000
     63       6.8633      0.00000
     64       6.9312      0.00000
     65       6.9643      0.00000
     66       7.1892      0.00000
     67       7.5780      0.00000
     68       7.7994      0.00000
     69       7.8949      0.00000
     70       7.9189      0.00000

 k-point    62 :      -0.2000    0.1429   -0.4000
  band No.  band energies     occupation 
      1     -33.8362      1.00000
      2     -33.8340      1.00000
      3     -33.8280      1.00000
      4     -33.8190      1.00000
      5     -20.3461      1.00000
      6     -20.3383      1.00000
      7     -20.2154      1.00000
      8     -20.2045      1.00000
      9     -18.8357      1.00000
     10     -18.8117      1.00000
     11     -18.6714      1.00000
     12     -18.6095      1.00000
     13     -15.2071      1.00000
     14     -15.1385      1.00000
     15     -15.1303      1.00000
     16     -15.1096      1.00000
     17     -15.0578      1.00000
     18     -15.0077      1.00000
     19     -14.9916      1.00000
     20     -14.9686      1.00000
     21     -14.9554      1.00000
     22     -14.9164      1.00000
     23     -14.8972      1.00000
     24     -14.8562      1.00000
     25      -6.5968      1.00000
     26      -6.5362      1.00000
     27      -6.5064      1.00000
     28      -6.4626      1.00000
     29      -5.2256      1.00000
     30      -5.2017      1.00000
     31      -4.9855      1.00000
     32      -4.9444      1.00000
     33      -4.2229      1.00000
     34      -4.1231      1.00000
     35      -4.0830      1.00000
     36      -3.9937      1.00000
     37      -3.8612      1.00000
     38      -3.7869      1.00000
     39      -3.7298      1.00000
     40      -3.6086      1.00000
     41      -1.9497      1.00000
     42      -1.7314      1.00000
     43      -1.4808      1.00000
     44      -1.4492      1.00000
     45      -1.3339      1.00000
     46      -1.2447      1.00000
     47      -1.1475      1.00000
     48      -1.0309      1.00000
     49       4.5488      1.00000
     50       4.6116      1.00000
     51       4.7764      1.00000
     52       4.8031      1.00000
     53       5.1054      1.00000
     54       5.4309      0.96272
     55       5.5184      0.24442
     56       5.7730      0.00000
     57       6.1139      0.00000
     58       6.2924      0.00000
     59       6.3917      0.00000
     60       6.4988      0.00000
     61       6.5818      0.00000
     62       6.7164      0.00000
     63       6.8633      0.00000
     64       6.9312      0.00000
     65       6.9641      0.00000
     66       7.1893      0.00000
     67       7.5780      0.00000
     68       7.7994      0.00000
     69       7.8949      0.00000
     70       7.9190      0.00000

 k-point    63 :       0.4000    0.1429    0.4000
  band No.  band energies     occupation 
      1     -33.8380      1.00000
      2     -33.8332      1.00000
      3     -33.8278      1.00000
      4     -33.8181      1.00000
      5     -20.3528      1.00000
      6     -20.3448      1.00000
      7     -20.2241      1.00000
      8     -20.2127      1.00000
      9     -18.8058      1.00000
     10     -18.7917      1.00000
     11     -18.6473      1.00000
     12     -18.6218      1.00000
     13     -15.2218      1.00000
     14     -15.1783      1.00000
     15     -15.1292      1.00000
     16     -15.1210      1.00000
     17     -15.0387      1.00000
     18     -15.0040      1.00000
     19     -14.9857      1.00000
     20     -14.9725      1.00000
     21     -14.9657      1.00000
     22     -14.9320      1.00000
     23     -14.8782      1.00000
     24     -14.8641      1.00000
     25      -6.4661      1.00000
     26      -6.4391      1.00000
     27      -6.4047      1.00000
     28      -6.3758      1.00000
     29      -5.3868      1.00000
     30      -5.3505      1.00000
     31      -5.0326      1.00000
     32      -4.9906      1.00000
     33      -4.3321      1.00000
     34      -4.2766      1.00000
     35      -4.0958      1.00000
     36      -4.0526      1.00000
     37      -3.8475      1.00000
     38      -3.8232      1.00000
     39      -3.7185      1.00000
     40      -3.6474      1.00000
     41      -1.7955      1.00000
     42      -1.6108      1.00000
     43      -1.5285      1.00000
     44      -1.3648      1.00000
     45      -1.2325      1.00000
     46      -1.1208      1.00000
     47      -1.0885      1.00000
     48      -1.0082      1.00000
     49       4.4089      1.00000
     50       4.5191      1.00000
     51       4.7768      1.00000
     52       4.8174      1.00000
     53       5.3051      1.00000
     54       5.3873      0.99872
     55       5.5831      0.00585
     56       5.6547      0.00000
     57       6.1051      0.00000
     58       6.1625      0.00000
     59       6.4087      0.00000
     60       6.4732      0.00000
     61       6.5690      0.00000
     62       6.6638      0.00000
     63       6.7993      0.00000
     64       6.8673      0.00000
     65       7.0613      0.00000
     66       7.2213      0.00000
     67       7.7304      0.00000
     68       7.7874      0.00000
     69       7.8792      0.00000
     70       7.9540      0.00000

 k-point    64 :      -0.4000    0.1429   -0.4000
  band No.  band energies     occupation 
      1     -33.8380      1.00000
      2     -33.8332      1.00000
      3     -33.8278      1.00000
      4     -33.8181      1.00000
      5     -20.3528      1.00000
      6     -20.3447      1.00000
      7     -20.2241      1.00000
      8     -20.2127      1.00000
      9     -18.8058      1.00000
     10     -18.7917      1.00000
     11     -18.6473      1.00000
     12     -18.6218      1.00000
     13     -15.2218      1.00000
     14     -15.1783      1.00000
     15     -15.1292      1.00000
     16     -15.1210      1.00000
     17     -15.0386      1.00000
     18     -15.0041      1.00000
     19     -14.9857      1.00000
     20     -14.9725      1.00000
     21     -14.9657      1.00000
     22     -14.9321      1.00000
     23     -14.8782      1.00000
     24     -14.8641      1.00000
     25      -6.4661      1.00000
     26      -6.4391      1.00000
     27      -6.4047      1.00000
     28      -6.3758      1.00000
     29      -5.3868      1.00000
     30      -5.3505      1.00000
     31      -5.0326      1.00000
     32      -4.9906      1.00000
     33      -4.3321      1.00000
     34      -4.2765      1.00000
     35      -4.0957      1.00000
     36      -4.0527      1.00000
     37      -3.8475      1.00000
     38      -3.8232      1.00000
     39      -3.7185      1.00000
     40      -3.6474      1.00000
     41      -1.7955      1.00000
     42      -1.6108      1.00000
     43      -1.5285      1.00000
     44      -1.3648      1.00000
     45      -1.2325      1.00000
     46      -1.1208      1.00000
     47      -1.0884      1.00000
     48      -1.0082      1.00000
     49       4.4090      1.00000
     50       4.5190      1.00000
     51       4.7768      1.00000
     52       4.8174      1.00000
     53       5.3050      1.00000
     54       5.3875      0.99870
     55       5.5832      0.00580
     56       5.6546      0.00000
     57       6.1051      0.00000
     58       6.1625      0.00000
     59       6.4088      0.00000
     60       6.4732      0.00000
     61       6.5690      0.00000
     62       6.6638      0.00000
     63       6.7993      0.00000
     64       6.8672      0.00000
     65       7.0612      0.00000
     66       7.2213      0.00000
     67       7.7304      0.00000
     68       7.7874      0.00000
     69       7.8792      0.00000
     70       7.9540      0.00000

 k-point    65 :      -0.4000    0.1429    0.4000
  band No.  band energies     occupation 
      1     -33.8417      1.00000
      2     -33.8320      1.00000
      3     -33.8242      1.00000
      4     -33.8193      1.00000
      5     -20.3528      1.00000
      6     -20.3451      1.00000
      7     -20.2244      1.00000
      8     -20.2131      1.00000
      9     -18.8018      1.00000
     10     -18.7934      1.00000
     11     -18.6498      1.00000
     12     -18.6201      1.00000
     13     -15.2069      1.00000
     14     -15.1946      1.00000
     15     -15.1501      1.00000
     16     -15.1035      1.00000
     17     -15.0236      1.00000
     18     -15.0072      1.00000
     19     -14.9900      1.00000
     20     -14.9767      1.00000
     21     -14.9606      1.00000
     22     -14.9547      1.00000
     23     -14.8835      1.00000
     24     -14.8376      1.00000
     25      -6.4863      1.00000
     26      -6.4445      1.00000
     27      -6.4307      1.00000
     28      -6.3800      1.00000
     29      -5.3430      1.00000
     30      -5.3070      1.00000
     31      -5.0326      1.00000
     32      -4.9905      1.00000
     33      -4.3369      1.00000
     34      -4.3126      1.00000
     35      -4.0901      1.00000
     36      -4.0478      1.00000
     37      -3.8674      1.00000
     38      -3.8074      1.00000
     39      -3.6926      1.00000
     40      -3.6746      1.00000
     41      -1.7703      1.00000
     42      -1.6357      1.00000
     43      -1.5552      1.00000
     44      -1.3341      1.00000
     45      -1.2135      1.00000
     46      -1.1378      1.00000
     47      -1.0988      1.00000
     48      -1.0070      1.00000
     49       4.4733      1.00000
     50       4.4897      1.00000
     51       4.7503      1.00000
     52       4.7951      1.00000
     53       5.3503      0.99998
     54       5.3871      0.99875
     55       5.5899      0.00333
     56       5.6430      0.00001
     57       5.8432      0.00000
     58       6.0923      0.00000
     59       6.4638      0.00000
     60       6.4950      0.00000
     61       6.6289      0.00000
     62       6.6674      0.00000
     63       6.7679      0.00000
     64       7.0836      0.00000
     65       7.1943      0.00000
     66       7.2205      0.00000
     67       7.7172      0.00000
     68       7.7692      0.00000
     69       7.8952      0.00000
     70       7.9984      0.00000

 k-point    66 :       0.4000    0.1429   -0.4000
  band No.  band energies     occupation 
      1     -33.8417      1.00000
      2     -33.8320      1.00000
      3     -33.8242      1.00000
      4     -33.8193      1.00000
      5     -20.3528      1.00000
      6     -20.3451      1.00000
      7     -20.2244      1.00000
      8     -20.2131      1.00000
      9     -18.8018      1.00000
     10     -18.7935      1.00000
     11     -18.6498      1.00000
     12     -18.6201      1.00000
     13     -15.2070      1.00000
     14     -15.1946      1.00000
     15     -15.1501      1.00000
     16     -15.1035      1.00000
     17     -15.0236      1.00000
     18     -15.0073      1.00000
     19     -14.9900      1.00000
     20     -14.9767      1.00000
     21     -14.9606      1.00000
     22     -14.9547      1.00000
     23     -14.8835      1.00000
     24     -14.8376      1.00000
     25      -6.4863      1.00000
     26      -6.4445      1.00000
     27      -6.4307      1.00000
     28      -6.3800      1.00000
     29      -5.3430      1.00000
     30      -5.3070      1.00000
     31      -5.0326      1.00000
     32      -4.9905      1.00000
     33      -4.3369      1.00000
     34      -4.3126      1.00000
     35      -4.0902      1.00000
     36      -4.0478      1.00000
     37      -3.8674      1.00000
     38      -3.8074      1.00000
     39      -3.6926      1.00000
     40      -3.6746      1.00000
     41      -1.7703      1.00000
     42      -1.6357      1.00000
     43      -1.5552      1.00000
     44      -1.3341      1.00000
     45      -1.2135      1.00000
     46      -1.1378      1.00000
     47      -1.0989      1.00000
     48      -1.0070      1.00000
     49       4.4734      1.00000
     50       4.4896      1.00000
     51       4.7503      1.00000
     52       4.7950      1.00000
     53       5.3503      0.99998
     54       5.3870      0.99876
     55       5.5899      0.00333
     56       5.6432      0.00001
     57       5.8431      0.00000
     58       6.0922      0.00000
     59       6.4638      0.00000
     60       6.4950      0.00000
     61       6.6289      0.00000
     62       6.6673      0.00000
     63       6.7680      0.00000
     64       7.0836      0.00000
     65       7.1943      0.00000
     66       7.2204      0.00000
     67       7.7172      0.00000
     68       7.7693      0.00000
     69       7.8952      0.00000
     70       7.9984      0.00000

 k-point    67 :      -0.2000    0.1429    0.4000
  band No.  band energies     occupation 
      1     -33.8430      1.00000
      2     -33.8288      1.00000
      3     -33.8254      1.00000
      4     -33.8200      1.00000
      5     -20.3462      1.00000
      6     -20.3390      1.00000
      7     -20.2160      1.00000
      8     -20.2052      1.00000
      9     -18.8316      1.00000
     10     -18.8126      1.00000
     11     -18.6731      1.00000
     12     -18.6088      1.00000
     13     -15.1841      1.00000
     14     -15.1695      1.00000
     15     -15.1545      1.00000
     16     -15.0869      1.00000
     17     -15.0395      1.00000
     18     -15.0147      1.00000
     19     -14.9932      1.00000
     20     -14.9677      1.00000
     21     -14.9553      1.00000
     22     -14.9454      1.00000
     23     -14.9006      1.00000
     24     -14.8211      1.00000
     25      -6.6271      1.00000
     26      -6.5699      1.00000
     27      -6.5185      1.00000
     28      -6.4552      1.00000
     29      -5.1559      1.00000
     30      -5.1341      1.00000
     31      -4.9968      1.00000
     32      -4.9521      1.00000
     33      -4.2590      1.00000
     34      -4.1780      1.00000
     35      -4.0609      1.00000
     36      -3.9698      1.00000
     37      -3.8811      1.00000
     38      -3.7725      1.00000
     39      -3.7143      1.00000
     40      -3.6298      1.00000
     41      -1.9308      1.00000
     42      -1.7504      1.00000
     43      -1.5068      1.00000
     44      -1.4468      1.00000
     45      -1.3282      1.00000
     46      -1.2072      1.00000
     47      -1.1308      1.00000
     48      -1.0717      1.00000
     49       4.5469      1.00000
     50       4.6289      1.00000
     51       4.6915      1.00000
     52       4.7292      1.00000
     53       5.2569      1.00000
     54       5.4824      0.62845
     55       5.5514      0.05202
     56       5.7666      0.00000
     57       5.9748      0.00000
     58       6.0459      0.00000
     59       6.4355      0.00000
     60       6.5101      0.00000
     61       6.5999      0.00000
     62       6.6995      0.00000
     63       6.8198      0.00000
     64       7.0417      0.00000
     65       7.1007      0.00000
     66       7.3834      0.00000
     67       7.6809      0.00000
     68       7.7518      0.00000
     69       7.9032      0.00000
     70       7.9673      0.00000

 k-point    68 :       0.2000    0.1429   -0.4000
  band No.  band energies     occupation 
      1     -33.8430      1.00000
      2     -33.8288      1.00000
      3     -33.8254      1.00000
      4     -33.8200      1.00000
      5     -20.3462      1.00000
      6     -20.3390      1.00000
      7     -20.2160      1.00000
      8     -20.2052      1.00000
      9     -18.8316      1.00000
     10     -18.8126      1.00000
     11     -18.6731      1.00000
     12     -18.6088      1.00000
     13     -15.1841      1.00000
     14     -15.1695      1.00000
     15     -15.1545      1.00000
     16     -15.0869      1.00000
     17     -15.0395      1.00000
     18     -15.0147      1.00000
     19     -14.9932      1.00000
     20     -14.9677      1.00000
     21     -14.9553      1.00000
     22     -14.9454      1.00000
     23     -14.9006      1.00000
     24     -14.8211      1.00000
     25      -6.6271      1.00000
     26      -6.5699      1.00000
     27      -6.5185      1.00000
     28      -6.4551      1.00000
     29      -5.1559      1.00000
     30      -5.1341      1.00000
     31      -4.9968      1.00000
     32      -4.9521      1.00000
     33      -4.2590      1.00000
     34      -4.1781      1.00000
     35      -4.0609      1.00000
     36      -3.9697      1.00000
     37      -3.8811      1.00000
     38      -3.7725      1.00000
     39      -3.7143      1.00000
     40      -3.6298      1.00000
     41      -1.9308      1.00000
     42      -1.7504      1.00000
     43      -1.5068      1.00000
     44      -1.4468      1.00000
     45      -1.3282      1.00000
     46      -1.2072      1.00000
     47      -1.1308      1.00000
     48      -1.0716      1.00000
     49       4.5467      1.00000
     50       4.6290      1.00000
     51       4.6917      1.00000
     52       4.7291      1.00000
     53       5.2568      1.00000
     54       5.4824      0.62782
     55       5.5513      0.05249
     56       5.7668      0.00000
     57       5.9747      0.00000
     58       6.0459      0.00000
     59       6.4355      0.00000
     60       6.5101      0.00000
     61       6.6000      0.00000
     62       6.6993      0.00000
     63       6.8198      0.00000
     64       7.0418      0.00000
     65       7.1007      0.00000
     66       7.3834      0.00000
     67       7.6809      0.00000
     68       7.7518      0.00000
     69       7.9032      0.00000
     70       7.9673      0.00000

 k-point    69 :       0.0000    0.2857    0.4000
  band No.  band energies     occupation 
      1     -33.8371      1.00000
      2     -33.8297      1.00000
      3     -33.8241      1.00000
      4     -33.8215      1.00000
      5     -20.3889      1.00000
      6     -20.3826      1.00000
      7     -20.2761      1.00000
      8     -20.2645      1.00000
      9     -18.8341      1.00000
     10     -18.8303      1.00000
     11     -18.7017      1.00000
     12     -18.6499      1.00000
     13     -15.1183      1.00000
     14     -15.1146      1.00000
     15     -15.0842      1.00000
     16     -15.0660      1.00000
     17     -14.9941      1.00000
     18     -14.9791      1.00000
     19     -14.9511      1.00000
     20     -14.9202      1.00000
     21     -14.8404      1.00000
     22     -14.8251      1.00000
     23     -14.8079      1.00000
     24     -14.7942      1.00000
     25      -6.6217      1.00000
     26      -6.5725      1.00000
     27      -6.5166      1.00000
     28      -6.4649      1.00000
     29      -5.0811      1.00000
     30      -5.0689      1.00000
     31      -4.9898      1.00000
     32      -4.9419      1.00000
     33      -4.3763      1.00000
     34      -4.3040      1.00000
     35      -4.2731      1.00000
     36      -4.2166      1.00000
     37      -4.0161      1.00000
     38      -4.0035      1.00000
     39      -3.9711      1.00000
     40      -3.9106      1.00000
     41      -1.7679      1.00000
     42      -1.6595      1.00000
     43      -1.4873      1.00000
     44      -1.4329      1.00000
     45      -1.3860      1.00000
     46      -1.2998      1.00000
     47      -1.1494      1.00000
     48      -1.0534      1.00000
     49       4.2658      1.00000
     50       4.4902      1.00000
     51       4.5556      1.00000
     52       4.7418      1.00000
     53       5.1147      1.00000
     54       5.4904      0.54046
     55       5.5940      0.00233
     56       5.6540      0.00000
     57       5.9161      0.00000
     58       6.3708      0.00000
     59       6.6518      0.00000
     60       6.7086      0.00000
     61       6.7553      0.00000
     62       6.9234      0.00000
     63       7.0147      0.00000
     64       7.1868      0.00000
     65       7.3542      0.00000
     66       7.5002      0.00000
     67       7.5485      0.00000
     68       7.5821      0.00000
     69       7.6670      0.00000
     70       7.7455      0.00000

 k-point    70 :      -0.0000    0.2857   -0.4000
  band No.  band energies     occupation 
      1     -33.8371      1.00000
      2     -33.8297      1.00000
      3     -33.8241      1.00000
      4     -33.8215      1.00000
      5     -20.3890      1.00000
      6     -20.3826      1.00000
      7     -20.2761      1.00000
      8     -20.2645      1.00000
      9     -18.8341      1.00000
     10     -18.8304      1.00000
     11     -18.7017      1.00000
     12     -18.6499      1.00000
     13     -15.1183      1.00000
     14     -15.1145      1.00000
     15     -15.0843      1.00000
     16     -15.0660      1.00000
     17     -14.9941      1.00000
     18     -14.9791      1.00000
     19     -14.9511      1.00000
     20     -14.9202      1.00000
     21     -14.8404      1.00000
     22     -14.8252      1.00000
     23     -14.8079      1.00000
     24     -14.7942      1.00000
     25      -6.6217      1.00000
     26      -6.5725      1.00000
     27      -6.5166      1.00000
     28      -6.4649      1.00000
     29      -5.0811      1.00000
     30      -5.0688      1.00000
     31      -4.9898      1.00000
     32      -4.9419      1.00000
     33      -4.3763      1.00000
     34      -4.3040      1.00000
     35      -4.2731      1.00000
     36      -4.2166      1.00000
     37      -4.0163      1.00000
     38      -4.0034      1.00000
     39      -3.9711      1.00000
     40      -3.9106      1.00000
     41      -1.7679      1.00000
     42      -1.6594      1.00000
     43      -1.4873      1.00000
     44      -1.4329      1.00000
     45      -1.3860      1.00000
     46      -1.2999      1.00000
     47      -1.1494      1.00000
     48      -1.0534      1.00000
     49       4.2657      1.00000
     50       4.4902      1.00000
     51       4.5556      1.00000
     52       4.7418      1.00000
     53       5.1147      1.00000
     54       5.4904      0.53990
     55       5.5940      0.00234
     56       5.6540      0.00000
     57       5.9161      0.00000
     58       6.3708      0.00000
     59       6.6519      0.00000
     60       6.7086      0.00000
     61       6.7554      0.00000
     62       6.9234      0.00000
     63       7.0147      0.00000
     64       7.1866      0.00000
     65       7.3544      0.00000
     66       7.5001      0.00000
     67       7.5485      0.00000
     68       7.5822      0.00000
     69       7.6671      0.00000
     70       7.7454      0.00000

 k-point    71 :       0.2000    0.2857    0.4000
  band No.  band energies     occupation 
      1     -33.8343      1.00000
      2     -33.8314      1.00000
      3     -33.8269      1.00000
      4     -33.8197      1.00000
      5     -20.3934      1.00000
      6     -20.3861      1.00000
      7     -20.2810      1.00000
      8     -20.2693      1.00000
      9     -18.8222      1.00000
     10     -18.8156      1.00000
     11     -18.6910      1.00000
     12     -18.6481      1.00000
     13     -15.1805      1.00000
     14     -15.1363      1.00000
     15     -15.0564      1.00000
     16     -15.0415      1.00000
     17     -14.9936      1.00000
     18     -14.9812      1.00000
     19     -14.9664      1.00000
     20     -14.9270      1.00000
     21     -14.8353      1.00000
     22     -14.8237      1.00000
     23     -14.8076      1.00000
     24     -14.7827      1.00000
     25      -6.5411      1.00000
     26      -6.4901      1.00000
     27      -6.4632      1.00000
     28      -6.4183      1.00000
     29      -5.2255      1.00000
     30      -5.2000      1.00000
     31      -4.9836      1.00000
     32      -4.9418      1.00000
     33      -4.4465      1.00000
     34      -4.3892      1.00000
     35      -4.2620      1.00000
     36      -4.1801      1.00000
     37      -4.0726      1.00000
     38      -4.0336      1.00000
     39      -4.0002      1.00000
     40      -3.8972      1.00000
     41      -1.7557      1.00000
     42      -1.5871      1.00000
     43      -1.4111      1.00000
     44      -1.3480      1.00000
     45      -1.3143      1.00000
     46      -1.3014      1.00000
     47      -1.1712      1.00000
     48      -0.9677      1.00000
     49       4.2292      1.00000
     50       4.3451      1.00000
     51       4.5861      1.00000
     52       4.8696      1.00000
     53       5.0232      1.00000
     54       5.4570      0.85231
     55       5.5347      0.12443
     56       5.6566      0.00000
     57       6.0039      0.00000
     58       6.5617      0.00000
     59       6.6126      0.00000
     60       6.6490      0.00000
     61       6.8012      0.00000
     62       6.9909      0.00000
     63       7.0262      0.00000
     64       7.1665      0.00000
     65       7.2270      0.00000
     66       7.3897      0.00000
     67       7.4307      0.00000
     68       7.6422      0.00000
     69       7.7430      0.00000
     70       7.8263      0.00000

 k-point    72 :      -0.2000    0.2857   -0.4000
  band No.  band energies     occupation 
      1     -33.8343      1.00000
      2     -33.8314      1.00000
      3     -33.8269      1.00000
      4     -33.8197      1.00000
      5     -20.3934      1.00000
      6     -20.3861      1.00000
      7     -20.2810      1.00000
      8     -20.2693      1.00000
      9     -18.8223      1.00000
     10     -18.8156      1.00000
     11     -18.6910      1.00000
     12     -18.6481      1.00000
     13     -15.1805      1.00000
     14     -15.1362      1.00000
     15     -15.0564      1.00000
     16     -15.0415      1.00000
     17     -14.9936      1.00000
     18     -14.9812      1.00000
     19     -14.9664      1.00000
     20     -14.9270      1.00000
     21     -14.8353      1.00000
     22     -14.8237      1.00000
     23     -14.8076      1.00000
     24     -14.7827      1.00000
     25      -6.5411      1.00000
     26      -6.4901      1.00000
     27      -6.4632      1.00000
     28      -6.4183      1.00000
     29      -5.2255      1.00000
     30      -5.2000      1.00000
     31      -4.9836      1.00000
     32      -4.9418      1.00000
     33      -4.4465      1.00000
     34      -4.3891      1.00000
     35      -4.2619      1.00000
     36      -4.1801      1.00000
     37      -4.0726      1.00000
     38      -4.0336      1.00000
     39      -4.0002      1.00000
     40      -3.8972      1.00000
     41      -1.7557      1.00000
     42      -1.5871      1.00000
     43      -1.4111      1.00000
     44      -1.3480      1.00000
     45      -1.3144      1.00000
     46      -1.3012      1.00000
     47      -1.1712      1.00000
     48      -0.9677      1.00000
     49       4.2292      1.00000
     50       4.3452      1.00000
     51       4.5861      1.00000
     52       4.8693      1.00000
     53       5.0235      1.00000
     54       5.4572      0.85068
     55       5.5345      0.12583
     56       5.6565      0.00000
     57       6.0040      0.00000
     58       6.5617      0.00000
     59       6.6127      0.00000
     60       6.6490      0.00000
     61       6.8012      0.00000
     62       6.9908      0.00000
     63       7.0261      0.00000
     64       7.1667      0.00000
     65       7.2268      0.00000
     66       7.3897      0.00000
     67       7.4306      0.00000
     68       7.6422      0.00000
     69       7.7430      0.00000
     70       7.8264      0.00000

 k-point    73 :       0.4000    0.2857    0.4000
  band No.  band energies     occupation 
      1     -33.8367      1.00000
      2     -33.8321      1.00000
      3     -33.8255      1.00000
      4     -33.8180      1.00000
      5     -20.4006      1.00000
      6     -20.3925      1.00000
      7     -20.2891      1.00000
      8     -20.2779      1.00000
      9     -18.7995      1.00000
     10     -18.7927      1.00000
     11     -18.6694      1.00000
     12     -18.6502      1.00000
     13     -15.2208      1.00000
     14     -15.1917      1.00000
     15     -15.0309      1.00000
     16     -15.0262      1.00000
     17     -15.0046      1.00000
     18     -14.9777      1.00000
     19     -14.9715      1.00000
     20     -14.9647      1.00000
     21     -14.8173      1.00000
     22     -14.8073      1.00000
     23     -14.7959      1.00000
     24     -14.7795      1.00000
     25      -6.4160      1.00000
     26      -6.3892      1.00000
     27      -6.3619      1.00000
     28      -6.3271      1.00000
     29      -5.3883      1.00000
     30      -5.3490      1.00000
     31      -5.0286      1.00000
     32      -4.9857      1.00000
     33      -4.5489      1.00000
     34      -4.5297      1.00000
     35      -4.2221      1.00000
     36      -4.1958      1.00000
     37      -4.1237      1.00000
     38      -4.0857      1.00000
     39      -3.9939      1.00000
     40      -3.9281      1.00000
     41      -1.6576      1.00000
     42      -1.5020      1.00000
     43      -1.4541      1.00000
     44      -1.3886      1.00000
     45      -1.1400      1.00000
     46      -1.1088      1.00000
     47      -1.0902      1.00000
     48      -0.9269      1.00000
     49       4.2012      1.00000
     50       4.2172      1.00000
     51       4.6889      1.00000
     52       4.7547      1.00000
     53       5.1340      1.00000
     54       5.3455      0.99999
     55       5.4255      0.97365
     56       5.5964      0.00188
     57       6.1986      0.00000
     58       6.2721      0.00000
     59       6.6068      0.00000
     60       6.7092      0.00000
     61       6.8727      0.00000
     62       7.0644      0.00000
     63       7.0813      0.00000
     64       7.2228      0.00000
     65       7.2536      0.00000
     66       7.2844      0.00000
     67       7.3893      0.00000
     68       7.6344      0.00000
     69       7.7732      0.00000
     70       7.8854      0.00000

 k-point    74 :      -0.4000    0.2857   -0.4000
  band No.  band energies     occupation 
      1     -33.8367      1.00000
      2     -33.8321      1.00000
      3     -33.8255      1.00000
      4     -33.8180      1.00000
      5     -20.4006      1.00000
      6     -20.3925      1.00000
      7     -20.2891      1.00000
      8     -20.2779      1.00000
      9     -18.7995      1.00000
     10     -18.7927      1.00000
     11     -18.6694      1.00000
     12     -18.6502      1.00000
     13     -15.2208      1.00000
     14     -15.1917      1.00000
     15     -15.0309      1.00000
     16     -15.0262      1.00000
     17     -15.0046      1.00000
     18     -14.9777      1.00000
     19     -14.9715      1.00000
     20     -14.9647      1.00000
     21     -14.8173      1.00000
     22     -14.8074      1.00000
     23     -14.7959      1.00000
     24     -14.7795      1.00000
     25      -6.4160      1.00000
     26      -6.3892      1.00000
     27      -6.3619      1.00000
     28      -6.3271      1.00000
     29      -5.3883      1.00000
     30      -5.3490      1.00000
     31      -5.0286      1.00000
     32      -4.9857      1.00000
     33      -4.5490      1.00000
     34      -4.5297      1.00000
     35      -4.2221      1.00000
     36      -4.1958      1.00000
     37      -4.1237      1.00000
     38      -4.0857      1.00000
     39      -3.9940      1.00000
     40      -3.9281      1.00000
     41      -1.6577      1.00000
     42      -1.5020      1.00000
     43      -1.4541      1.00000
     44      -1.3886      1.00000
     45      -1.1400      1.00000
     46      -1.1089      1.00000
     47      -1.0901      1.00000
     48      -0.9269      1.00000
     49       4.2012      1.00000
     50       4.2172      1.00000
     51       4.6889      1.00000
     52       4.7547      1.00000
     53       5.1340      1.00000
     54       5.3458      0.99999
     55       5.4252      0.97411
     56       5.5964      0.00188
     57       6.1987      0.00000
     58       6.2721      0.00000
     59       6.6068      0.00000
     60       6.7092      0.00000
     61       6.8727      0.00000
     62       7.0644      0.00000
     63       7.0813      0.00000
     64       7.2228      0.00000
     65       7.2535      0.00000
     66       7.2843      0.00000
     67       7.3893      0.00000
     68       7.6343      0.00000
     69       7.7732      0.00000
     70       7.8855      0.00000

 k-point    75 :      -0.4000    0.2857    0.4000
  band No.  band energies     occupation 
      1     -33.8393      1.00000
      2     -33.8319      1.00000
      3     -33.8229      1.00000
      4     -33.8182      1.00000
      5     -20.4006      1.00000
      6     -20.3930      1.00000
      7     -20.2893      1.00000
      8     -20.2784      1.00000
      9     -18.7984      1.00000
     10     -18.7922      1.00000
     11     -18.6707      1.00000
     12     -18.6494      1.00000
     13     -15.2141      1.00000
     14     -15.2015      1.00000
     15     -15.0287      1.00000
     16     -15.0243      1.00000
     17     -14.9991      1.00000
     18     -14.9963      1.00000
     19     -14.9738      1.00000
     20     -14.9595      1.00000
     21     -14.8083      1.00000
     22     -14.8017      1.00000
     23     -14.7946      1.00000
     24     -14.7839      1.00000
     25      -6.4406      1.00000
     26      -6.3967      1.00000
     27      -6.3847      1.00000
     28      -6.3302      1.00000
     29      -5.3413      1.00000
     30      -5.3060      1.00000
     31      -5.0277      1.00000
     32      -4.9846      1.00000
     33      -4.5606      1.00000
     34      -4.5525      1.00000
     35      -4.2315      1.00000
     36      -4.1843      1.00000
     37      -4.1216      1.00000
     38      -4.0805      1.00000
     39      -3.9754      1.00000
     40      -3.9569      1.00000
     41      -1.6207      1.00000
     42      -1.5497      1.00000
     43      -1.5171      1.00000
     44      -1.3105      1.00000
     45      -1.1860      1.00000
     46      -1.0572      1.00000
     47      -1.0344      1.00000
     48      -0.9978      1.00000
     49       4.2384      1.00000
     50       4.2533      1.00000
     51       4.5413      1.00000
     52       4.7877      1.00000
     53       5.2773      1.00000
     54       5.3801      0.99936
     55       5.4901      0.54405
     56       5.5374      0.10984
     57       5.7935      0.00000
     58       6.2264      0.00000
     59       6.5952      0.00000
     60       6.6476      0.00000
     61       7.0448      0.00000
     62       7.0656      0.00000
     63       7.2044      0.00000
     64       7.2359      0.00000
     65       7.2833      0.00000
     66       7.4540      0.00000
     67       7.5183      0.00000
     68       7.5595      0.00000
     69       7.6791      0.00000
     70       7.7935      0.00000

 k-point    76 :       0.4000    0.2857   -0.4000
  band No.  band energies     occupation 
      1     -33.8393      1.00000
      2     -33.8319      1.00000
      3     -33.8229      1.00000
      4     -33.8182      1.00000
      5     -20.4006      1.00000
      6     -20.3930      1.00000
      7     -20.2893      1.00000
      8     -20.2784      1.00000
      9     -18.7983      1.00000
     10     -18.7923      1.00000
     11     -18.6707      1.00000
     12     -18.6494      1.00000
     13     -15.2141      1.00000
     14     -15.2015      1.00000
     15     -15.0287      1.00000
     16     -15.0243      1.00000
     17     -14.9991      1.00000
     18     -14.9963      1.00000
     19     -14.9738      1.00000
     20     -14.9595      1.00000
     21     -14.8082      1.00000
     22     -14.8018      1.00000
     23     -14.7946      1.00000
     24     -14.7839      1.00000
     25      -6.4406      1.00000
     26      -6.3967      1.00000
     27      -6.3847      1.00000
     28      -6.3302      1.00000
     29      -5.3413      1.00000
     30      -5.3060      1.00000
     31      -5.0277      1.00000
     32      -4.9846      1.00000
     33      -4.5605      1.00000
     34      -4.5526      1.00000
     35      -4.2315      1.00000
     36      -4.1843      1.00000
     37      -4.1216      1.00000
     38      -4.0805      1.00000
     39      -3.9754      1.00000
     40      -3.9568      1.00000
     41      -1.6207      1.00000
     42      -1.5497      1.00000
     43      -1.5171      1.00000
     44      -1.3105      1.00000
     45      -1.1860      1.00000
     46      -1.0574      1.00000
     47      -1.0343      1.00000
     48      -0.9978      1.00000
     49       4.2384      1.00000
     50       4.2533      1.00000
     51       4.5412      1.00000
     52       4.7878      1.00000
     53       5.2773      1.00000
     54       5.3799      0.99937
     55       5.4902      0.54301
     56       5.5375      0.10890
     57       5.7934      0.00000
     58       6.2264      0.00000
     59       6.5952      0.00000
     60       6.6476      0.00000
     61       7.0448      0.00000
     62       7.0655      0.00000
     63       7.2043      0.00000
     64       7.2358      0.00000
     65       7.2833      0.00000
     66       7.4540      0.00000
     67       7.5183      0.00000
     68       7.5596      0.00000
     69       7.6791      0.00000
     70       7.7934      0.00000

 k-point    77 :      -0.2000    0.2857    0.4000
  band No.  band energies     occupation 
      1     -33.8397      1.00000
      2     -33.8292      1.00000
      3     -33.8242      1.00000
      4     -33.8191      1.00000
      5     -20.3934      1.00000
      6     -20.3869      1.00000
      7     -20.2813      1.00000
      8     -20.2702      1.00000
      9     -18.8199      1.00000
     10     -18.8156      1.00000
     11     -18.6919      1.00000
     12     -18.6476      1.00000
     13     -15.1727      1.00000
     14     -15.1538      1.00000
     15     -15.0550      1.00000
     16     -15.0307      1.00000
     17     -15.0056      1.00000
     18     -14.9806      1.00000
     19     -14.9550      1.00000
     20     -14.9498      1.00000
     21     -14.8249      1.00000
     22     -14.8091      1.00000
     23     -14.7990      1.00000
     24     -14.7922      1.00000
     25      -6.5756      1.00000
     26      -6.5314      1.00000
     27      -6.4648      1.00000
     28      -6.4112      1.00000
     29      -5.1523      1.00000
     30      -5.1329      1.00000
     31      -4.9937      1.00000
     32      -4.9491      1.00000
     33      -4.4784      1.00000
     34      -4.4224      1.00000
     35      -4.2645      1.00000
     36      -4.1750      1.00000
     37      -4.0576      1.00000
     38      -4.0042      1.00000
     39      -3.9897      1.00000
     40      -3.9426      1.00000
     41      -1.7196      1.00000
     42      -1.6397      1.00000
     43      -1.4833      1.00000
     44      -1.3931      1.00000
     45      -1.2326      1.00000
     46      -1.2141      1.00000
     47      -1.1248      1.00000
     48      -1.0580      1.00000
     49       4.3307      1.00000
     50       4.3969      1.00000
     51       4.4360      1.00000
     52       4.7544      1.00000
     53       5.1053      1.00000
     54       5.5383      0.10517
     55       5.5947      0.00220
     56       5.6630      0.00000
     57       5.8110      0.00000
     58       6.1871      0.00000
     59       6.7252      0.00000
     60       6.7715      0.00000
     61       6.8763      0.00000
     62       6.9461      0.00000
     63       7.0928      0.00000
     64       7.1146      0.00000
     65       7.2766      0.00000
     66       7.5051      0.00000
     67       7.5869      0.00000
     68       7.6288      0.00000
     69       7.6675      0.00000
     70       7.8067      0.00000

 k-point    78 :       0.2000    0.2857   -0.4000
  band No.  band energies     occupation 
      1     -33.8397      1.00000
      2     -33.8292      1.00000
      3     -33.8242      1.00000
      4     -33.8191      1.00000
      5     -20.3934      1.00000
      6     -20.3869      1.00000
      7     -20.2813      1.00000
      8     -20.2702      1.00000
      9     -18.8198      1.00000
     10     -18.8157      1.00000
     11     -18.6919      1.00000
     12     -18.6476      1.00000
     13     -15.1726      1.00000
     14     -15.1538      1.00000
     15     -15.0550      1.00000
     16     -15.0307      1.00000
     17     -15.0056      1.00000
     18     -14.9806      1.00000
     19     -14.9550      1.00000
     20     -14.9498      1.00000
     21     -14.8248      1.00000
     22     -14.8091      1.00000
     23     -14.7991      1.00000
     24     -14.7922      1.00000
     25      -6.5756      1.00000
     26      -6.5314      1.00000
     27      -6.4648      1.00000
     28      -6.4112      1.00000
     29      -5.1523      1.00000
     30      -5.1329      1.00000
     31      -4.9937      1.00000
     32      -4.9491      1.00000
     33      -4.4783      1.00000
     34      -4.4225      1.00000
     35      -4.2645      1.00000
     36      -4.1750      1.00000
     37      -4.0577      1.00000
     38      -4.0042      1.00000
     39      -3.9896      1.00000
     40      -3.9427      1.00000
     41      -1.7196      1.00000
     42      -1.6397      1.00000
     43      -1.4833      1.00000
     44      -1.3932      1.00000
     45      -1.2327      1.00000
     46      -1.2141      1.00000
     47      -1.1248      1.00000
     48      -1.0579      1.00000
     49       4.3308      1.00000
     50       4.3968      1.00000
     51       4.4359      1.00000
     52       4.7545      1.00000
     53       5.1052      1.00000
     54       5.5379      0.10689
     55       5.5950      0.00213
     56       5.6633      0.00000
     57       5.8107      0.00000
     58       6.1871      0.00000
     59       6.7252      0.00000
     60       6.7715      0.00000
     61       6.8763      0.00000
     62       6.9461      0.00000
     63       7.0926      0.00000
     64       7.1147      0.00000
     65       7.2767      0.00000
     66       7.5051      0.00000
     67       7.5872      0.00000
     68       7.6288      0.00000
     69       7.6673      0.00000
     70       7.8066      0.00000

 k-point    79 :       0.0000    0.4286    0.4000
  band No.  band energies     occupation 
      1     -33.8335      1.00000
      2     -33.8284      1.00000
      3     -33.8254      1.00000
      4     -33.8212      1.00000
      5     -20.4257      1.00000
      6     -20.4206      1.00000
      7     -20.3278      1.00000
      8     -20.3147      1.00000
      9     -18.8312      1.00000
     10     -18.8102      1.00000
     11     -18.7157      1.00000
     12     -18.6904      1.00000
     13     -15.1068      1.00000
     14     -15.0932      1.00000
     15     -15.0778      1.00000
     16     -15.0673      1.00000
     17     -15.0036      1.00000
     18     -14.9954      1.00000
     19     -14.9521      1.00000
     20     -14.9354      1.00000
     21     -14.6875      1.00000
     22     -14.6763      1.00000
     23     -14.6684      1.00000
     24     -14.6608      1.00000
     25      -6.5705      1.00000
     26      -6.5265      1.00000
     27      -6.4623      1.00000
     28      -6.4155      1.00000
     29      -5.0815      1.00000
     30      -5.0706      1.00000
     31      -4.9944      1.00000
     32      -4.9447      1.00000
     33      -4.6265      1.00000
     34      -4.5916      1.00000
     35      -4.5799      1.00000
     36      -4.5627      1.00000
     37      -4.1116      1.00000
     38      -4.0747      1.00000
     39      -4.0514      1.00000
     40      -4.0018      1.00000
     41      -1.5580      1.00000
     42      -1.5102      1.00000
     43      -1.4595      1.00000
     44      -1.4049      1.00000
     45      -1.3174      1.00000
     46      -1.2491      1.00000
     47      -1.1479      1.00000
     48      -1.1199      1.00000
     49       4.1302      1.00000
     50       4.2420      1.00000
     51       4.4083      1.00000
     52       4.4928      1.00000
     53       5.3178      1.00000
     54       5.4334      0.95666
     55       5.6493      0.00001
     56       5.6771      0.00000
     57       6.1835      0.00000
     58       6.4570      0.00000
     59       6.6879      0.00000
     60       6.7276      0.00000
     61       6.8235      0.00000
     62       6.9312      0.00000
     63       6.9971      0.00000
     64       7.1247      0.00000
     65       7.1972      0.00000
     66       7.3126      0.00000
     67       7.5005      0.00000
     68       7.6386      0.00000
     69       7.8087      0.00000
     70       7.9713      0.00000

 k-point    80 :      -0.0000    0.4286   -0.4000
  band No.  band energies     occupation 
      1     -33.8335      1.00000
      2     -33.8284      1.00000
      3     -33.8254      1.00000
      4     -33.8212      1.00000
      5     -20.4258      1.00000
      6     -20.4206      1.00000
      7     -20.3278      1.00000
      8     -20.3147      1.00000
      9     -18.8312      1.00000
     10     -18.8102      1.00000
     11     -18.7157      1.00000
     12     -18.6904      1.00000
     13     -15.1068      1.00000
     14     -15.0932      1.00000
     15     -15.0778      1.00000
     16     -15.0673      1.00000
     17     -15.0036      1.00000
     18     -14.9954      1.00000
     19     -14.9521      1.00000
     20     -14.9354      1.00000
     21     -14.6875      1.00000
     22     -14.6763      1.00000
     23     -14.6684      1.00000
     24     -14.6608      1.00000
     25      -6.5705      1.00000
     26      -6.5265      1.00000
     27      -6.4623      1.00000
     28      -6.4155      1.00000
     29      -5.0815      1.00000
     30      -5.0706      1.00000
     31      -4.9944      1.00000
     32      -4.9447      1.00000
     33      -4.6265      1.00000
     34      -4.5916      1.00000
     35      -4.5799      1.00000
     36      -4.5627      1.00000
     37      -4.1116      1.00000
     38      -4.0747      1.00000
     39      -4.0514      1.00000
     40      -4.0018      1.00000
     41      -1.5580      1.00000
     42      -1.5102      1.00000
     43      -1.4595      1.00000
     44      -1.4050      1.00000
     45      -1.3174      1.00000
     46      -1.2491      1.00000
     47      -1.1479      1.00000
     48      -1.1199      1.00000
     49       4.1302      1.00000
     50       4.2420      1.00000
     51       4.4082      1.00000
     52       4.4928      1.00000
     53       5.3178      1.00000
     54       5.4334      0.95668
     55       5.6493      0.00001
     56       5.6771      0.00000
     57       6.1835      0.00000
     58       6.4570      0.00000
     59       6.6879      0.00000
     60       6.7276      0.00000
     61       6.8235      0.00000
     62       6.9312      0.00000
     63       6.9971      0.00000
     64       7.1246      0.00000
     65       7.1972      0.00000
     66       7.3126      0.00000
     67       7.5004      0.00000
     68       7.6386      0.00000
     69       7.8087      0.00000
     70       7.9725      0.00000

 k-point    81 :       0.2000    0.4286    0.4000
  band No.  band energies     occupation 
      1     -33.8329      1.00000
      2     -33.8287      1.00000
      3     -33.8259      1.00000
      4     -33.8208      1.00000
      5     -20.4308      1.00000
      6     -20.4237      1.00000
      7     -20.3325      1.00000
      8     -20.3197      1.00000
      9     -18.8187      1.00000
     10     -18.8007      1.00000
     11     -18.7049      1.00000
     12     -18.6829      1.00000
     13     -15.1631      1.00000
     14     -15.1435      1.00000
     15     -15.0441      1.00000
     16     -15.0354      1.00000
     17     -14.9975      1.00000
     18     -14.9874      1.00000
     19     -14.9683      1.00000
     20     -14.9588      1.00000
     21     -14.6840      1.00000
     22     -14.6742      1.00000
     23     -14.6629      1.00000
     24     -14.6426      1.00000
     25      -6.4896      1.00000
     26      -6.4399      1.00000
     27      -6.4145      1.00000
     28      -6.3659      1.00000
     29      -5.2281      1.00000
     30      -5.2008      1.00000
     31      -4.9836      1.00000
     32      -4.9398      1.00000
     33      -4.6977      1.00000
     34      -4.6766      1.00000
     35      -4.5551      1.00000
     36      -4.5309      1.00000
     37      -4.1292      1.00000
     38      -4.0913      1.00000
     39      -4.0869      1.00000
     40      -4.0401      1.00000
     41      -1.5835      1.00000
     42      -1.4617      1.00000
     43      -1.4038      1.00000
     44      -1.3299      1.00000
     45      -1.2809      1.00000
     46      -1.2103      1.00000
     47      -1.1369      1.00000
     48      -0.9868      1.00000
     49       4.0898      1.00000
     50       4.1547      1.00000
     51       4.4904      1.00000
     52       4.5908      1.00000
     53       5.1224      1.00000
     54       5.2431      1.00000
     55       5.5815      0.00663
     56       5.6488      0.00001
     57       6.4642      0.00000
     58       6.6423      0.00000
     59       6.7066      0.00000
     60       6.7705      0.00000
     61       6.8755      0.00000
     62       6.8929      0.00000
     63       6.9447      0.00000
     64       7.1583      0.00000
     65       7.3068      0.00000
     66       7.3912      0.00000
     67       7.4698      0.00000
     68       7.5807      0.00000
     69       7.6451      0.00000
     70       7.8478      0.00000

 k-point    82 :      -0.2000    0.4286   -0.4000
  band No.  band energies     occupation 
      1     -33.8329      1.00000
      2     -33.8287      1.00000
      3     -33.8259      1.00000
      4     -33.8208      1.00000
      5     -20.4308      1.00000
      6     -20.4237      1.00000
      7     -20.3325      1.00000
      8     -20.3197      1.00000
      9     -18.8187      1.00000
     10     -18.8007      1.00000
     11     -18.7049      1.00000
     12     -18.6829      1.00000
     13     -15.1631      1.00000
     14     -15.1435      1.00000
     15     -15.0441      1.00000
     16     -15.0354      1.00000
     17     -14.9975      1.00000
     18     -14.9874      1.00000
     19     -14.9683      1.00000
     20     -14.9588      1.00000
     21     -14.6840      1.00000
     22     -14.6742      1.00000
     23     -14.6629      1.00000
     24     -14.6426      1.00000
     25      -6.4896      1.00000
     26      -6.4399      1.00000
     27      -6.4145      1.00000
     28      -6.3659      1.00000
     29      -5.2281      1.00000
     30      -5.2008      1.00000
     31      -4.9836      1.00000
     32      -4.9398      1.00000
     33      -4.6977      1.00000
     34      -4.6766      1.00000
     35      -4.5551      1.00000
     36      -4.5309      1.00000
     37      -4.1292      1.00000
     38      -4.0913      1.00000
     39      -4.0869      1.00000
     40      -4.0400      1.00000
     41      -1.5835      1.00000
     42      -1.4617      1.00000
     43      -1.4038      1.00000
     44      -1.3299      1.00000
     45      -1.2809      1.00000
     46      -1.2103      1.00000
     47      -1.1369      1.00000
     48      -0.9868      1.00000
     49       4.0898      1.00000
     50       4.1547      1.00000
     51       4.4904      1.00000
     52       4.5908      1.00000
     53       5.1224      1.00000
     54       5.2432      1.00000
     55       5.5815      0.00665
     56       5.6488      0.00001
     57       6.4643      0.00000
     58       6.6423      0.00000
     59       6.7066      0.00000
     60       6.7705      0.00000
     61       6.8755      0.00000
     62       6.8929      0.00000
     63       6.9447      0.00000
     64       7.1584      0.00000
     65       7.3067      0.00000
     66       7.3912      0.00000
     67       7.4699      0.00000
     68       7.5807      0.00000
     69       7.6451      0.00000
     70       7.8478      0.00000

 k-point    83 :       0.4000    0.4286    0.4000
  band No.  band energies     occupation 
      1     -33.8356      1.00000
      2     -33.8311      1.00000
      3     -33.8233      1.00000
      4     -33.8183      1.00000
      5     -20.4384      1.00000
      6     -20.4301      1.00000
      7     -20.3400      1.00000
      8     -20.3287      1.00000
      9     -18.7963      1.00000
     10     -18.7860      1.00000
     11     -18.6859      1.00000
     12     -18.6715      1.00000
     13     -15.2139      1.00000
     14     -15.1979      1.00000
     15     -15.0194      1.00000
     16     -15.0156      1.00000
     17     -15.0124      1.00000
     18     -14.9970      1.00000
     19     -14.9752      1.00000
     20     -14.9720      1.00000
     21     -14.6755      1.00000
     22     -14.6670      1.00000
     23     -14.6433      1.00000
     24     -14.6291      1.00000
     25      -6.3664      1.00000
     26      -6.3356      1.00000
     27      -6.3134      1.00000
     28      -6.2717      1.00000
     29      -5.3921      1.00000
     30      -5.3490      1.00000
     31      -5.0250      1.00000
     32      -4.9775      1.00000
     33      -4.7904      1.00000
     34      -4.7794      1.00000
     35      -4.5464      1.00000
     36      -4.5335      1.00000
     37      -4.1573      1.00000
     38      -4.1267      1.00000
     39      -4.1227      1.00000
     40      -4.0905      1.00000
     41      -1.5422      1.00000
     42      -1.4670      1.00000
     43      -1.3685      1.00000
     44      -1.3530      1.00000
     45      -1.1358      1.00000
     46      -1.1007      1.00000
     47      -0.9660      1.00000
     48      -0.8811      1.00000
     49       4.0766      1.00000
     50       4.0977      1.00000
     51       4.5231      1.00000
     52       4.5492      1.00000
     53       5.1264      1.00000
     54       5.1886      1.00000
     55       5.4562      0.85738
     56       5.5198      0.23226
     57       6.4607      0.00000
     58       6.5082      0.00000
     59       6.6703      0.00000
     60       6.7549      0.00000
     61       6.8285      0.00000
     62       6.9344      0.00000
     63       7.0486      0.00000
     64       7.1891      0.00000
     65       7.4375      0.00000
     66       7.4694      0.00000
     67       7.6116      0.00000
     68       7.6388      0.00000
     69       7.7494      0.00000
     70       7.9968      0.00000

 k-point    84 :      -0.4000    0.4286   -0.4000
  band No.  band energies     occupation 
      1     -33.8356      1.00000
      2     -33.8311      1.00000
      3     -33.8233      1.00000
      4     -33.8183      1.00000
      5     -20.4384      1.00000
      6     -20.4301      1.00000
      7     -20.3400      1.00000
      8     -20.3287      1.00000
      9     -18.7963      1.00000
     10     -18.7860      1.00000
     11     -18.6859      1.00000
     12     -18.6715      1.00000
     13     -15.2139      1.00000
     14     -15.1979      1.00000
     15     -15.0194      1.00000
     16     -15.0156      1.00000
     17     -15.0124      1.00000
     18     -14.9970      1.00000
     19     -14.9752      1.00000
     20     -14.9720      1.00000
     21     -14.6755      1.00000
     22     -14.6670      1.00000
     23     -14.6433      1.00000
     24     -14.6291      1.00000
     25      -6.3664      1.00000
     26      -6.3356      1.00000
     27      -6.3134      1.00000
     28      -6.2717      1.00000
     29      -5.3921      1.00000
     30      -5.3490      1.00000
     31      -5.0250      1.00000
     32      -4.9775      1.00000
     33      -4.7904      1.00000
     34      -4.7793      1.00000
     35      -4.5464      1.00000
     36      -4.5335      1.00000
     37      -4.1573      1.00000
     38      -4.1267      1.00000
     39      -4.1227      1.00000
     40      -4.0904      1.00000
     41      -1.5423      1.00000
     42      -1.4670      1.00000
     43      -1.3685      1.00000
     44      -1.3530      1.00000
     45      -1.1358      1.00000
     46      -1.1007      1.00000
     47      -0.9659      1.00000
     48      -0.8812      1.00000
     49       4.0766      1.00000
     50       4.0977      1.00000
     51       4.5231      1.00000
     52       4.5492      1.00000
     53       5.1264      1.00000
     54       5.1887      1.00000
     55       5.4561      0.85780
     56       5.5198      0.23216
     57       6.4607      0.00000
     58       6.5082      0.00000
     59       6.6703      0.00000
     60       6.7549      0.00000
     61       6.8285      0.00000
     62       6.9344      0.00000
     63       7.0485      0.00000
     64       7.1891      0.00000
     65       7.4375      0.00000
     66       7.4693      0.00000
     67       7.6116      0.00000
     68       7.6388      0.00000
     69       7.7494      0.00000
     70       7.9968      0.00000

 k-point    85 :      -0.4000    0.4286    0.4000
  band No.  band energies     occupation 
      1     -33.8371      1.00000
      2     -33.8321      1.00000
      3     -33.8218      1.00000
      4     -33.8173      1.00000
      5     -20.4383      1.00000
      6     -20.4308      1.00000
      7     -20.3400      1.00000
      8     -20.3293      1.00000
      9     -18.7954      1.00000
     10     -18.7861      1.00000
     11     -18.6855      1.00000
     12     -18.6716      1.00000
     13     -15.2141      1.00000
     14     -15.2013      1.00000
     15     -15.0246      1.00000
     16     -15.0198      1.00000
     17     -15.0087      1.00000
     18     -15.0025      1.00000
     19     -14.9688      1.00000
     20     -14.9642      1.00000
     21     -14.6757      1.00000
     22     -14.6643      1.00000
     23     -14.6400      1.00000
     24     -14.6319      1.00000
     25      -6.3931      1.00000
     26      -6.3432      1.00000
     27      -6.3362      1.00000
     28      -6.2759      1.00000
     29      -5.3421      1.00000
     30      -5.3040      1.00000
     31      -5.0234      1.00000
     32      -4.9751      1.00000
     33      -4.8025      1.00000
     34      -4.7910      1.00000
     35      -4.5531      1.00000
     36      -4.5334      1.00000
     37      -4.1477      1.00000
     38      -4.1368      1.00000
     39      -4.1190      1.00000
     40      -4.1000      1.00000
     41      -1.5184      1.00000
     42      -1.5001      1.00000
     43      -1.4107      1.00000
     44      -1.3071      1.00000
     45      -1.1524      1.00000
     46      -1.0953      1.00000
     47      -0.9347      1.00000
     48      -0.9008      1.00000
     49       4.1336      1.00000
     50       4.1411      1.00000
     51       4.3818      1.00000
     52       4.4691      1.00000
     53       5.3596      0.99993
     54       5.3849      0.99898
     55       5.4093      0.99169
     56       5.4492      0.89753
     57       6.1890      0.00000
     58       6.4151      0.00000
     59       6.5778      0.00000
     60       6.6698      0.00000
     61       6.7294      0.00000
     62       6.7894      0.00000
     63       7.1097      0.00000
     64       7.1615      0.00000
     65       7.5739      0.00000
     66       7.6711      0.00000
     67       7.6940      0.00000
     68       7.7616      0.00000
     69       7.9810      0.00000
     70       7.9900      0.00000

 k-point    86 :       0.4000    0.4286   -0.4000
  band No.  band energies     occupation 
      1     -33.8371      1.00000
      2     -33.8321      1.00000
      3     -33.8218      1.00000
      4     -33.8173      1.00000
      5     -20.4383      1.00000
      6     -20.4308      1.00000
      7     -20.3400      1.00000
      8     -20.3293      1.00000
      9     -18.7954      1.00000
     10     -18.7862      1.00000
     11     -18.6855      1.00000
     12     -18.6716      1.00000
     13     -15.2141      1.00000
     14     -15.2013      1.00000
     15     -15.0246      1.00000
     16     -15.0198      1.00000
     17     -15.0087      1.00000
     18     -15.0025      1.00000
     19     -14.9688      1.00000
     20     -14.9642      1.00000
     21     -14.6757      1.00000
     22     -14.6643      1.00000
     23     -14.6400      1.00000
     24     -14.6319      1.00000
     25      -6.3931      1.00000
     26      -6.3432      1.00000
     27      -6.3362      1.00000
     28      -6.2759      1.00000
     29      -5.3421      1.00000
     30      -5.3040      1.00000
     31      -5.0234      1.00000
     32      -4.9751      1.00000
     33      -4.8025      1.00000
     34      -4.7910      1.00000
     35      -4.5531      1.00000
     36      -4.5334      1.00000
     37      -4.1477      1.00000
     38      -4.1368      1.00000
     39      -4.1190      1.00000
     40      -4.1000      1.00000
     41      -1.5184      1.00000
     42      -1.5001      1.00000
     43      -1.4107      1.00000
     44      -1.3071      1.00000
     45      -1.1524      1.00000
     46      -1.0953      1.00000
     47      -0.9347      1.00000
     48      -0.9008      1.00000
     49       4.1336      1.00000
     50       4.1411      1.00000
     51       4.3817      1.00000
     52       4.4691      1.00000
     53       5.3594      0.99993
     54       5.3856      0.99891
     55       5.4086      0.99215
     56       5.4494      0.89641
     57       6.1890      0.00000
     58       6.4151      0.00000
     59       6.5777      0.00000
     60       6.6698      0.00000
     61       6.7294      0.00000
     62       6.7894      0.00000
     63       7.1097      0.00000
     64       7.1615      0.00000
     65       7.5738      0.00000
     66       7.6712      0.00000
     67       7.6940      0.00000
     68       7.7616      0.00000
     69       7.9810      0.00000
     70       7.9900      0.00000

 k-point    87 :      -0.2000    0.4286    0.4000
  band No.  band energies     occupation 
      1     -33.8363      1.00000
      2     -33.8306      1.00000
      3     -33.8231      1.00000
      4     -33.8184      1.00000
      5     -20.4305      1.00000
      6     -20.4249      1.00000
      7     -20.3325      1.00000
      8     -20.3206      1.00000
      9     -18.8177      1.00000
     10     -18.8004      1.00000
     11     -18.7044      1.00000
     12     -18.6828      1.00000
     13     -15.1660      1.00000
     14     -15.1525      1.00000
     15     -15.0307      1.00000
     16     -15.0238      1.00000
     17     -15.0194      1.00000
     18     -15.0061      1.00000
     19     -14.9545      1.00000
     20     -14.9459      1.00000
     21     -14.6864      1.00000
     22     -14.6696      1.00000
     23     -14.6558      1.00000
     24     -14.6474      1.00000
     25      -6.5275      1.00000
     26      -6.4833      1.00000
     27      -6.4117      1.00000
     28      -6.3606      1.00000
     29      -5.1518      1.00000
     30      -5.1312      1.00000
     31      -4.9938      1.00000
     32      -4.9482      1.00000
     33      -4.7142      1.00000
     34      -4.6902      1.00000
     35      -4.5654      1.00000
     36      -4.5346      1.00000
     37      -4.1281      1.00000
     38      -4.1009      1.00000
     39      -4.0828      1.00000
     40      -4.0430      1.00000
     41      -1.5563      1.00000
     42      -1.5015      1.00000
     43      -1.4473      1.00000
     44      -1.3204      1.00000
     45      -1.2776      1.00000
     46      -1.2047      1.00000
     47      -1.0856      1.00000
     48      -1.0098      1.00000
     49       4.2002      1.00000
     50       4.2734      1.00000
     51       4.2937      1.00000
     52       4.3828      1.00000
     53       5.3765      0.99955
     54       5.4787      0.66740
     55       5.5680      0.01810
     56       5.5906      0.00314
     57       6.1221      0.00000
     58       6.3619      0.00000
     59       6.6029      0.00000
     60       6.7147      0.00000
     61       6.8091      0.00000
     62       6.8777      0.00000
     63       7.0636      0.00000
     64       7.1603      0.00000
     65       7.3167      0.00000
     66       7.3867      0.00000
     67       7.6803      0.00000
     68       7.7741      0.00000
     69       7.7946      0.00000
     70       7.9393      0.00000

 k-point    88 :       0.2000    0.4286   -0.4000
  band No.  band energies     occupation 
      1     -33.8363      1.00000
      2     -33.8306      1.00000
      3     -33.8231      1.00000
      4     -33.8184      1.00000
      5     -20.4305      1.00000
      6     -20.4249      1.00000
      7     -20.3325      1.00000
      8     -20.3206      1.00000
      9     -18.8177      1.00000
     10     -18.8004      1.00000
     11     -18.7044      1.00000
     12     -18.6828      1.00000
     13     -15.1660      1.00000
     14     -15.1525      1.00000
     15     -15.0307      1.00000
     16     -15.0238      1.00000
     17     -15.0194      1.00000
     18     -15.0061      1.00000
     19     -14.9545      1.00000
     20     -14.9459      1.00000
     21     -14.6863      1.00000
     22     -14.6696      1.00000
     23     -14.6558      1.00000
     24     -14.6474      1.00000
     25      -6.5275      1.00000
     26      -6.4833      1.00000
     27      -6.4117      1.00000
     28      -6.3606      1.00000
     29      -5.1518      1.00000
     30      -5.1312      1.00000
     31      -4.9938      1.00000
     32      -4.9482      1.00000
     33      -4.7142      1.00000
     34      -4.6902      1.00000
     35      -4.5654      1.00000
     36      -4.5346      1.00000
     37      -4.1281      1.00000
     38      -4.1009      1.00000
     39      -4.0829      1.00000
     40      -4.0430      1.00000
     41      -1.5563      1.00000
     42      -1.5015      1.00000
     43      -1.4473      1.00000
     44      -1.3204      1.00000
     45      -1.2776      1.00000
     46      -1.2047      1.00000
     47      -1.0856      1.00000
     48      -1.0097      1.00000
     49       4.2002      1.00000
     50       4.2734      1.00000
     51       4.2937      1.00000
     52       4.3828      1.00000
     53       5.3766      0.99955
     54       5.4784      0.66998
     55       5.5683      0.01777
     56       5.5905      0.00316
     57       6.1221      0.00000
     58       6.3619      0.00000
     59       6.6028      0.00000
     60       6.7147      0.00000
     61       6.8091      0.00000
     62       6.8777      0.00000
     63       7.0636      0.00000
     64       7.1603      0.00000
     65       7.3167      0.00000
     66       7.3867      0.00000
     67       7.6803      0.00000
     68       7.7742      0.00000
     69       7.7946      0.00000
     70       7.9392      0.00000


--------------------------------------------------------------------------------------------------------


 soft charge-density along one line, spin component           1
         0         1         2         3         4         5         6         7         8         9
 total charge-density along one line
 
 soft charge-density along one line, spin component           2
         0         1         2         3         4         5         6         7         8         9
 total charge-density along one line
 
 pseudopotential strength for first ion, spin component:           1
-13.809  -7.035   0.004   0.001  -0.002  -0.004   0.001   0.001
 -7.035   0.765   0.001  -0.001   0.001   0.000   0.000  -0.000
  0.004   0.001 -13.854  -0.001  -0.000   4.923   0.002   0.000
  0.001  -0.001  -0.001 -13.884  -0.002   0.002   4.960   0.007
 -0.002   0.001  -0.000  -0.002 -13.892   0.000   0.007   4.970
 -0.004   0.000   4.923   0.002   0.000   8.157  -0.001   0.000
  0.001   0.000   0.002   4.960   0.007  -0.001   8.133  -0.007
  0.001  -0.000   0.000   0.007   4.970   0.000  -0.007   8.127
 -0.000   0.000  -0.002   0.000   0.002   0.003  -0.000  -0.002
 -0.001  -0.001   0.000   0.002   0.000   0.000  -0.002  -0.000
 -0.004  -0.003  -0.001   0.002   0.001   0.002  -0.002  -0.001
  0.001  -0.004   0.000  -0.001   0.000  -0.000   0.001   0.001
 -0.010  -0.008  -0.002  -0.000  -0.000   0.004   0.000  -0.001
 -0.000   0.000  -0.002   0.000   0.002   0.004  -0.000  -0.003
 -0.001  -0.001   0.000   0.002   0.000   0.001  -0.003  -0.000
 -0.005  -0.003  -0.002   0.002   0.001   0.003  -0.002  -0.001
  0.001  -0.006   0.000  -0.001   0.000  -0.000   0.001   0.001
 -0.015  -0.011  -0.003  -0.000  -0.000   0.005   0.000  -0.001
 pseudopotential strength for first ion, spin component:           2
-13.809  -7.035   0.004   0.001  -0.002  -0.004   0.001   0.001
 -7.035   0.765   0.001  -0.001   0.001   0.000   0.000  -0.000
  0.004   0.001 -13.854  -0.001  -0.000   4.923   0.002   0.000
  0.001  -0.001  -0.001 -13.884  -0.002   0.002   4.960   0.007
 -0.002   0.001  -0.000  -0.002 -13.892   0.000   0.007   4.970
 -0.004   0.000   4.923   0.002   0.000   8.157  -0.001   0.000
  0.001   0.000   0.002   4.960   0.007  -0.001   8.133  -0.007
  0.001  -0.000   0.000   0.007   4.970   0.000  -0.007   8.127
 -0.000   0.000  -0.002   0.000   0.002   0.003  -0.000  -0.002
 -0.001  -0.001   0.000   0.002   0.000   0.000  -0.002  -0.000
 -0.004  -0.003  -0.001   0.002   0.001   0.002  -0.002  -0.001
  0.001  -0.004   0.000  -0.001   0.000  -0.000   0.001   0.001
 -0.010  -0.008  -0.002  -0.000  -0.000   0.004   0.000  -0.001
 -0.000   0.000  -0.002   0.000   0.002   0.004  -0.000  -0.003
 -0.001  -0.001   0.000   0.002   0.000   0.001  -0.003  -0.000
 -0.005  -0.003  -0.002   0.002   0.001   0.003  -0.002  -0.001
  0.001  -0.006   0.000  -0.001   0.000  -0.000   0.001   0.001
 -0.015  -0.011  -0.003  -0.000  -0.000   0.005   0.000  -0.001
 total augmentation occupancy for first ion, spin component:           1
  1.998  -0.010  -0.001  -0.000   0.000  -0.001  -0.001   0.001  -0.001  -0.001  -0.017  -0.006  -0.032   0.000   0.001   0.013
 -0.010   0.580  -0.008  -0.010   0.004   0.009   0.012  -0.001  -0.008  -0.011  -0.128   0.216  -0.422   0.000   0.005   0.029
 -0.001  -0.008   2.002  -0.000   0.000  -0.004   0.000  -0.000   0.016  -0.003   0.002  -0.005   0.005  -0.006   0.004   0.002
 -0.000  -0.010  -0.000   2.005   0.000   0.000  -0.011  -0.001  -0.002  -0.002  -0.024   0.003   0.003   0.001  -0.001   0.006
  0.000   0.004   0.000   0.000   2.004  -0.000  -0.001  -0.007  -0.001  -0.001  -0.004   0.004  -0.001  -0.001   0.001   0.001
 -0.001   0.009  -0.004   0.000  -0.000   0.035  -0.000   0.000  -0.018  -0.014  -0.014   0.010  -0.028   0.008   0.005   0.005
 -0.001   0.012   0.000  -0.011  -0.001  -0.000   0.029   0.002   0.002   0.003   0.066   0.006   0.010  -0.001  -0.001  -0.034
  0.001  -0.001  -0.000  -0.001  -0.007   0.000   0.002   0.022   0.001   0.001   0.005   0.006   0.004  -0.000  -0.001  -0.002
 -0.001  -0.008   0.016  -0.002  -0.001  -0.018   0.002   0.001   1.125   0.179   0.000  -0.016   0.026  -0.511   0.010   0.003
 -0.001  -0.011  -0.003  -0.002  -0.001  -0.014   0.003   0.001   0.179   1.262   0.035   0.009   0.044   0.011  -0.570  -0.019
 -0.017  -0.128   0.002  -0.024  -0.004  -0.014   0.066   0.005   0.000   0.035   2.691  -0.053   0.696   0.003  -0.019  -1.436
 -0.006   0.216  -0.005   0.003   0.004   0.010   0.006   0.006  -0.016   0.009  -0.053   0.969  -0.368   0.007  -0.004  -0.050
 -0.032  -0.422   0.005   0.003  -0.001  -0.028   0.010   0.004   0.026   0.044   0.696  -0.368   3.023  -0.005  -0.020  -0.308
  0.000   0.000  -0.006   0.001  -0.001   0.008  -0.001  -0.000  -0.511   0.011   0.003   0.007  -0.005   0.252  -0.038  -0.003
  0.001   0.005   0.004  -0.001   0.001   0.005  -0.001  -0.001   0.010  -0.570  -0.019  -0.004  -0.020  -0.038   0.280   0.010
  0.013   0.029   0.002   0.006   0.001   0.005  -0.034  -0.002   0.003  -0.019  -1.436  -0.050  -0.308  -0.003   0.010   0.804
  0.005  -0.080   0.002  -0.002  -0.003  -0.003  -0.004  -0.002   0.007  -0.004  -0.052  -0.385   0.053  -0.003   0.002   0.058
  0.028   0.170   0.003  -0.003   0.001   0.010  -0.004  -0.005  -0.005  -0.020  -0.307   0.056  -1.487   0.000   0.010   0.152
 total augmentation occupancy for first ion, spin component:           2
 -0.000  -0.000  -0.000   0.000   0.000  -0.000   0.000   0.000  -0.000  -0.000   0.000   0.000  -0.000  -0.000   0.000  -0.000
 -0.000   0.000  -0.000   0.000   0.000  -0.000  -0.000  -0.000   0.000  -0.000  -0.000  -0.000   0.000   0.000   0.000   0.000
 -0.000  -0.000   0.000   0.000  -0.000  -0.000   0.000   0.000   0.000   0.000  -0.000   0.000  -0.000   0.000   0.000  -0.000
  0.000   0.000   0.000  -0.000   0.000   0.000  -0.000  -0.000  -0.000  -0.000   0.000   0.000   0.000  -0.000  -0.000   0.000
  0.000   0.000  -0.000   0.000   0.000   0.000  -0.000  -0.000  -0.000  -0.000  -0.000   0.000   0.000  -0.000  -0.000   0.000
 -0.000  -0.000  -0.000   0.000   0.000   0.000   0.000  -0.000  -0.000  -0.000   0.000   0.000   0.000   0.000   0.000  -0.000
  0.000  -0.000   0.000  -0.000  -0.000   0.000   0.000   0.000   0.000   0.000  -0.000  -0.000   0.000  -0.000  -0.000   0.000
  0.000  -0.000   0.000  -0.000  -0.000  -0.000   0.000   0.000   0.000   0.000   0.000  -0.000   0.000  -0.000  -0.000  -0.000
 -0.000   0.000   0.000  -0.000  -0.000  -0.000   0.000   0.000   0.000   0.000  -0.000   0.000  -0.000  -0.000  -0.000   0.000
 -0.000  -0.000   0.000  -0.000  -0.000  -0.000   0.000   0.000   0.000   0.000   0.000   0.000  -0.000  -0.000  -0.000  -0.000
  0.000  -0.000  -0.000   0.000  -0.000   0.000  -0.000   0.000  -0.000   0.000  -0.001  -0.000  -0.000   0.000  -0.000   0.000
  0.000  -0.000   0.000   0.000   0.000   0.000  -0.000  -0.000   0.000   0.000  -0.000  -0.000  -0.000  -0.000  -0.000   0.000
 -0.000   0.000  -0.000   0.000   0.000   0.000   0.000   0.000  -0.000  -0.000  -0.000  -0.000  -0.000   0.000   0.000   0.000
 -0.000   0.000   0.000  -0.000  -0.000   0.000  -0.000  -0.000  -0.000  -0.000   0.000  -0.000   0.000   0.000   0.000  -0.000
  0.000   0.000   0.000  -0.000  -0.000   0.000  -0.000  -0.000  -0.000  -0.000  -0.000  -0.000   0.000   0.000   0.000   0.000
 -0.000   0.000  -0.000   0.000   0.000  -0.000   0.000  -0.000   0.000  -0.000   0.000   0.000   0.000  -0.000   0.000  -0.000
 -0.000   0.000  -0.000  -0.000   0.000   0.000   0.000   0.000  -0.000  -0.000   0.000   0.000   0.000   0.000  -0.000  -0.000
  0.000  -0.000  -0.000  -0.000  -0.000  -0.000  -0.000  -0.000   0.000   0.000   0.000   0.000   0.000  -0.000  -0.000  -0.000


------------------------ aborting loop because EDIFF is reached ----------------------------------------





 total charge

# of ion       s       p       d       tot
------------------------------------------
    1        2.067   5.816   0.960   8.842
    2        2.067   5.816   0.960   8.842
    3        2.066   5.816   0.962   8.845
    4        2.066   5.816   0.962   8.845
    5        0.850   1.756   0.000   2.606
    6        0.850   1.756   0.000   2.606
    7        0.851   1.753   0.000   2.604
    8        0.851   1.753   0.000   2.604
    9        1.595   3.597   0.000   5.192
   10        1.595   3.597   0.000   5.192
   11        1.587   3.510   0.000   5.097
   12        1.587   3.510   0.000   5.097
   13        1.597   3.586   0.000   5.183
   14        1.597   3.586   0.000   5.183
   15        1.589   3.497   0.000   5.086
   16        1.589   3.497   0.000   5.086
--------------------------------------------------
tot         24.403  58.664   3.843  86.910



 magnetization (x)

# of ion       s       p       d       tot
------------------------------------------
    1        0.000   0.000   0.000   0.000
    2       -0.000  -0.000  -0.000  -0.000
    3        0.000   0.000   0.000   0.000
    4       -0.000  -0.000  -0.000  -0.000
    5       -0.000  -0.001   0.000  -0.001
    6        0.000   0.000   0.000   0.001
    7       -0.000  -0.001   0.000  -0.001
    8        0.000   0.000   0.000   0.000
    9       -0.000  -0.000   0.000  -0.000
   10        0.000   0.000   0.000   0.000
   11       -0.000  -0.000   0.000  -0.000
   12        0.000   0.000   0.000   0.000
   13       -0.000  -0.000   0.000  -0.000
   14        0.000   0.000   0.000   0.000
   15       -0.000  -0.000   0.000  -0.000
   16        0.000   0.000   0.000   0.000
--------------------------------------------------
tot         -0.000  -0.001  -0.000  -0.001
 
    CHARGE:  cpu time      0.6575: real time      0.6599
    FORLOC:  cpu time      0.0054: real time      0.0054
    FORNL :  cpu time      3.3825: real time      3.3939
    STRESS:  cpu time      6.1280: real time      6.1514
    FORCOR:  cpu time      0.0514: real time      0.0516
    FORHAR:  cpu time      0.0085: real time      0.0086
    MIXING:  cpu time      0.0031: real time      0.0031
    OFIELD:  cpu time      0.0001: real time      0.0001

  FORCE on cell =-STRESS in cart. coord.  units (eV):
  Direction    XX          YY          ZZ          XY          YZ          ZX
  --------------------------------------------------------------------------------------
  Alpha Z   562.18400   562.18400   562.18400
  Ewald   -1960.49849 -2129.48477 -1794.74907     0.00000    -0.00001 -1065.83882
  Hartree   582.66387   695.68321   684.08070     0.00000    -0.00000  -397.65595
  E(xc)    -465.10913  -467.26462  -465.06943     0.00000    -0.00000    -3.08521
  Local    -224.35505  -309.82798  -500.77380    -0.00001     0.00001  1339.42707
  n-local  -349.04604  -380.11830  -348.58836     0.00000     0.00000    -3.42483
  augment    70.80970    79.65645    71.62849    -0.00000    -0.00000     6.23922
  Kinetic  1802.78717  1956.44129  1811.68564    -0.00000    -0.00000   102.94737
  Fock        0.00000     0.00000     0.00000     0.00000     0.00000     0.00000
  -------------------------------------------------------------------------------------
  Total      19.43605     7.26928    20.39817     0.00000    -0.00000   -21.39116
  in kB     130.72615    48.89292   137.19735     0.00001    -0.00003  -143.87617
  external pressure =      105.61 kB  Pullay stress =        0.00 kB


 VOLUME and BASIS-vectors are now :
 -----------------------------------------------------------------------------
  energy-cutoff  :      520.00
  volume of cell :      238.21
      direct lattice vectors                 reciprocal lattice vectors
     7.096318245  0.000000000 -1.163181305     0.144979172  0.000000000  0.024775451
     0.000000000  5.073762894  0.000000000     0.000000000  0.197092379  0.000000000
    -1.163181305  0.000000000  6.806619167     0.024775451  0.000000000  0.151149685

  length of vectors
     7.191016853  5.073762894  6.905291829     0.147080873  0.197092379  0.153166740


 FORCES acting on ions
    electron-ion (+dipol)            ewald-force                    non-local-force                 convergence-correction
 -----------------------------------------------------------------------------------------------
   0.777E+01 0.225E+01 0.410E+01   -.819E+01 -.162E+01 -.392E+01   0.355E+00 -.450E+00 -.665E+00   0.221E-03 -.987E-04 -.182E-02
   -.777E+01 0.225E+01 -.410E+01   0.819E+01 -.162E+01 0.392E+01   -.355E+00 -.450E+00 0.665E+00   -.241E-03 -.122E-03 0.179E-02
   -.101E+02 0.930E+01 -.279E+02   0.995E+01 -.868E+01 0.279E+02   0.305E+00 -.502E+00 0.308E+00   -.640E-03 -.209E-03 -.195E-02
   0.101E+02 0.930E+01 0.279E+02   -.995E+01 -.868E+01 -.279E+02   -.305E+00 -.502E+00 -.308E+00   0.631E-03 -.214E-03 0.197E-02
   -.311E+02 0.348E+01 0.944E+01   0.384E+02 -.683E+01 -.932E+01   -.158E+01 0.152E+01 -.103E+01   0.401E-03 0.685E-04 0.117E-02
   0.311E+02 0.348E+01 -.944E+01   -.384E+02 -.683E+01 0.932E+01   0.158E+01 0.152E+01 0.103E+01   -.455E-03 0.526E-04 -.119E-02
   -.268E+02 0.974E-02 0.982E+01   0.336E+02 -.340E+01 -.899E+01   -.130E+01 0.153E+01 -.148E+01   0.103E-02 0.125E-03 0.127E-02
   0.268E+02 0.973E-02 -.982E+01   -.336E+02 -.340E+01 0.899E+01   0.130E+01 0.153E+01 0.148E+01   -.107E-02 0.118E-03 -.127E-02
   0.118E+03 -.290E+01 -.741E+02   -.155E+03 0.281E+01 0.106E+03   0.303E+02 0.927E+00 -.283E+02   0.638E-03 -.830E-04 0.125E-02
   -.118E+03 -.290E+01 0.741E+02   0.155E+03 0.281E+01 -.106E+03   -.303E+02 0.927E+00 0.283E+02   -.778E-03 -.967E-04 -.117E-02
   -.886E+02 -.679E+01 0.821E+02   0.117E+03 0.745E+01 -.108E+03   -.276E+02 0.205E+00 0.228E+02   0.230E-02 0.203E-03 0.201E-03
   0.886E+02 -.679E+01 -.821E+02   -.117E+03 0.745E+01 0.108E+03   0.276E+02 0.205E+00 -.228E+02   -.243E-02 0.205E-03 -.242E-03
   0.126E+03 -.656E+01 -.905E+02   -.162E+03 0.683E+01 0.124E+03   0.303E+02 0.623E+00 -.299E+02   -.106E-03 -.236E-04 0.283E-02
   -.126E+03 -.656E+01 0.905E+02   0.162E+03 0.683E+01 -.124E+03   -.303E+02 0.623E+00 0.299E+02   0.230E-03 -.253E-04 -.284E-02
   -.964E+02 -.300E+01 0.986E+02   0.125E+03 0.343E+01 -.126E+03   -.276E+02 0.346E+00 0.242E+02   0.342E-03 0.983E-04 0.147E-02
   0.964E+02 -.300E+01 -.986E+02   -.125E+03 0.343E+01 0.126E+03   0.276E+02 0.346E+00 -.242E+02   -.262E-03 0.814E-04 -.163E-02
 -----------------------------------------------------------------------------------------------
   0.357E-03 -.840E+01 0.204E-03   -.568E-13 0.178E-14 -.128E-12   -.131E-03 0.840E+01 0.812E-05   -.185E-03 0.803E-04 -.168E-03
 
 
 POSITION                                       TOTAL-FORCE (eV/Angst)
 -----------------------------------------------------------------------------------
      1.78056      1.25974     -0.21124        -0.057641      0.179606     -0.488053
      4.73417      1.25974      2.45137         0.057644      0.179607      0.488058
      4.15258      3.81402      5.85468         0.137267      0.126830      0.288660
      1.19897      3.81402      3.19207        -0.137265      0.126828     -0.288662
      4.75791      3.76967      2.60633         5.694934     -1.827674     -0.911388
      0.59364      3.76967      6.44042        -5.694908     -1.827674      0.911428
      1.20975      1.23279      3.18792         5.522788     -1.862079     -0.637272
      4.14180      1.23279      5.85883        -5.522782     -1.862089      0.637295
      3.84380      3.79132      3.39408        -6.595759      0.839878      3.469947
      1.50775      3.79132      5.65267         6.595709      0.839878     -3.469951
      2.08934      1.28244      2.24936         1.066829      0.873786     -2.811257
      4.42539      1.28244     -0.00923        -1.066820      0.873788      2.811250
      0.29564      1.25444      3.97567        -6.554455      0.892244      3.678245
      5.05591      1.25444      5.07108         6.554455      0.892247     -3.678254
      5.63750      3.81933      1.66777         1.061618      0.777412     -3.119893
      0.87723      3.81933      0.57236        -1.061613      0.777413      3.119845
 -----------------------------------------------------------------------------------
    total drift:                                0.000041      0.000195      0.000044


--------------------------------------------------------------------------------------------------------



  FREE ENERGIE OF THE ION-ELECTRON SYSTEM (eV)
  ---------------------------------------------------
  free  energy   TOTEN  =      -102.38346340 eV

  energy  without entropy=     -102.36908818  energy(sigma->0) =     -102.37627579
 


--------------------------------------------------------------------------------------------------------


    POTLOK:  cpu time      0.6046: real time      0.6067


--------------------------------------------------------------------------------------------------------


     LOOP+:  cpu time    542.8814: real time    545.5096
    4ORBIT:  cpu time      0.0000: real time      0.0000



 total charge

# of ion       s       p       d       tot
------------------------------------------
    1        2.067   5.816   0.960   8.842
    2        2.067   5.816   0.960   8.842
    3        2.066   5.816   0.962   8.845
    4        2.066   5.816   0.962   8.845
    5        0.850   1.756   0.000   2.606
    6        0.850   1.756   0.000   2.606
    7        0.851   1.753   0.000   2.604
    8        0.851   1.753   0.000   2.604
    9        1.595   3.597   0.000   5.192
   10        1.595   3.597   0.000   5.192
   11        1.587   3.510   0.000   5.097
   12        1.587   3.510   0.000   5.097
   13        1.597   3.586   0.000   5.183
   14        1.597   3.586   0.000   5.183
   15        1.589   3.497   0.000   5.086
   16        1.589   3.497   0.000   5.086
--------------------------------------------------
tot         24.403  58.664   3.843  86.910



 magnetization (x)

# of ion       s       p       d       tot
------------------------------------------
    1        0.000   0.000   0.000   0.000
    2       -0.000  -0.000  -0.000  -0.000
    3        0.000   0.000   0.000   0.000
    4       -0.000  -0.000  -0.000  -0.000
    5       -0.000  -0.001   0.000  -0.001
    6        0.000   0.000   0.000   0.001
    7       -0.000  -0.001   0.000  -0.001
    8        0.000   0.000   0.000   0.000
    9       -0.000  -0.000   0.000  -0.000
   10        0.000   0.000   0.000   0.000
   11       -0.000  -0.000   0.000  -0.000
   12        0.000   0.000   0.000   0.000
   13       -0.000  -0.000   0.000  -0.000
   14        0.000   0.000   0.000   0.000
   15       -0.000  -0.000   0.000  -0.000
   16        0.000   0.000   0.000   0.000
--------------------------------------------------
tot         -0.000  -0.001  -0.000  -0.001
 

 total amount of memory used by VASP MPI-rank0   174294. kBytes
=======================================================================

   base      :      30000. kBytes
   nonl-proj :      62766. kBytes
   fftplans  :       7907. kBytes
   grid      :       7068. kBytes
   one-center:        124. kBytes
   wavefun   :      66429. kBytes
 
  
  
 General timing and accounting informations for this job:
 ========================================================
  
                  Total CPU time used (sec):      551.148
                            User time (sec):      527.875
                          System time (sec):       23.273
                         Elapsed time (sec):      554.005
  
                   Maximum memory used (kb):      286100.
                   Average memory used (kb):          N/A
  
                          Minor page faults:       344640
                          Major page faults:           14
                 Voluntary context switches:          829
